! pbe def2-sv(p) def2/J RI DEFGRID1 loosescf d4 GCP(DFT/SV(P)) printgap
%output
    printlevel normal
end
* xyz 0 1
C -1.6363227368 -1.3146217191 -0.649457536
C -1.1482916566 -0.5056190487 0.5617341428
H -1.9404698154 -0.5383085502 1.3178927519
C -0.8806771343 0.9714206166 0.2040402101
H -1.2905138134 1.1766660036 -0.7901800257
C 0.6290831256 1.2834807877 0.1857407193
H 0.9825368734 1.4449372545 1.217161355
C 1.4281303115 0.1128490378 -0.3910239888
H 1.1038521074 -0.0553063317 -1.4249868176
C 1.1589822901 -1.1595245124 0.4424356831
H 1.9515989733 -1.2389105519 1.2024395202
O -0.0273509187 -1.1048026597 1.1961871369
O 1.1854160271 -2.2516087327 -0.4241638497
O 2.7926375361 0.4415568425 -0.3420701895
O 0.890239916 2.4200734805 -0.5979444386
O -1.5518345538 1.8657617587 1.0587296725
O -2.8556762713 -0.7560612563 -1.0774638717
H -1.7696949958 -2.3558773766 -0.3311992163
H -0.886319444 -1.2821947448 -1.4484918754
H 1.1744835497 -3.0807072978 0.0782679471
H 3.2884191417 -0.1194287023 -0.9548732992
H 0.3493391233 3.1535819736 -0.2685403568
H -1.2941020386 1.6974329219 1.9771287584
H -3.1976126931 -1.2698196676 -1.8227805826
*
