15
 xtb: 6.7.1 (edcfbbe)
C            1.81510154399226        0.65819477770353        0.27088784002955
C            1.01750372282109       -0.23709122760701       -0.66072160469716
O            0.00003408303701       -1.01122481500486       -0.00023507137154
C           -1.01742406479692       -0.23738477663446        0.66061683863333
C           -1.81496175975862        0.65842438019962       -0.27053667469602
H            1.22180981008975        1.49254221195786        0.65597172751386
H            2.20967246488938        0.08646635736567        1.11746387640256
H            2.66147916079457        1.07991140949155       -0.28079898683230
H            1.67545711369369       -0.98385400227747       -1.11635205264021
H            0.57504244196443        0.35287814361790       -1.47576253528351
H           -1.67542793081383       -0.98435392264528        1.11583840933941
H           -0.57496524951735        0.35214405821318        1.47597958327593
H           -2.20953551881041        0.08715548891462       -1.11742065810523
H           -2.66133655835383        1.07989709383983        0.28134793829255
H           -1.22162771497514        1.49294936186194       -0.65517310473319
