      -----------------------------------------------------------      
     |                   =====================                   |     
     |                           x T B                           |     
     |                   =====================                   |     
     |                         S. Grimme                         |     
     |          Mulliken Center for Theoretical Chemistry        |     
     |                    University of Bonn                     |     
      -----------------------------------------------------------      

   * xtb version 6.7.1 (edcfbbe) compiled by 'albert@albert-system' on 2024-07-22

   xtb is free software: you can redistribute it and/or modify it under
   the terms of the GNU Lesser General Public License as published by
   the Free Software Foundation, either version 3 of the License, or
   (at your option) any later version.
   
   xtb is distributed in the hope that it will be useful,
   but WITHOUT ANY WARRANTY; without even the implied warranty of
   MERCHANTABILITY or FITNESS FOR A PARTICULAR PURPOSE.  See the
   GNU Lesser General Public License for more details.
   
   Cite this work as:
   * C. Bannwarth, E. Caldeweyher, S. Ehlert, A. Hansen, P. Pracht,
     J. Seibert, S. Spicher, S. Grimme, WIREs Comput. Mol. Sci., 2020, 11,
     e01493. DOI: 10.1002/wcms.1493
   
   for GFN2-xTB:
   * C. Bannwarth, S. Ehlert and S. Grimme., J. Chem. Theory Comput., 2019,
     15, 1652-1671. DOI: 10.1021/acs.jctc.8b01176
   for GFN1-xTB:
   * S. Grimme, C. Bannwarth, P. Shushkov, J. Chem. Theory Comput., 2017,
     13, 1989-2009. DOI: 10.1021/acs.jctc.7b00118
   for GFN0-xTB:
   * P. Pracht, E. Caldeweyher, S. Ehlert, S. Grimme, ChemRxiv, 2019, preprint.
     DOI: 10.26434/chemrxiv.8326202.v1
   for GFN-FF:
   * S. Spicher and S. Grimme, Angew. Chem. Int. Ed., 2020, 59, 15665-15673.
     DOI: 10.1002/anie.202004239
   
   for ALPB and GBSA implicit solvation:
   * S. Ehlert, M. Stahn, S. Spicher, S. Grimme, J. Chem. Theory Comput.,
     2021, 17, 4250-4261. DOI: 10.1021/acs.jctc.1c00471
   
   for ddCOSMO and CPCM-X implicit solvation:
   * M. Stahn, S. Ehlert, S. Grimme, J. Phys. Chem. A,
     2023, XX, XXXX-XXXX. DOI: 10.1021/acs.jpca.3c04382
   
   for DFT-D4:
   * E. Caldeweyher, C. Bannwarth and S. Grimme, J. Chem. Phys., 2017,
     147, 034112. DOI: 10.1063/1.4993215
   * E. Caldeweyher, S. Ehlert, A. Hansen, H. Neugebauer, S. Spicher,
     C. Bannwarth and S. Grimme, J. Chem. Phys., 2019, 150, 154122.
     DOI: 10.1063/1.5090222
   * E. Caldeweyher, J.-M. Mewes, S. Ehlert and S. Grimme, Phys. Chem. Chem. Phys.
     2020, 22, 8499-8512. DOI: 10.1039/D0CP00502A
   
   for sTDA-xTB:
   * S. Grimme and C. Bannwarth, J. Chem. Phys., 2016, 145, 054103.
     DOI: 10.1063/1.4959605
   
   in the mass-spec context:
   * V. Asgeirsson, C. Bauer and S. Grimme, Chem. Sci., 2017, 8, 4879.
     DOI: 10.1039/c7sc00601b
   * J. Koopman and S. Grimme, ACS Omega 2019, 4, 12, 15120-15133.
     DOI: 10.1021/acsomega.9b02011
   
   for metadynamics refer to:
   * S. Grimme, J. Chem. Theory Comput., 2019, 155, 2847-2862
     DOI: 10.1021/acs.jctc.9b00143
   
   for SPH calculations refer to:
   * S. Spicher and S. Grimme, J. Chem. Theory Comput., 2021, 17, 1701-1714
     DOI: 10.1021/acs.jctc.0c01306
   
   for ONIOM refer to:
   * C. Plett, A. Katbashev, S. Ehlert, S. Grimme, M. Bursch,
     Phys. Chem. Chem. Phys., 2023, 25, 17860-17868. DOI: 10.1039/D3CP02178E
   
   for DIPRO refer to:
   * J. Kohn, N. Gildemeister, S. Grimme, D. Fazzi, A. Hansen,
     J. Chem. Phys., 2023, just accepted.
   
   for PTB refer to:
   * S. Grimme, M. Mueller, A. Hansen, J. Chem. Phys., 2023, 158, 124111.
     DOI: 10.1063/5.0137838
   
   with help from (in alphabetical order)
   P. Atkinson, C. Bannwarth, F. Bohle, G. Brandenburg, E. Caldeweyher
   M. Checinski, S. Dohm, S. Ehlert, S. Ehrlich, I. Gerasimov, C. Hölzer
   A. Katbashev, J. Kohn, J. Koopman, C. Lavigne, S. Lehtola, F. März, M. Müller,
   F. Musil, H. Neugebauer, J. Pisarek, C. Plett, P. Pracht, F. Pultar,
   J. Seibert, P. Shushkov, S. Spicher, M. Stahn, M. Steiner, T. Strunk,
   J. Stückrath, T. Rose, and J. Unsleber
   
 * started run on 2025/04/07 at 02:42:52.545     
   ID    Z sym.   atoms
    1    6 C      1, 2, 4, 5
    2    8 O      3
    3    1 H      6-15

           -------------------------------------------------
          |                Calculation Setup                |
           -------------------------------------------------

          program call               : /srv/scratch/z5358697/.xtb/bin/xtb gas.coord --gfn2 --sp --chrg 0 --norestart --parallel 1
          hostname                   : k140
          coordinate file            : gas.coord
          omp threads                :                     1


           -------------------------------------------------
          |                 G F N 2 - x T B                 |
           -------------------------------------------------

        Reference                      10.1021/acs.jctc.8b01176
      * Hamiltonian:
        H0-scaling (s, p, d)           1.850000    2.230000    2.230000
        zeta-weighting                 0.500000
      * Dispersion:
        s8                             2.700000
        a1                             0.520000
        a2                             5.000000
        s9                             5.000000
      * Repulsion:
        kExp                           1.500000    1.000000
        rExp                           1.000000
      * Coulomb:
        alpha                          2.000000
        third order                    shell-resolved
        anisotropic                    true
        a3                             3.000000
        a5                             4.000000
        cn-shift                       1.200000
        cn-exp                         4.000000
        max-rad                        5.000000


          ...................................................
          :                      SETUP                      :
          :.................................................:
          :  # basis functions                  30          :
          :  # atomic orbitals                  30          :
          :  # shells                           20          :
          :  # electrons                        32          :
          :  max. iterations                   250          :
          :  Hamiltonian                  GFN2-xTB          :
          :  restarted?                      false          :
          :  GBSA solvation                  false          :
          :  PC potential                    false          :
          :  electronic temp.          300.0000000     K    :
          :  accuracy                    1.0000000          :
          :  -> integral cutoff          0.2500000E+02      :
          :  -> integral neglect         0.1000000E-07      :
          :  -> SCF convergence          0.1000000E-05 Eh   :
          :  -> wf. convergence          0.1000000E-03 e    :
          :  Broyden damping             0.4000000          :
          :  net charge                          0          :
          :  unpaired electrons                  0          :
          ...................................................

 iter      E             dE          RMSdq      gap      omega  full diag
   1    -17.8813763 -0.178814E+02  0.348E+00   11.76       0.0  T
   2    -17.9290246 -0.476483E-01  0.172E+00   11.30       1.0  T
   3    -17.9295921 -0.567459E-03  0.817E-01   11.42       1.0  T
   4    -17.9297816 -0.189535E-03  0.112E-01   11.44       1.0  T
   5    -17.9298084 -0.267668E-04  0.619E-02   11.46       1.0  T
   6    -17.9298091 -0.718820E-06  0.534E-03   11.47       4.8  T
   7    -17.9298092 -0.221349E-07  0.227E-03   11.46      11.4  T
   8    -17.9298092 -0.401569E-08  0.519E-04   11.47      49.8  T
   9    -17.9298092 -0.228084E-09  0.575E-05   11.47     449.2  T

   *** convergence criteria satisfied after 9 iterations ***

         #    Occupation            Energy/Eh            Energy/eV
      -------------------------------------------------------------
         1        2.0000           -0.6874396             -18.7062
       ...           ...                  ...                  ...
        10        2.0000           -0.4942753             -13.4499
        11        2.0000           -0.4706975             -12.8083
        12        2.0000           -0.4629676             -12.5980
        13        2.0000           -0.4628823             -12.5957
        14        2.0000           -0.4446498             -12.0995
        15        2.0000           -0.4248668             -11.5612
        16        2.0000           -0.3936876             -10.7128 (HOMO)
        17                          0.0276539               0.7525 (LUMO)
        18                          0.0893837               2.4323
        19                          0.1182234               3.2170
        20                          0.1219572               3.3186
        21                          0.1225585               3.3350
       ...                                ...                  ...
        30                          0.2989001               8.1335
      -------------------------------------------------------------
                  HL-Gap            0.4213415 Eh           11.4653 eV
             Fermi-level           -0.1830168 Eh           -4.9801 eV

 SCC (total)                   0 d,  0 h,  0 min,  0.010 sec
 SCC setup                      ...        0 min,  0.000 sec (  1.103%)
 Dispersion                     ...        0 min,  0.000 sec (  0.474%)
 classical contributions        ...        0 min,  0.000 sec (  0.117%)
 integral evaluation            ...        0 min,  0.001 sec (  6.670%)
 iterations                     ...        0 min,  0.007 sec ( 67.126%)
 molecular gradient             ...        0 min,  0.002 sec ( 23.556%)
 printout                       ...        0 min,  0.000 sec (  0.856%)

         :::::::::::::::::::::::::::::::::::::::::::::::::::::
         ::                     SUMMARY                     ::
         :::::::::::::::::::::::::::::::::::::::::::::::::::::
         :: total energy             -17.720073160193 Eh    ::
         :: gradient norm              0.009022421360 Eh/a0 ::
         :: HOMO-LUMO gap             11.465284568634 eV    ::
         ::.................................................::
         :: SCC energy               -17.929797768432 Eh    ::
         :: -> isotropic ES            0.021370562566 Eh    ::
         :: -> anisotropic ES          0.004038543966 Eh    ::
         :: -> anisotropic XC          0.005879390802 Eh    ::
         :: -> dispersion             -0.007214397292 Eh    ::
         :: repulsion energy           0.209724608239 Eh    ::
         :: add. restraining           0.000000000000 Eh    ::
         :: total charge              -0.000000000000 e     ::
         :::::::::::::::::::::::::::::::::::::::::::::::::::::

           -------------------------------------------------
          |                Property Printout                |
           -------------------------------------------------

    * Orbital Energies and Occupations

         #    Occupation            Energy/Eh            Energy/eV
      -------------------------------------------------------------
         1        2.0000           -0.6874396             -18.7062
       ...           ...                  ...                  ...
         4        2.0000           -0.5969028             -16.2426
         5        2.0000           -0.5651669             -15.3790
         6        2.0000           -0.5464673             -14.8701
         7        2.0000           -0.5432521             -14.7826
         8        2.0000           -0.5145736             -14.0023
         9        2.0000           -0.4966109             -13.5135
        10        2.0000           -0.4942753             -13.4499
        11        2.0000           -0.4706975             -12.8083
        12        2.0000           -0.4629676             -12.5980
        13        2.0000           -0.4628823             -12.5957
        14        2.0000           -0.4446498             -12.0995
        15        2.0000           -0.4248668             -11.5612
        16        2.0000           -0.3936876             -10.7128 (HOMO)
        17                          0.0276539               0.7525 (LUMO)
        18                          0.0893837               2.4323
        19                          0.1182234               3.2170
        20                          0.1219572               3.3186
        21                          0.1225585               3.3350
        22                          0.1487450               4.0476
        23                          0.1670543               4.5458
        24                          0.1939058               5.2764
        25                          0.1976367               5.3780
        26                          0.2059492               5.6042
        27                          0.2435964               6.6286
       ...                                ...                  ...
        30                          0.2989001               8.1335
      -------------------------------------------------------------
                  HL-Gap            0.4213415 Eh           11.4653 eV
             Fermi-level           -0.1830168 Eh           -4.9801 eV

     #   Z          covCN         q      C6AA      α(0)
     1   6 C        3.750    -0.114    22.740     6.801
     2   6 C        3.685     0.081    19.415     6.308
     3   8 O        1.698    -0.330    19.527     5.966
     4   6 C        3.685     0.081    19.415     6.308
     5   6 C        3.750    -0.114    22.740     6.801
     6   1 H        0.925     0.039     2.458     2.452
     7   1 H        0.925     0.049     2.332     2.388
     8   1 H        0.925     0.039     2.461     2.453
     9   1 H        0.924     0.047     2.357     2.401
    10   1 H        0.924     0.023     2.691     2.565
    11   1 H        0.924     0.047     2.357     2.401
    12   1 H        0.924     0.023     2.691     2.565
    13   1 H        0.925     0.039     2.461     2.453
    14   1 H        0.925     0.039     2.458     2.452
    15   1 H        0.925     0.049     2.332     2.388

 Mol. C6AA /au·bohr⁶  :       1471.644943
 Mol. C8AA /au·bohr⁸  :      29827.243750
 Mol. α(0) /au        :         56.702868


Wiberg/Mayer (AO) data.
largest (>0.10) Wiberg bond orders for each atom

 ---------------------------------------------------------------------------
     #   Z sym  total        # sym  WBO       # sym  WBO       # sym  WBO
 ---------------------------------------------------------------------------
     1   6 C    3.996 --     2 C    1.009     7 H    0.987     8 H    0.986
                             6 H    0.985
     2   6 C    3.957 --     1 C    1.009     3 O    0.983     9 H    0.972
                            10 H    0.969
     3   8 O    2.068 --     4 C    0.983     2 C    0.983
     4   6 C    3.957 --     5 C    1.009     3 O    0.983    11 H    0.972
                            12 H    0.969
     5   6 C    3.996 --     4 C    1.009    15 H    0.987    13 H    0.986
                            14 H    0.985
     6   1 H    0.998 --     1 C    0.985
     7   1 H    0.998 --     1 C    0.987
     8   1 H    0.998 --     1 C    0.986
     9   1 H    0.998 --     2 C    0.972
    10   1 H    0.999 --     2 C    0.969
    11   1 H    0.998 --     4 C    0.972
    12   1 H    0.999 --     4 C    0.969
    13   1 H    0.998 --     5 C    0.986
    14   1 H    0.998 --     5 C    0.985
    15   1 H    0.998 --     5 C    0.987
 ---------------------------------------------------------------------------

Topologies differ in total number of bonds
Writing topology from bond orders to xtbtopo.mol

molecular dipole:
                 x           y           z       tot (Debye)
 q only:       -0.000       0.487      -0.000
   full:       -0.000       0.662      -0.000       1.682
molecular quadrupole (traceless):
                xx          xy          yy          xz          yz          zz
 q only:        2.320       0.000      -2.361      -0.953       0.000       0.041
  q+dip:        1.759       0.000      -2.311      -0.737       0.000       0.552
   full:        2.183       0.000      -2.584      -1.037       0.000       0.401


           -------------------------------------------------
          | TOTAL ENERGY              -17.720073160193 Eh   |
          | GRADIENT NORM               0.009022421360 Eh/α |
          | HOMO-LUMO GAP              11.465284568634 eV   |
           -------------------------------------------------

------------------------------------------------------------------------
 * finished run on 2025/04/07 at 02:42:52.583     
------------------------------------------------------------------------
 total:
 * wall-time:     0 d,  0 h,  0 min,  0.037 sec
 *  cpu-time:     0 d,  0 h,  0 min,  0.015 sec
 * ratio c/w:     0.399 speedup
 SCF:
 * wall-time:     0 d,  0 h,  0 min,  0.010 sec
 *  cpu-time:     0 d,  0 h,  0 min,  0.008 sec
 * ratio c/w:     0.794 speedup

