15
 xtb: 6.7.1 (edcfbbe)
C            2.45518318436659       -0.26313232466344       -0.12550109147815
C            1.04314731565807        0.26425845297403       -0.36559985449509
C            0.06047631039266       -0.20099801956516        0.70869049883645
C           -1.35010571038230        0.33570275573536        0.52331838530841
O           -1.99208430810157       -0.16046518383767       -0.67020615748550
H            3.14876128269237        0.08190501070836       -0.89917192301319
H            2.83961383711273        0.07275223684214        0.84431291206916
H            2.46907811676512       -1.35895661184092       -0.12768498212588
H            1.05545413046326        1.36214961578238       -0.38923730172622
H            0.69981133831829       -0.06764703809338       -1.35423338457898
H            0.02808825606802       -1.29847328135672        0.73669415794414
H            0.41604439664860        0.13211201876672        1.69350151021238
H           -1.98842952849020        0.01549476722408        1.35260240699254
H           -1.33921224194033        1.43562407578208        0.51055232020021
H           -1.51574620393528        0.20039503537771       -1.42835044919001
