      -----------------------------------------------------------      
     |                   =====================                   |     
     |                           x T B                           |     
     |                   =====================                   |     
     |                         S. Grimme                         |     
     |          Mulliken Center for Theoretical Chemistry        |     
     |                    University of Bonn                     |     
      -----------------------------------------------------------      

   * xtb version 6.7.1 (edcfbbe) compiled by 'albert@albert-system' on 2024-07-22

   xtb is free software: you can redistribute it and/or modify it under
   the terms of the GNU Lesser General Public License as published by
   the Free Software Foundation, either version 3 of the License, or
   (at your option) any later version.
   
   xtb is distributed in the hope that it will be useful,
   but WITHOUT ANY WARRANTY; without even the implied warranty of
   MERCHANTABILITY or FITNESS FOR A PARTICULAR PURPOSE.  See the
   GNU Lesser General Public License for more details.
   
   Cite this work as:
   * C. Bannwarth, E. Caldeweyher, S. Ehlert, A. Hansen, P. Pracht,
     J. Seibert, S. Spicher, S. Grimme, WIREs Comput. Mol. Sci., 2020, 11,
     e01493. DOI: 10.1002/wcms.1493
   
   for GFN2-xTB:
   * C. Bannwarth, S. Ehlert and S. Grimme., J. Chem. Theory Comput., 2019,
     15, 1652-1671. DOI: 10.1021/acs.jctc.8b01176
   for GFN1-xTB:
   * S. Grimme, C. Bannwarth, P. Shushkov, J. Chem. Theory Comput., 2017,
     13, 1989-2009. DOI: 10.1021/acs.jctc.7b00118
   for GFN0-xTB:
   * P. Pracht, E. Caldeweyher, S. Ehlert, S. Grimme, ChemRxiv, 2019, preprint.
     DOI: 10.26434/chemrxiv.8326202.v1
   for GFN-FF:
   * S. Spicher and S. Grimme, Angew. Chem. Int. Ed., 2020, 59, 15665-15673.
     DOI: 10.1002/anie.202004239
   
   for ALPB and GBSA implicit solvation:
   * S. Ehlert, M. Stahn, S. Spicher, S. Grimme, J. Chem. Theory Comput.,
     2021, 17, 4250-4261. DOI: 10.1021/acs.jctc.1c00471
   
   for ddCOSMO and CPCM-X implicit solvation:
   * M. Stahn, S. Ehlert, S. Grimme, J. Phys. Chem. A,
     2023, XX, XXXX-XXXX. DOI: 10.1021/acs.jpca.3c04382
   
   for DFT-D4:
   * E. Caldeweyher, C. Bannwarth and S. Grimme, J. Chem. Phys., 2017,
     147, 034112. DOI: 10.1063/1.4993215
   * E. Caldeweyher, S. Ehlert, A. Hansen, H. Neugebauer, S. Spicher,
     C. Bannwarth and S. Grimme, J. Chem. Phys., 2019, 150, 154122.
     DOI: 10.1063/1.5090222
   * E. Caldeweyher, J.-M. Mewes, S. Ehlert and S. Grimme, Phys. Chem. Chem. Phys.
     2020, 22, 8499-8512. DOI: 10.1039/D0CP00502A
   
   for sTDA-xTB:
   * S. Grimme and C. Bannwarth, J. Chem. Phys., 2016, 145, 054103.
     DOI: 10.1063/1.4959605
   
   in the mass-spec context:
   * V. Asgeirsson, C. Bauer and S. Grimme, Chem. Sci., 2017, 8, 4879.
     DOI: 10.1039/c7sc00601b
   * J. Koopman and S. Grimme, ACS Omega 2019, 4, 12, 15120-15133.
     DOI: 10.1021/acsomega.9b02011
   
   for metadynamics refer to:
   * S. Grimme, J. Chem. Theory Comput., 2019, 155, 2847-2862
     DOI: 10.1021/acs.jctc.9b00143
   
   for SPH calculations refer to:
   * S. Spicher and S. Grimme, J. Chem. Theory Comput., 2021, 17, 1701-1714
     DOI: 10.1021/acs.jctc.0c01306
   
   for ONIOM refer to:
   * C. Plett, A. Katbashev, S. Ehlert, S. Grimme, M. Bursch,
     Phys. Chem. Chem. Phys., 2023, 25, 17860-17868. DOI: 10.1039/D3CP02178E
   
   for DIPRO refer to:
   * J. Kohn, N. Gildemeister, S. Grimme, D. Fazzi, A. Hansen,
     J. Chem. Phys., 2023, just accepted.
   
   for PTB refer to:
   * S. Grimme, M. Mueller, A. Hansen, J. Chem. Phys., 2023, 158, 124111.
     DOI: 10.1063/5.0137838
   
   with help from (in alphabetical order)
   P. Atkinson, C. Bannwarth, F. Bohle, G. Brandenburg, E. Caldeweyher
   M. Checinski, S. Dohm, S. Ehlert, S. Ehrlich, I. Gerasimov, C. Hölzer
   A. Katbashev, J. Kohn, J. Koopman, C. Lavigne, S. Lehtola, F. März, M. Müller,
   F. Musil, H. Neugebauer, J. Pisarek, C. Plett, P. Pracht, F. Pultar,
   J. Seibert, P. Shushkov, S. Spicher, M. Stahn, M. Steiner, T. Strunk,
   J. Stückrath, T. Rose, and J. Unsleber
   
 * started run on 2025/04/06 at 22:31:19.795     
   ID    Z sym.   atoms
    1    6 C      1-4
    2    8 O      5
    3    1 H      6-15

           -------------------------------------------------
          |                Calculation Setup                |
           -------------------------------------------------

          program call               : /srv/scratch/z5358697/.xtb/bin/xtb gas.coord --gfn2 --sp --chrg 0 --norestart --parallel 1
          hostname                   : k159
          coordinate file            : gas.coord
          omp threads                :                     1


           -------------------------------------------------
          |                 G F N 2 - x T B                 |
           -------------------------------------------------

        Reference                      10.1021/acs.jctc.8b01176
      * Hamiltonian:
        H0-scaling (s, p, d)           1.850000    2.230000    2.230000
        zeta-weighting                 0.500000
      * Dispersion:
        s8                             2.700000
        a1                             0.520000
        a2                             5.000000
        s9                             5.000000
      * Repulsion:
        kExp                           1.500000    1.000000
        rExp                           1.000000
      * Coulomb:
        alpha                          2.000000
        third order                    shell-resolved
        anisotropic                    true
        a3                             3.000000
        a5                             4.000000
        cn-shift                       1.200000
        cn-exp                         4.000000
        max-rad                        5.000000


          ...................................................
          :                      SETUP                      :
          :.................................................:
          :  # basis functions                  30          :
          :  # atomic orbitals                  30          :
          :  # shells                           20          :
          :  # electrons                        32          :
          :  max. iterations                   250          :
          :  Hamiltonian                  GFN2-xTB          :
          :  restarted?                      false          :
          :  GBSA solvation                  false          :
          :  PC potential                    false          :
          :  electronic temp.          300.0000000     K    :
          :  accuracy                    1.0000000          :
          :  -> integral cutoff          0.2500000E+02      :
          :  -> integral neglect         0.1000000E-07      :
          :  -> SCF convergence          0.1000000E-05 Eh   :
          :  -> wf. convergence          0.1000000E-03 e    :
          :  Broyden damping             0.4000000          :
          :  net charge                          0          :
          :  unpaired electrons                  0          :
          ...................................................

 iter      E             dE          RMSdq      gap      omega  full diag
   1    -17.9000680 -0.179001E+02  0.312E+00   12.75       0.0  T
   2    -17.9345695 -0.345015E-01  0.163E+00   12.43       1.0  T
   3    -17.9351296 -0.560009E-03  0.732E-01   12.48       1.0  T
   4    -17.9352838 -0.154266E-03  0.103E-01   12.47       1.0  T
   5    -17.9353025 -0.186774E-04  0.586E-02   12.49       1.0  T
   6    -17.9353037 -0.119344E-05  0.809E-03   12.49       3.2  T
   7    -17.9353039 -0.160627E-06  0.414E-03   12.49       6.2  T
   8    -17.9353039 -0.121666E-07  0.969E-04   12.49      26.7  T
   9    -17.9353039 -0.921741E-09  0.294E-04   12.49      87.9  T

   *** convergence criteria satisfied after 9 iterations ***

         #    Occupation            Energy/Eh            Energy/eV
      -------------------------------------------------------------
         1        2.0000           -0.6823537             -18.5678
       ...           ...                  ...                  ...
        10        2.0000           -0.4931649             -13.4197
        11        2.0000           -0.4742507             -12.9050
        12        2.0000           -0.4595254             -12.5043
        13        2.0000           -0.4440878             -12.0842
        14        2.0000           -0.4407557             -11.9936
        15        2.0000           -0.4319291             -11.7534
        16        2.0000           -0.4055560             -11.0357 (HOMO)
        17                          0.0535769               1.4579 (LUMO)
        18                          0.0854161               2.3243
        19                          0.0974424               2.6515
        20                          0.1161653               3.1610
        21                          0.1261387               3.4324
       ...                                ...                  ...
        30                          0.3023608               8.2277
      -------------------------------------------------------------
                  HL-Gap            0.4591329 Eh           12.4936 eV
             Fermi-level           -0.1759896 Eh           -4.7889 eV

 SCC (total)                   0 d,  0 h,  0 min,  0.019 sec
 SCC setup                      ...        0 min,  0.000 sec (  0.550%)
 Dispersion                     ...        0 min,  0.000 sec (  0.252%)
 classical contributions        ...        0 min,  0.000 sec (  0.061%)
 integral evaluation            ...        0 min,  0.001 sec (  4.541%)
 iterations                     ...        0 min,  0.016 sec ( 84.457%)
 molecular gradient             ...        0 min,  0.002 sec (  9.595%)
 printout                       ...        0 min,  0.000 sec (  0.487%)

         :::::::::::::::::::::::::::::::::::::::::::::::::::::
         ::                     SUMMARY                     ::
         :::::::::::::::::::::::::::::::::::::::::::::::::::::
         :: total energy             -17.721381768185 Eh    ::
         :: gradient norm              0.006078644217 Eh/a0 ::
         :: HOMO-LUMO gap             12.493642502628 eV    ::
         ::.................................................::
         :: SCC energy               -17.935290760874 Eh    ::
         :: -> isotropic ES            0.026902109787 Eh    ::
         :: -> anisotropic ES          0.004344262358 Eh    ::
         :: -> anisotropic XC          0.005877049193 Eh    ::
         :: -> dispersion             -0.007323072700 Eh    ::
         :: repulsion energy           0.213908992689 Eh    ::
         :: add. restraining           0.000000000000 Eh    ::
         :: total charge               0.000000000000 e     ::
         :::::::::::::::::::::::::::::::::::::::::::::::::::::

           -------------------------------------------------
          |                Property Printout                |
           -------------------------------------------------

    * Orbital Energies and Occupations

         #    Occupation            Energy/Eh            Energy/eV
      -------------------------------------------------------------
         1        2.0000           -0.6823537             -18.5678
       ...           ...                  ...                  ...
         4        2.0000           -0.5938031             -16.1582
         5        2.0000           -0.5671831             -15.4338
         6        2.0000           -0.5550310             -15.1032
         7        2.0000           -0.5285283             -14.3820
         8        2.0000           -0.5151510             -14.0180
         9        2.0000           -0.5056066             -13.7583
        10        2.0000           -0.4931649             -13.4197
        11        2.0000           -0.4742507             -12.9050
        12        2.0000           -0.4595254             -12.5043
        13        2.0000           -0.4440878             -12.0842
        14        2.0000           -0.4407557             -11.9936
        15        2.0000           -0.4319291             -11.7534
        16        2.0000           -0.4055560             -11.0357 (HOMO)
        17                          0.0535769               1.4579 (LUMO)
        18                          0.0854161               2.3243
        19                          0.0974424               2.6515
        20                          0.1161653               3.1610
        21                          0.1261387               3.4324
        22                          0.1332727               3.6265
        23                          0.1553700               4.2278
        24                          0.1874912               5.1019
        25                          0.2063244               5.6144
        26                          0.2202130               5.9923
        27                          0.2562095               6.9718
       ...                                ...                  ...
        30                          0.3023608               8.2277
      -------------------------------------------------------------
                  HL-Gap            0.4591329 Eh           12.4936 eV
             Fermi-level           -0.1759896 Eh           -4.7889 eV

     #   Z          covCN         q      C6AA      α(0)
     1   6 C        3.751    -0.104    22.554     6.773
     2   6 C        3.799    -0.052    21.503     6.602
     3   6 C        3.800    -0.073    21.905     6.664
     4   6 C        3.673     0.080    19.479     6.325
     5   8 O        1.654    -0.446    21.757     6.297
     6   1 H        0.925     0.035     2.520     2.483
     7   1 H        0.925     0.035     2.521     2.483
     8   1 H        0.925     0.036     2.506     2.476
     9   1 H        0.924     0.027     2.633     2.537
    10   1 H        0.924     0.033     2.548     2.496
    11   1 H        0.924     0.045     2.388     2.417
    12   1 H        0.924     0.036     2.498     2.472
    13   1 H        0.924     0.045     2.389     2.417
    14   1 H        0.924     0.020     2.735     2.586
    15   1 H        0.805     0.285     0.767     1.375

 Mol. C6AA /au·bohr⁶  :       1461.999664
 Mol. C8AA /au·bohr⁸  :      29847.797266
 Mol. α(0) /au        :         56.402390


Wiberg/Mayer (AO) data.
largest (>0.10) Wiberg bond orders for each atom

 ---------------------------------------------------------------------------
     #   Z sym  total        # sym  WBO       # sym  WBO       # sym  WBO
 ---------------------------------------------------------------------------
     1   6 C    3.997 --     2 C    1.020     8 H    0.988     6 H    0.987
                             7 H    0.985
     2   6 C    3.998 --     1 C    1.020     3 C    1.008    10 H    0.978
                             9 H    0.975
     3   6 C    3.996 --     2 C    1.008     4 C    0.998    11 H    0.976
                            12 H    0.976
     4   6 C    3.957 --     3 C    0.998     5 O    0.998    13 H    0.974
                            14 H    0.968
     5   8 O    1.957 --     4 C    0.998    15 H    0.901
     6   1 H    0.999 --     1 C    0.987
     7   1 H    0.999 --     1 C    0.985
     8   1 H    0.999 --     1 C    0.988
     9   1 H    0.999 --     2 C    0.975
    10   1 H    0.999 --     2 C    0.978
    11   1 H    0.998 --     3 C    0.976
    12   1 H    0.999 --     3 C    0.976
    13   1 H    0.998 --     4 C    0.974
    14   1 H    1.000 --     4 C    0.968
    15   1 H    0.919 --     5 O    0.901
 ---------------------------------------------------------------------------

Topologies differ in total number of bonds
Writing topology from bond orders to xtbtopo.mol

molecular dipole:
                 x           y           z       tot (Debye)
 q only:        0.609      -0.017       0.011
   full:        0.811      -0.087       0.043       2.077
molecular quadrupole (traceless):
                xx          xy          yy          xz          yz          zz
 q only:       -4.121      -0.382       1.779       0.342      -1.071       2.342
  q+dip:       -6.144      -0.517       3.038       0.906      -1.258       3.106
   full:       -5.926      -0.514       2.727       0.703      -1.474       3.200


           -------------------------------------------------
          | TOTAL ENERGY              -17.721381768185 Eh   |
          | GRADIENT NORM               0.006078644217 Eh/α |
          | HOMO-LUMO GAP              12.493642502628 eV   |
           -------------------------------------------------

------------------------------------------------------------------------
 * finished run on 2025/04/06 at 22:31:19.838     
------------------------------------------------------------------------
 total:
 * wall-time:     0 d,  0 h,  0 min,  0.043 sec
 *  cpu-time:     0 d,  0 h,  0 min,  0.011 sec
 * ratio c/w:     0.259 speedup
 SCF:
 * wall-time:     0 d,  0 h,  0 min,  0.020 sec
 *  cpu-time:     0 d,  0 h,  0 min,  0.006 sec
 * ratio c/w:     0.307 speedup

