      -----------------------------------------------------------      
     |                   =====================                   |     
     |                           x T B                           |     
     |                   =====================                   |     
     |                         S. Grimme                         |     
     |          Mulliken Center for Theoretical Chemistry        |     
     |                    University of Bonn                     |     
      -----------------------------------------------------------      

   * xtb version 6.7.1 (edcfbbe) compiled by 'albert@albert-system' on 2024-07-22

   xtb is free software: you can redistribute it and/or modify it under
   the terms of the GNU Lesser General Public License as published by
   the Free Software Foundation, either version 3 of the License, or
   (at your option) any later version.
   
   xtb is distributed in the hope that it will be useful,
   but WITHOUT ANY WARRANTY; without even the implied warranty of
   MERCHANTABILITY or FITNESS FOR A PARTICULAR PURPOSE.  See the
   GNU Lesser General Public License for more details.
   
   Cite this work as:
   * C. Bannwarth, E. Caldeweyher, S. Ehlert, A. Hansen, P. Pracht,
     J. Seibert, S. Spicher, S. Grimme, WIREs Comput. Mol. Sci., 2020, 11,
     e01493. DOI: 10.1002/wcms.1493
   
   for GFN2-xTB:
   * C. Bannwarth, S. Ehlert and S. Grimme., J. Chem. Theory Comput., 2019,
     15, 1652-1671. DOI: 10.1021/acs.jctc.8b01176
   for GFN1-xTB:
   * S. Grimme, C. Bannwarth, P. Shushkov, J. Chem. Theory Comput., 2017,
     13, 1989-2009. DOI: 10.1021/acs.jctc.7b00118
   for GFN0-xTB:
   * P. Pracht, E. Caldeweyher, S. Ehlert, S. Grimme, ChemRxiv, 2019, preprint.
     DOI: 10.26434/chemrxiv.8326202.v1
   for GFN-FF:
   * S. Spicher and S. Grimme, Angew. Chem. Int. Ed., 2020, 59, 15665-15673.
     DOI: 10.1002/anie.202004239
   
   for ALPB and GBSA implicit solvation:
   * S. Ehlert, M. Stahn, S. Spicher, S. Grimme, J. Chem. Theory Comput.,
     2021, 17, 4250-4261. DOI: 10.1021/acs.jctc.1c00471
   
   for ddCOSMO and CPCM-X implicit solvation:
   * M. Stahn, S. Ehlert, S. Grimme, J. Phys. Chem. A,
     2023, XX, XXXX-XXXX. DOI: 10.1021/acs.jpca.3c04382
   
   for DFT-D4:
   * E. Caldeweyher, C. Bannwarth and S. Grimme, J. Chem. Phys., 2017,
     147, 034112. DOI: 10.1063/1.4993215
   * E. Caldeweyher, S. Ehlert, A. Hansen, H. Neugebauer, S. Spicher,
     C. Bannwarth and S. Grimme, J. Chem. Phys., 2019, 150, 154122.
     DOI: 10.1063/1.5090222
   * E. Caldeweyher, J.-M. Mewes, S. Ehlert and S. Grimme, Phys. Chem. Chem. Phys.
     2020, 22, 8499-8512. DOI: 10.1039/D0CP00502A
   
   for sTDA-xTB:
   * S. Grimme and C. Bannwarth, J. Chem. Phys., 2016, 145, 054103.
     DOI: 10.1063/1.4959605
   
   in the mass-spec context:
   * V. Asgeirsson, C. Bauer and S. Grimme, Chem. Sci., 2017, 8, 4879.
     DOI: 10.1039/c7sc00601b
   * J. Koopman and S. Grimme, ACS Omega 2019, 4, 12, 15120-15133.
     DOI: 10.1021/acsomega.9b02011
   
   for metadynamics refer to:
   * S. Grimme, J. Chem. Theory Comput., 2019, 155, 2847-2862
     DOI: 10.1021/acs.jctc.9b00143
   
   for SPH calculations refer to:
   * S. Spicher and S. Grimme, J. Chem. Theory Comput., 2021, 17, 1701-1714
     DOI: 10.1021/acs.jctc.0c01306
   
   for ONIOM refer to:
   * C. Plett, A. Katbashev, S. Ehlert, S. Grimme, M. Bursch,
     Phys. Chem. Chem. Phys., 2023, 25, 17860-17868. DOI: 10.1039/D3CP02178E
   
   for DIPRO refer to:
   * J. Kohn, N. Gildemeister, S. Grimme, D. Fazzi, A. Hansen,
     J. Chem. Phys., 2023, just accepted.
   
   for PTB refer to:
   * S. Grimme, M. Mueller, A. Hansen, J. Chem. Phys., 2023, 158, 124111.
     DOI: 10.1063/5.0137838
   
   with help from (in alphabetical order)
   P. Atkinson, C. Bannwarth, F. Bohle, G. Brandenburg, E. Caldeweyher
   M. Checinski, S. Dohm, S. Ehlert, S. Ehrlich, I. Gerasimov, C. Hölzer
   A. Katbashev, J. Kohn, J. Koopman, C. Lavigne, S. Lehtola, F. März, M. Müller,
   F. Musil, H. Neugebauer, J. Pisarek, C. Plett, P. Pracht, F. Pultar,
   J. Seibert, P. Shushkov, S. Spicher, M. Stahn, M. Steiner, T. Strunk,
   J. Stückrath, T. Rose, and J. Unsleber
   
 * started run on 2025/04/06 at 22:31:19.868     
   ID    Z sym.   atoms
    1    6 C      1-4
    2    8 O      5
    3    1 H      6-15

           -------------------------------------------------
          |                Calculation Setup                |
           -------------------------------------------------

          program call               : /srv/scratch/z5358697/.xtb/bin/xtb solv.coord --gfn2 --sp --chrg 0 --norestart --parallel 1 --alpb water reference -I xtb_sp-xcontrol-inp
          hostname                   : k159
          coordinate file            : solv.coord
          omp threads                :                     1


           -------------------------------------------------
          |                 G F N 2 - x T B                 |
           -------------------------------------------------

        Reference                      10.1021/acs.jctc.8b01176
      * Hamiltonian:
        H0-scaling (s, p, d)           1.850000    2.230000    2.230000
        zeta-weighting                 0.500000
      * Dispersion:
        s8                             2.700000
        a1                             0.520000
        a2                             5.000000
        s9                             5.000000
      * Repulsion:
        kExp                           1.500000    1.000000
        rExp                           1.000000
      * Coulomb:
        alpha                          2.000000
        third order                    shell-resolved
        anisotropic                    true
        a3                             3.000000
        a5                             4.000000
        cn-shift                       1.200000
        cn-exp                         4.000000
        max-rad                        5.000000

      * Solvation model:               ALPB
        Solvent                        water
        Parameter file                 internal GFN2-xTB/ALPB
        Dielectric constant                8.0200E+01
        Reference state                gsolv=reference [X=1]
        Free energy shift                  2.8945E-03 Eh       1.8164E+00 kcal/mol
        Temperature                        2.9815E+02 K
        Density                            1.0000E+00 kg/L
        Solvent mass                       1.8000E+01 g/mol
        Interaction kernel             P16
        Born radius scaling (c1)           1.4744E+00
        Born radii integrator          GBOBC
        Born offset                        0.0000E+00 a0       0.0000E+00 AA
        H-bond correction              true
        Ion screening                  false
        Surface tension                    1.0000E-05 Eh       1.5569E+01 dyn/cm
        Grid points                               974 per atom

          ...................................................
          :                      SETUP                      :
          :.................................................:
          :  # basis functions                  30          :
          :  # atomic orbitals                  30          :
          :  # shells                           20          :
          :  # electrons                        32          :
          :  max. iterations                   250          :
          :  Hamiltonian                  GFN2-xTB          :
          :  restarted?                      false          :
          :  GBSA solvation                   true          :
          :  PC potential                    false          :
          :  electronic temp.          300.0000000     K    :
          :  accuracy                    1.0000000          :
          :  -> integral cutoff          0.2500000E+02      :
          :  -> integral neglect         0.1000000E-07      :
          :  -> SCF convergence          0.1000000E-05 Eh   :
          :  -> wf. convergence          0.1000000E-03 e    :
          :  Broyden damping             0.4000000          :
          :  net charge                          0          :
          :  unpaired electrons                  0          :
          ...................................................

 iter      E             dE          RMSdq      gap      omega  full diag
   1    -17.9130491 -0.179130E+02  0.319E+00   12.69       0.0  T
   2    -17.9383450 -0.252959E-01  0.165E+00   12.54       1.0  T
   3    -17.9391184 -0.773425E-03  0.598E-01   12.52       1.0  T
   4    -17.9392628 -0.144354E-03  0.112E-01   12.51       1.0  T
   5    -17.9392786 -0.158833E-04  0.617E-02   12.52       1.0  T
   6    -17.9392812 -0.253721E-05  0.119E-02   12.52       2.2  T
   7    -17.9392814 -0.234703E-06  0.538E-03   12.52       4.8  T
   8    -17.9392815 -0.524218E-07  0.199E-03   12.52      13.0  T
   9    -17.9392815 -0.536963E-08  0.511E-04   12.52      50.5  T
  10    -17.9392815 -0.860044E-09  0.176E-04   12.52     146.3  T

   *** convergence criteria satisfied after 10 iterations ***

         #    Occupation            Energy/Eh            Energy/eV
      -------------------------------------------------------------
         1        2.0000           -0.6870526             -18.6957
       ...           ...                  ...                  ...
        10        2.0000           -0.4887771             -13.3003
        11        2.0000           -0.4687454             -12.7552
        12        2.0000           -0.4553449             -12.3906
        13        2.0000           -0.4389936             -11.9456
        14        2.0000           -0.4342009             -11.8152
        15        2.0000           -0.4280380             -11.6475
        16        2.0000           -0.4060068             -11.0480 (HOMO)
        17                          0.0542529               1.4763 (LUMO)
        18                          0.0895761               2.4375
        19                          0.1031392               2.8066
        20                          0.1222277               3.3260
        21                          0.1314958               3.5782
       ...                                ...                  ...
        30                          0.3091600               8.4127
      -------------------------------------------------------------
                  HL-Gap            0.4602597 Eh           12.5243 eV
             Fermi-level           -0.1758769 Eh           -4.7859 eV

 SCC (total)                   0 d,  0 h,  0 min,  0.007 sec
 SCC setup                      ...        0 min,  0.001 sec (  9.506%)
 Dispersion                     ...        0 min,  0.000 sec (  0.712%)
 classical contributions        ...        0 min,  0.000 sec (  0.166%)
 integral evaluation            ...        0 min,  0.001 sec (  9.559%)
 iterations                     ...        0 min,  0.004 sec ( 54.408%)
 molecular gradient             ...        0 min,  0.002 sec ( 24.295%)
 printout                       ...        0 min,  0.000 sec (  1.214%)

         :::::::::::::::::::::::::::::::::::::::::::::::::::::
         ::                     SUMMARY                     ::
         :::::::::::::::::::::::::::::::::::::::::::::::::::::
         :: total energy             -17.725359375917 Eh    ::
         :: total w/o Gsasa/hb       -17.724471458722 Eh    ::
         :: gradient norm              0.000138378320 Eh/a0 ::
         :: HOMO-LUMO gap             12.524303906341 eV    ::
         ::.................................................::
         :: SCC energy               -17.939268368607 Eh    ::
         :: -> isotropic ES            0.034951708659 Eh    ::
         :: -> anisotropic ES          0.003520227617 Eh    ::
         :: -> anisotropic XC          0.006127848144 Eh    ::
         :: -> dispersion             -0.007281295927 Eh    ::
         :: -> Gsolv                  -0.005410512424 Eh    ::
         ::    -> Gelec               -0.004522595228 Eh    ::
         ::    -> Gsasa                0.000797700409 Eh    ::
         ::    -> Ghb                 -0.004580166765 Eh    ::
         ::    -> Gshift               0.002894549160 Eh    ::
         :: repulsion energy           0.213908992689 Eh    ::
         :: add. restraining           0.000000000000 Eh    ::
         :: total charge              -0.000000000000 e     ::
         :::::::::::::::::::::::::::::::::::::::::::::::::::::

           -------------------------------------------------
          |                Property Printout                |
           -------------------------------------------------

    * Orbital Energies and Occupations

         #    Occupation            Energy/Eh            Energy/eV
      -------------------------------------------------------------
         1        2.0000           -0.6870526             -18.6957
       ...           ...                  ...                  ...
         4        2.0000           -0.5890820             -16.0297
         5        2.0000           -0.5624002             -15.3037
         6        2.0000           -0.5525972             -15.0369
         7        2.0000           -0.5269689             -14.3396
         8        2.0000           -0.5126901             -13.9510
         9        2.0000           -0.5002384             -13.6122
        10        2.0000           -0.4887771             -13.3003
        11        2.0000           -0.4687454             -12.7552
        12        2.0000           -0.4553449             -12.3906
        13        2.0000           -0.4389936             -11.9456
        14        2.0000           -0.4342009             -11.8152
        15        2.0000           -0.4280380             -11.6475
        16        2.0000           -0.4060068             -11.0480 (HOMO)
        17                          0.0542529               1.4763 (LUMO)
        18                          0.0895761               2.4375
        19                          0.1031392               2.8066
        20                          0.1222277               3.3260
        21                          0.1314958               3.5782
        22                          0.1392407               3.7889
        23                          0.1594582               4.3391
        24                          0.1936218               5.2687
        25                          0.2134062               5.8071
        26                          0.2255490               6.1375
        27                          0.2621772               7.1342
       ...                                ...                  ...
        30                          0.3091600               8.4127
      -------------------------------------------------------------
                  HL-Gap            0.4602597 Eh           12.5243 eV
             Fermi-level           -0.1758769 Eh           -4.7859 eV

     #   Z          covCN         q      C6AA      α(0)
     1   6 C        3.751    -0.114    22.733     6.800
     2   6 C        3.799    -0.058    21.620     6.620
     3   6 C        3.800    -0.078    21.995     6.677
     4   6 C        3.673     0.079    19.489     6.327
     5   8 O        1.654    -0.516    23.239     6.508
     6   1 H        0.925     0.040     2.446     2.446
     7   1 H        0.925     0.037     2.484     2.465
     8   1 H        0.925     0.039     2.463     2.454
     9   1 H        0.924     0.034     2.534     2.490
    10   1 H        0.924     0.038     2.479     2.462
    11   1 H        0.924     0.046     2.375     2.410
    12   1 H        0.924     0.044     2.401     2.423
    13   1 H        0.924     0.040     2.443     2.444
    14   1 H        0.924     0.025     2.657     2.549
    15   1 H        0.805     0.344     0.602     1.219

 Mol. C6AA /au·bohr⁶  :       1458.628981
 Mol. C8AA /au·bohr⁸  :      29877.545696
 Mol. α(0) /au        :         56.293879


Wiberg/Mayer (AO) data.
largest (>0.10) Wiberg bond orders for each atom

 ---------------------------------------------------------------------------
     #   Z sym  total        # sym  WBO       # sym  WBO       # sym  WBO
 ---------------------------------------------------------------------------
     1   6 C    3.996 --     2 C    1.020     8 H    0.987     6 H    0.987
                             7 H    0.985
     2   6 C    3.998 --     1 C    1.020     3 C    1.008    10 H    0.978
                             9 H    0.975
     3   6 C    3.996 --     2 C    1.008     4 C    0.999    11 H    0.976
                            12 H    0.975
     4   6 C    3.951 --     3 C    0.999     5 O    0.992    13 H    0.974
                            14 H    0.968
     5   8 O    1.914 --     4 C    0.992    15 H    0.865
     6   1 H    0.998 --     1 C    0.987
     7   1 H    0.999 --     1 C    0.985
     8   1 H    0.998 --     1 C    0.987
     9   1 H    0.999 --     2 C    0.975
    10   1 H    0.999 --     2 C    0.978
    11   1 H    0.998 --     3 C    0.976
    12   1 H    0.998 --     3 C    0.975
    13   1 H    0.998 --     4 C    0.974
    14   1 H    0.999 --     4 C    0.968
    15   1 H    0.882 --     5 O    0.865
 ---------------------------------------------------------------------------

Topologies differ in total number of bonds
Writing topology from bond orders to xtbtopo.mol

molecular dipole:
                 x           y           z       tot (Debye)
 q only:        0.752      -0.066       0.082
   full:        0.899      -0.118       0.090       2.316
molecular quadrupole (traceless):
                xx          xy          yy          xz          yz          zz
 q only:       -4.793      -0.266       2.090       0.168      -1.315       2.703
  q+dip:       -6.560      -0.442       3.231       0.801      -1.439       3.330
   full:       -6.344      -0.438       2.917       0.590      -1.654       3.428


           -------------------------------------------------
          | TOTAL ENERGY              -17.725359375917 Eh   |
          | GRADIENT NORM               0.000138378320 Eh/α |
          | HOMO-LUMO GAP              12.524303906341 eV   |
           -------------------------------------------------

------------------------------------------------------------------------
 * finished run on 2025/04/06 at 22:31:19.901     
------------------------------------------------------------------------
 total:
 * wall-time:     0 d,  0 h,  0 min,  0.033 sec
 *  cpu-time:     0 d,  0 h,  0 min,  0.012 sec
 * ratio c/w:     0.360 speedup
 SCF:
 * wall-time:     0 d,  0 h,  0 min,  0.007 sec
 *  cpu-time:     0 d,  0 h,  0 min,  0.006 sec
 * ratio c/w:     0.885 speedup

