 Entering Gaussian System
 *********************************************
 Gaussian 98:
 frequency output generated by the xtb code
 *********************************************
                         Standard orientation:
 --------------------------------------------------------------------
  Center     Atomic     Atomic              Coordinates (Angstroms)
  Number     Number      Type              X           Y           Z
 --------------------------------------------------------------------
    1          6             0        2.457216   -0.253474   -0.109294
    2          6             0        1.052011    0.277927   -0.367446
    3          6             0        0.062191   -0.224141    0.683417
    4          6             0       -1.341731    0.361417    0.514864
    5          8             0       -2.041078   -0.148688   -0.602056
    6          1             0        3.147403    0.109646   -0.866643
    7          1             0        2.813553    0.070927    0.865623
    8          1             0        2.462723   -1.340788   -0.131024
    9          1             0        1.069614    1.370379   -0.352402
   10          1             0        0.731987   -0.041092   -1.361508
   11          1             0       -0.005973   -1.312769    0.635273
   12          1             0        0.422886    0.049340    1.676246
   13          1             0       -1.958896    0.095826    1.376657
   14          1             0       -1.284861    1.457152    0.455176
   15          1             0       -1.556955    0.079029   -1.407216
 --------------------------------------------------------------------
     1 basis functions        1 primitive gaussians
     1 alpha electrons        1 beta electrons
 
 Harmonic frequencies (cm**-1), IR intensities (km*mol⁻¹),
 Raman scattering activities (A**4/amu), Raman depolarization ratios,
 reduced masses (AMU), force constants (mDyne/A) and normal coordinates:
                      1                      2                      3
                        a                      a                      a 
 Frequencies --    73.5955               115.8685               229.9377
 Red. masses --     7.2803                 9.8377                 3.0306
 Frc consts  --     0.0000                 0.0000                 0.0000
 IR Inten    --     0.5428                 7.0511                 4.2026
 Raman Activ --     0.0000                 0.0000                 0.0000
 Depolar     --     0.0000                 0.0000                 0.0000
 Atom AN      X      Y      Z        X      Y      Z        X      Y      Z
   1   6    -0.07  -0.30  -0.15     0.18   0.11   0.25     0.00  -0.13   0.08
   2   6     0.12   0.40   0.24     0.19   0.00  -0.07     0.15   0.25   0.02
   3   6    -0.00   0.19   0.02    -0.01  -0.21  -0.36     0.05   0.06  -0.16
   4   6    -0.03   0.09  -0.13     0.11   0.14  -0.14    -0.06  -0.13   0.03
   5   8    -0.02  -0.33   0.05    -0.48  -0.02   0.30    -0.12  -0.04   0.01
   6   1     0.02  -0.01   0.03     0.10   0.09   0.15    -0.05  -0.47  -0.23
   7   1     0.02  -0.33   0.02    -0.04   0.00   0.12     0.19   0.31  -0.16
   8   1    -0.14  -0.08  -0.27     0.09   0.03   0.03    -0.19  -0.05   0.48
   9   1     0.15   0.11   0.25     0.03   0.00   0.03     0.10   0.07   0.07
  10   1    -0.02   0.32   0.02     0.14   0.04  -0.06     0.05   0.14  -0.02
  11   1     0.02   0.05  -0.05    -0.07  -0.05  -0.22     0.05   0.02  -0.11
  12   1    -0.04   0.01   0.03     0.00  -0.19  -0.07     0.00  -0.04  -0.02
  13   1    -0.00   0.09  -0.01     0.08   0.17   0.04     0.03  -0.13   0.01
  14   1    -0.02   0.02  -0.13     0.12   0.03  -0.15    -0.08  -0.03   0.07
  15   1     0.01  -0.18  -0.01    -0.15  -0.17   0.01    -0.12   0.14  -0.01
                      4                      5                      6
                        a                      a                      a 
 Frequencies --   246.6609               313.3358               350.4290
 Red. masses --     5.0453                 5.1202                 8.7233
 Frc consts  --     0.0000                 0.0000                 0.0000
 IR Inten    --    34.5531               112.0191                84.2847
 Raman Activ --     0.0000                 0.0000                 0.0000
 Depolar     --     0.0000                 0.0000                 0.0000
 Atom AN      X      Y      Z        X      Y      Z        X      Y      Z
   1   6     0.01   0.15  -0.20     0.28   0.06  -0.18    -0.31   0.03   0.11
   2   6    -0.13  -0.04   0.28     0.09  -0.15   0.28    -0.21   0.07  -0.11
   3   6    -0.14  -0.31   0.14    -0.05  -0.04   0.21    -0.04  -0.15  -0.12
   4   6     0.10   0.18  -0.10    -0.03   0.07  -0.19     0.18   0.23   0.02
   5   8     0.11   0.06  -0.04    -0.18  -0.12  -0.06     0.46  -0.26   0.13
   6   1    -0.14  -0.08  -0.25    -0.04   0.08  -0.13    -0.03  -0.03   0.07
   7   1     0.18   0.22  -0.18     0.17   0.02  -0.09    -0.14   0.02   0.05
   8   1     0.01   0.04   0.13     0.15   0.02  -0.08    -0.12   0.01   0.06
   9   1    -0.08  -0.01   0.16     0.02  -0.04   0.08    -0.07   0.02   0.01
  10   1    -0.06   0.06   0.06    -0.02  -0.04   0.09    -0.05   0.04  -0.04
  11   1    -0.12  -0.08  -0.06    -0.03  -0.01   0.10    -0.12  -0.03  -0.19
  12   1    -0.05  -0.20   0.07    -0.08   0.03   0.07     0.06  -0.21  -0.02
  13   1    -0.05   0.22  -0.03    -0.02   0.10  -0.04     0.03   0.17   0.02
  14   1     0.16   0.04  -0.15     0.03   0.01  -0.12     0.10   0.05  -0.09
  15   1     0.25  -0.38   0.01    -0.45   0.52  -0.10    -0.19   0.40  -0.01
                      7                      8                      9
                        a                      a                      a 
 Frequencies --   494.1986               780.3631               858.7063
 Red. masses --     8.6517                 2.4161                 5.7859
 Frc consts  --     0.0000                 0.0000                 0.0000
 IR Inten    --     2.6658                14.3665                13.6799
 Raman Activ --     0.0000                 0.0000                 0.0000
 Depolar     --     0.0000                 0.0000                 0.0000
 Atom AN      X      Y      Z        X      Y      Z        X      Y      Z
   1   6    -0.30   0.04   0.06    -0.03   0.04   0.01    -0.20  -0.03   0.04
   2   6    -0.15   0.12   0.01     0.04   0.17   0.14    -0.09  -0.23   0.24
   3   6     0.33  -0.13   0.21     0.13   0.11   0.14     0.04   0.24  -0.17
   4   6     0.39  -0.24  -0.25     0.06  -0.00  -0.03     0.32   0.07  -0.25
   5   8    -0.24   0.15  -0.07    -0.09  -0.01  -0.07     0.04   0.02   0.12
   6   1    -0.02  -0.05   0.05    -0.01  -0.07  -0.04    -0.22   0.16  -0.06
   7   1    -0.12  -0.00   0.04     0.14  -0.17   0.00    -0.02   0.09  -0.04
   8   1    -0.15   0.01   0.04    -0.22   0.01  -0.11     0.18  -0.00   0.01
   9   1    -0.08   0.03   0.03    -0.12   0.05  -0.46     0.08  -0.06   0.12
  10   1    -0.10   0.04   0.02    -0.02  -0.45   0.20    -0.09   0.03   0.06
  11   1     0.26  -0.05   0.21    -0.01   0.04  -0.35    -0.14   0.07  -0.10
  12   1     0.04   0.17   0.02    -0.04  -0.35   0.16    -0.04  -0.03  -0.00
  13   1     0.08   0.07  -0.05     0.02  -0.06  -0.03     0.25  -0.39  -0.07
  14   1     0.25  -0.08  -0.13    -0.05   0.00   0.02    -0.23   0.05   0.22
  15   1    -0.14  -0.02  -0.08    -0.04  -0.06  -0.04    -0.14  -0.15  -0.10
                     10                     11                     12
                        a                      a                      a 
 Frequencies --   882.6494               963.4938               982.2349
 Red. masses --     5.0721                 3.6357                 7.7924
 Frc consts  --     0.0000                 0.0000                 0.0000
 IR Inten    --    10.4765                21.4781                40.8574
 Raman Activ --     0.0000                 0.0000                 0.0000
 Depolar     --     0.0000                 0.0000                 0.0000
 Atom AN      X      Y      Z        X      Y      Z        X      Y      Z
   1   6     0.02  -0.09  -0.13     0.22   0.14  -0.12    -0.16   0.09   0.14
   2   6     0.01  -0.04  -0.16    -0.01   0.03  -0.11     0.03  -0.14   0.04
   3   6     0.25   0.06   0.34    -0.05  -0.19   0.17     0.33  -0.07  -0.03
   4   6    -0.05   0.11   0.11     0.06   0.22  -0.15    -0.01   0.29   0.29
   5   8    -0.17  -0.06  -0.21     0.03  -0.01   0.06    -0.22  -0.16  -0.35
   6   1     0.16   0.04   0.14     0.36  -0.25   0.12    -0.20   0.03  -0.11
   7   1    -0.35   0.21   0.02    -0.07  -0.11   0.06     0.21  -0.10  -0.02
   8   1     0.23  -0.02   0.16    -0.32   0.03   0.03    -0.12   0.02  -0.11
   9   1     0.22  -0.01   0.07    -0.28   0.01   0.11    -0.13  -0.04   0.14
  10   1    -0.28   0.16   0.00    -0.01   0.05  -0.04     0.22   0.04  -0.08
  11   1    -0.06   0.03  -0.21    -0.24  -0.04   0.20    -0.09  -0.01   0.10
  12   1     0.15  -0.31   0.15    -0.00   0.03   0.02     0.39  -0.00  -0.12
  13   1    -0.07   0.01  -0.02     0.04  -0.27  -0.11     0.04   0.00   0.07
  14   1    -0.09   0.02  -0.01    -0.21   0.08   0.21    -0.15   0.07   0.02
  15   1    -0.03  -0.04  -0.05    -0.16  -0.13  -0.12     0.03   0.01  -0.02
                     13                     14                     15
                        a                      a                      a 
 Frequencies --  1080.1852              1089.5584              1113.0809
 Red. masses --    10.1555                 5.3982                 7.6457
 Frc consts  --     0.0000                 0.0000                 0.0000
 IR Inten    --    51.8596                59.6263                 1.0223
 Raman Activ --     0.0000                 0.0000                 0.0000
 Depolar     --     0.0000                 0.0000                 0.0000
 Atom AN      X      Y      Z        X      Y      Z        X      Y      Z
   1   6     0.35  -0.13   0.08     0.17  -0.20   0.24     0.22  -0.09   0.01
   2   6    -0.41   0.11  -0.03    -0.28   0.21  -0.23    -0.36  -0.02   0.21
   3   6    -0.25   0.21  -0.06     0.03  -0.10   0.14     0.38  -0.03  -0.24
   4   6     0.42  -0.11   0.27    -0.10   0.07  -0.07    -0.30   0.10  -0.21
   5   8    -0.15  -0.09  -0.25     0.12   0.05   0.11     0.03   0.04   0.12
   6   1     0.10  -0.05   0.02    -0.18   0.10  -0.08     0.12  -0.05   0.05
   7   1     0.12  -0.05   0.02     0.28  -0.03  -0.03    -0.00  -0.02   0.03
   8   1     0.10  -0.04   0.02     0.24  -0.05  -0.05     0.05  -0.03   0.05
   9   1    -0.16   0.03   0.02    -0.01   0.05  -0.07    -0.26  -0.00   0.09
  10   1    -0.14   0.05  -0.00     0.01   0.07  -0.09    -0.27  -0.04   0.12
  11   1    -0.17   0.06  -0.03     0.14  -0.03  -0.03     0.26  -0.02  -0.08
  12   1     0.01   0.02  -0.04     0.18  -0.03  -0.03     0.10   0.03  -0.07
  13   1     0.19   0.04   0.14    -0.29  -0.06  -0.22     0.09   0.01   0.06
  14   1     0.10  -0.04  -0.05     0.06   0.03   0.15    -0.18   0.03  -0.10
  15   1     0.04   0.03   0.00    -0.29  -0.20  -0.23     0.18   0.11   0.16
                     16                     17                     18
                        a                      a                      a 
 Frequencies --  1131.1910              1179.4577              1235.6460
 Red. masses --     6.5340                 5.5873                 4.2013
 Frc consts  --     0.0000                 0.0000                 0.0000
 IR Inten    --    19.3646                33.9453                 4.7029
 Raman Activ --     0.0000                 0.0000                 0.0000
 Depolar     --     0.0000                 0.0000                 0.0000
 Atom AN      X      Y      Z        X      Y      Z        X      Y      Z
   1   6    -0.03  -0.08  -0.11     0.03   0.16  -0.10    -0.07  -0.24  -0.19
   2   6     0.06   0.14   0.19    -0.03  -0.31   0.22     0.09   0.29   0.25
   3   6    -0.04  -0.24  -0.24     0.02   0.31  -0.22    -0.02  -0.04  -0.08
   4   6     0.06   0.36   0.29    -0.06  -0.17   0.19    -0.01  -0.13   0.00
   5   8    -0.05  -0.16  -0.19     0.11   0.07  -0.00     0.05   0.08   0.04
   6   1     0.05   0.03   0.05     0.15  -0.11   0.04     0.04   0.10   0.08
   7   1    -0.16   0.09  -0.00    -0.08  -0.06   0.04    -0.24   0.17  -0.03
   8   1     0.10  -0.02   0.07    -0.21   0.03   0.02     0.24  -0.05   0.12
   9   1     0.05   0.03  -0.16    -0.05  -0.08   0.15    -0.27   0.08  -0.12
  10   1    -0.13  -0.14   0.15    -0.06   0.02   0.05     0.25  -0.19   0.07
  11   1     0.34  -0.08   0.09     0.09   0.08  -0.16    -0.31   0.00   0.16
  12   1    -0.24   0.20  -0.04     0.19  -0.01  -0.10     0.36   0.04  -0.16
  13   1    -0.01  -0.06   0.00    -0.30   0.12  -0.11    -0.07   0.04  -0.02
  14   1     0.15   0.09   0.28     0.25  -0.05   0.00    -0.09  -0.03  -0.14
  15   1    -0.12  -0.10  -0.12    -0.29  -0.20  -0.25    -0.08  -0.04  -0.07
                     19                     20                     21
                        a                      a                      a 
 Frequencies --  1278.9105              1289.8337              1308.4971
 Red. masses --     2.1914                 3.7162                 2.7562
 Frc consts  --     0.0000                 0.0000                 0.0000
 IR Inten    --     3.0622                13.3639                26.3523
 Raman Activ --     0.0000                 0.0000                 0.0000
 Depolar     --     0.0000                 0.0000                 0.0000
 Atom AN      X      Y      Z        X      Y      Z        X      Y      Z
   1   6     0.03   0.12   0.12    -0.02  -0.08   0.10     0.00   0.06  -0.07
   2   6     0.06   0.08   0.02     0.20   0.01  -0.17    -0.15  -0.03   0.06
   3   6    -0.00  -0.18  -0.14     0.22  -0.00  -0.10    -0.21  -0.10   0.11
   4   6    -0.05  -0.07   0.02    -0.05  -0.08   0.23    -0.03  -0.01   0.07
   5   8     0.06   0.06   0.01     0.12   0.11  -0.04     0.14   0.13  -0.04
   6   1    -0.04  -0.02  -0.03    -0.14   0.07  -0.05     0.09  -0.06   0.03
   7   1     0.12  -0.07   0.02     0.03   0.04  -0.01    -0.00  -0.03   0.00
   8   1    -0.12   0.03  -0.06     0.04  -0.02  -0.04    -0.01   0.01   0.02
   9   1     0.44   0.01  -0.18    -0.38   0.01   0.14     0.24  -0.01  -0.08
  10   1    -0.56  -0.03   0.21    -0.20   0.03   0.03     0.24   0.01  -0.08
  11   1    -0.32  -0.04   0.23    -0.12   0.01   0.04     0.36  -0.05  -0.08
  12   1     0.23   0.09  -0.15    -0.47   0.01   0.16     0.10  -0.01  -0.03
  13   1     0.02   0.02   0.04     0.01   0.14   0.13     0.35   0.04   0.29
  14   1    -0.10  -0.02  -0.13    -0.24  -0.02  -0.26    -0.38  -0.00  -0.30
  15   1    -0.06  -0.05  -0.06    -0.22  -0.15  -0.20    -0.23  -0.15  -0.21
                     22                     23                     24
                        a                      a                      a 
 Frequencies --  1342.7282              1365.1920              1412.6822
 Red. masses --     3.3598                 5.2185                 3.1793
 Frc consts  --     0.0000                 0.0000                 0.0000
 IR Inten    --    49.9808                10.5730                 0.3758
 Raman Activ --     0.0000                 0.0000                 0.0000
 Depolar     --     0.0000                 0.0000                 0.0000
 Atom AN      X      Y      Z        X      Y      Z        X      Y      Z
   1   6     0.01   0.04  -0.03     0.02   0.04  -0.07    -0.41   0.14  -0.05
   2   6    -0.11  -0.02   0.05    -0.40   0.03   0.11     0.08   0.01  -0.04
   3   6     0.01  -0.06  -0.09     0.41  -0.03  -0.10    -0.02   0.02  -0.01
   4   6     0.37   0.02   0.16    -0.14  -0.03   0.04     0.00  -0.01   0.00
   5   8    -0.09   0.01   0.07     0.03   0.01  -0.02    -0.00  -0.00  -0.00
   6   1     0.05  -0.04   0.01     0.10  -0.05   0.04     0.36  -0.26   0.23
   7   1    -0.00  -0.03   0.01     0.02  -0.07   0.01     0.45  -0.22  -0.10
   8   1    -0.01   0.01   0.01     0.04   0.01   0.06     0.51   0.01   0.06
   9   1     0.14  -0.01  -0.03     0.36  -0.00  -0.09    -0.07  -0.00   0.09
  10   1     0.08  -0.01  -0.02     0.35  -0.03  -0.10    -0.08  -0.06   0.05
  11   1     0.09  -0.02  -0.02    -0.39   0.02   0.07    -0.00   0.00  -0.00
  12   1    -0.13   0.07   0.00    -0.34   0.06   0.12     0.00   0.00  -0.01
  13   1    -0.49  -0.03  -0.39     0.01   0.04   0.05    -0.01   0.01  -0.00
  14   1    -0.47   0.01  -0.28     0.14  -0.01   0.04     0.01  -0.00   0.01
  15   1     0.11   0.10   0.12    -0.06  -0.05  -0.06     0.00  -0.00   0.00
                     25                     26                     27
                        a                      a                      a 
 Frequencies --  1470.1667              1475.0140              1488.1525
 Red. masses --     1.8599                 1.9259                 1.8951
 Frc consts  --     0.0000                 0.0000                 0.0000
 IR Inten    --     1.3447                 1.4919                 1.4912
 Raman Activ --     0.0000                 0.0000                 0.0000
 Depolar     --     0.0000                 0.0000                 0.0000
 Atom AN      X      Y      Z        X      Y      Z        X      Y      Z
   1   6    -0.00   0.00  -0.01     0.01   0.00   0.00     0.03  -0.02   0.01
   2   6     0.03  -0.03   0.02    -0.05   0.02  -0.01    -0.06   0.17  -0.21
   3   6     0.03  -0.13   0.14    -0.03   0.12  -0.17    -0.03  -0.01   0.03
   4   6     0.09  -0.13  -0.11     0.09  -0.11  -0.11     0.00   0.00   0.00
   5   8    -0.01  -0.02  -0.03    -0.00  -0.02  -0.02     0.00   0.00  -0.00
   6   1    -0.01   0.02  -0.00     0.01  -0.01  -0.00    -0.01   0.02  -0.00
   7   1    -0.00  -0.03   0.01    -0.01   0.01  -0.00    -0.03   0.08  -0.02
   8   1    -0.01   0.00   0.04    -0.01   0.00  -0.02    -0.07   0.00  -0.06
   9   1    -0.02  -0.00  -0.04     0.06  -0.00   0.05     0.20  -0.01   0.64
  10   1    -0.03   0.05  -0.00     0.03  -0.07   0.01     0.05  -0.63   0.18
  11   1    -0.13   0.02  -0.44     0.14  -0.02   0.47    -0.00   0.01  -0.10
  12   1     0.01   0.44  -0.12     0.01  -0.47   0.11     0.02   0.08  -0.03
  13   1    -0.04   0.48   0.11    -0.07   0.44   0.08     0.01  -0.01   0.00
  14   1    -0.27   0.04   0.42    -0.25   0.04   0.39     0.01  -0.00  -0.01
  15   1    -0.00  -0.01  -0.01    -0.01  -0.00  -0.01    -0.01  -0.01  -0.01
                     28                     29                     30
                        a                      a                      a 
 Frequencies --  1498.6116              1501.8886              2873.3229
 Red. masses --     1.5246                 1.5899                 1.7442
 Frc consts  --     0.0000                 0.0000                 0.0000
 IR Inten    --     1.7164                 0.6212               108.3987
 Raman Activ --     0.0000                 0.0000                 0.0000
 Depolar     --     0.0000                 0.0000                 0.0000
 Atom AN      X      Y      Z        X      Y      Z        X      Y      Z
   1   6    -0.04  -0.16  -0.13     0.06   0.11  -0.17     0.00   0.00  -0.00
   2   6    -0.01  -0.04  -0.03     0.04   0.04  -0.07    -0.00   0.00  -0.00
   3   6    -0.00   0.01  -0.00    -0.02   0.00   0.01     0.00   0.00   0.01
   4   6     0.00   0.00   0.01     0.00   0.01  -0.00    -0.02  -0.25   0.05
   5   8    -0.00   0.00   0.00    -0.00   0.00   0.00    -0.01  -0.01  -0.01
   6   1     0.13   0.58   0.40    -0.24   0.14  -0.17    -0.00  -0.00   0.00
   7   1     0.40   0.11  -0.20    -0.10  -0.60   0.23    -0.00  -0.00  -0.00
   8   1    -0.36  -0.02   0.32     0.09  -0.01   0.63    -0.00   0.00   0.00
   9   1     0.02  -0.01   0.00    -0.02   0.01   0.07     0.00  -0.01  -0.00
  10   1    -0.03   0.02  -0.01    -0.03  -0.06   0.02     0.00   0.00   0.00
  11   1     0.02  -0.00   0.01     0.01  -0.00   0.03     0.00  -0.04   0.00
  12   1    -0.02  -0.02   0.01     0.01  -0.03   0.01    -0.00  -0.00  -0.01
  13   1    -0.00  -0.01  -0.00     0.01  -0.01  -0.00     0.05  -0.02  -0.07
  14   1    -0.00   0.00  -0.01     0.00  -0.00  -0.01     0.05   0.96  -0.07
  15   1     0.00   0.00   0.00     0.00   0.00   0.00    -0.00   0.01  -0.00
                     31                     32                     33
                        a                      a                      a 
 Frequencies --  2959.1510              2970.1522              2975.6991
 Red. masses --     1.9489                 1.6732                 1.4815
 Frc consts  --     0.0000                 0.0000                 0.0000
 IR Inten    --    47.2788                47.8613                51.8762
 Raman Activ --     0.0000                 0.0000                 0.0000
 Depolar     --     0.0000                 0.0000                 0.0000
 Atom AN      X      Y      Z        X      Y      Z        X      Y      Z
   1   6    -0.00  -0.01  -0.01     0.00  -0.00  -0.00    -0.01  -0.01   0.01
   2   6     0.05   0.24   0.14     0.00   0.02   0.01    -0.05   0.10  -0.17
   3   6    -0.01  -0.05  -0.04     0.02   0.01   0.04     0.01   0.02   0.03
   4   6    -0.01  -0.00   0.01     0.14   0.05  -0.19    -0.01   0.00   0.01
   5   8     0.00   0.00   0.00    -0.00  -0.00  -0.01     0.00   0.00   0.00
   6   1     0.00  -0.00  -0.01    -0.00  -0.00   0.00     0.04   0.02  -0.04
   7   1     0.02   0.01   0.05     0.00   0.00   0.00    -0.01  -0.01  -0.03
   8   1    -0.00   0.06  -0.00    -0.00   0.00  -0.00    -0.00   0.02   0.00
   9   1    -0.01  -0.74  -0.00    -0.00  -0.05  -0.00    -0.02  -0.61  -0.04
  10   1    -0.16  -0.14  -0.51    -0.01  -0.01  -0.03     0.22   0.25   0.67
  11   1     0.01   0.16   0.00     0.00   0.03   0.01     0.00  -0.03   0.00
  12   1     0.05   0.03   0.14    -0.07  -0.06  -0.18    -0.05  -0.04  -0.14
  13   1     0.02   0.01  -0.03    -0.52  -0.24   0.74     0.02   0.01  -0.03
  14   1     0.00  -0.00   0.00     0.03   0.10  -0.03    -0.00  -0.02   0.00
  15   1    -0.00   0.00  -0.00     0.01   0.00  -0.01     0.00   0.00   0.00
                     34                     35                     36
                        a                      a                      a 
 Frequencies --  2980.9365              2990.6907              3028.8724
 Red. masses --     1.9904                 1.5055                 1.9531
 Frc consts  --     0.0000                 0.0000                 0.0000
 IR Inten    --   114.9461                74.0500                85.0826
 Raman Activ --     0.0000                 0.0000                 0.0000
 Depolar     --     0.0000                 0.0000                 0.0000
 Atom AN      X      Y      Z        X      Y      Z        X      Y      Z
   1   6     0.00   0.01   0.01     0.00   0.01  -0.01    -0.06  -0.23  -0.16
   2   6    -0.02  -0.05  -0.06     0.01  -0.01   0.02    -0.01  -0.03  -0.02
   3   6    -0.06  -0.23  -0.15     0.05  -0.12   0.16    -0.00  -0.00  -0.00
   4   6     0.02  -0.01  -0.03    -0.02  -0.01   0.04     0.00  -0.00  -0.00
   5   8    -0.00   0.00  -0.00     0.00   0.00   0.00    -0.00   0.00   0.00
   6   1     0.00   0.00  -0.00    -0.02  -0.01   0.02    -0.00  -0.03  -0.03
   7   1    -0.01  -0.01  -0.02     0.01   0.01   0.03     0.21   0.18   0.61
   8   1    -0.00  -0.02   0.00    -0.00  -0.03  -0.00     0.00   0.68  -0.01
   9   1    -0.00   0.08  -0.00     0.00   0.06   0.01     0.00   0.06   0.00
  10   1     0.07   0.07   0.21    -0.02  -0.03  -0.07     0.02   0.02   0.05
  11   1     0.04   0.71   0.02     0.05   0.63   0.06     0.00   0.01  -0.00
  12   1     0.19   0.13   0.53    -0.24  -0.21  -0.64     0.00   0.00   0.01
  13   1    -0.06  -0.03   0.09     0.10   0.04  -0.13    -0.00  -0.00   0.00
  14   1     0.01   0.05  -0.01    -0.00  -0.00   0.00    -0.00   0.00  -0.00
  15   1     0.00   0.00  -0.00    -0.00  -0.00   0.00     0.00  -0.00  -0.00
                     37                     38                     39
                        a                      a                      a 
 Frequencies --  3031.5388              3040.7448              3503.4458
 Red. masses --     1.9294                 1.2617                 1.8742
 Frc consts  --     0.0000                 0.0000                 0.0000
 IR Inten    --    84.7191                40.8264                62.5867
 Raman Activ --     0.0000                 0.0000                 0.0000
 Depolar     --     0.0000                 0.0000                 0.0000
 Atom AN      X      Y      Z        X      Y      Z        X      Y      Z
   1   6     0.07   0.15  -0.24     0.15  -0.03  -0.01    -0.00  -0.00  -0.00
   2   6    -0.00   0.01  -0.02     0.00   0.00  -0.00    -0.00   0.00  -0.00
   3   6    -0.00   0.00  -0.01     0.00  -0.00   0.00     0.00   0.00  -0.00
   4   6     0.00   0.00  -0.00    -0.00   0.00   0.00     0.00  -0.00  -0.01
   5   8    -0.00  -0.00   0.00     0.00   0.00   0.00     0.12   0.06  -0.20
   6   1    -0.43  -0.22   0.47    -0.42  -0.24   0.49    -0.00   0.00   0.00
   7   1     0.17   0.18   0.41    -0.14  -0.16  -0.46     0.00   0.00   0.00
   8   1     0.01  -0.47  -0.05     0.02   0.50   0.01    -0.00   0.00   0.00
   9   1    -0.00  -0.05  -0.00     0.00  -0.01   0.00    -0.00  -0.00   0.00
  10   1     0.01   0.02   0.05     0.00   0.00   0.01    -0.00  -0.00   0.00
  11   1    -0.00  -0.03  -0.00     0.00   0.01   0.00     0.00  -0.00  -0.00
  12   1     0.01   0.01   0.03    -0.00  -0.00  -0.01     0.00   0.00   0.00
  13   1    -0.00  -0.00   0.00     0.00   0.00  -0.00    -0.01  -0.00   0.01
  14   1     0.00  -0.00  -0.00    -0.00  -0.00   0.00    -0.00   0.00   0.00
  15   1     0.00   0.00  -0.00    -0.00   0.00   0.00    -0.48  -0.23   0.81
