      -----------------------------------------------------------      
     |                   =====================                   |     
     |                           x T B                           |     
     |                   =====================                   |     
     |                         S. Grimme                         |     
     |          Mulliken Center for Theoretical Chemistry        |     
     |                    University of Bonn                     |     
      -----------------------------------------------------------      

   * xtb version 6.7.1 (edcfbbe) compiled by 'albert@albert-system' on 2024-07-22

   xtb is free software: you can redistribute it and/or modify it under
   the terms of the GNU Lesser General Public License as published by
   the Free Software Foundation, either version 3 of the License, or
   (at your option) any later version.
   
   xtb is distributed in the hope that it will be useful,
   but WITHOUT ANY WARRANTY; without even the implied warranty of
   MERCHANTABILITY or FITNESS FOR A PARTICULAR PURPOSE.  See the
   GNU Lesser General Public License for more details.
   
   Cite this work as:
   * C. Bannwarth, E. Caldeweyher, S. Ehlert, A. Hansen, P. Pracht,
     J. Seibert, S. Spicher, S. Grimme, WIREs Comput. Mol. Sci., 2020, 11,
     e01493. DOI: 10.1002/wcms.1493
   
   for GFN2-xTB:
   * C. Bannwarth, S. Ehlert and S. Grimme., J. Chem. Theory Comput., 2019,
     15, 1652-1671. DOI: 10.1021/acs.jctc.8b01176
   for GFN1-xTB:
   * S. Grimme, C. Bannwarth, P. Shushkov, J. Chem. Theory Comput., 2017,
     13, 1989-2009. DOI: 10.1021/acs.jctc.7b00118
   for GFN0-xTB:
   * P. Pracht, E. Caldeweyher, S. Ehlert, S. Grimme, ChemRxiv, 2019, preprint.
     DOI: 10.26434/chemrxiv.8326202.v1
   for GFN-FF:
   * S. Spicher and S. Grimme, Angew. Chem. Int. Ed., 2020, 59, 15665-15673.
     DOI: 10.1002/anie.202004239
   
   for ALPB and GBSA implicit solvation:
   * S. Ehlert, M. Stahn, S. Spicher, S. Grimme, J. Chem. Theory Comput.,
     2021, 17, 4250-4261. DOI: 10.1021/acs.jctc.1c00471
   
   for ddCOSMO and CPCM-X implicit solvation:
   * M. Stahn, S. Ehlert, S. Grimme, J. Phys. Chem. A,
     2023, XX, XXXX-XXXX. DOI: 10.1021/acs.jpca.3c04382
   
   for DFT-D4:
   * E. Caldeweyher, C. Bannwarth and S. Grimme, J. Chem. Phys., 2017,
     147, 034112. DOI: 10.1063/1.4993215
   * E. Caldeweyher, S. Ehlert, A. Hansen, H. Neugebauer, S. Spicher,
     C. Bannwarth and S. Grimme, J. Chem. Phys., 2019, 150, 154122.
     DOI: 10.1063/1.5090222
   * E. Caldeweyher, J.-M. Mewes, S. Ehlert and S. Grimme, Phys. Chem. Chem. Phys.
     2020, 22, 8499-8512. DOI: 10.1039/D0CP00502A
   
   for sTDA-xTB:
   * S. Grimme and C. Bannwarth, J. Chem. Phys., 2016, 145, 054103.
     DOI: 10.1063/1.4959605
   
   in the mass-spec context:
   * V. Asgeirsson, C. Bauer and S. Grimme, Chem. Sci., 2017, 8, 4879.
     DOI: 10.1039/c7sc00601b
   * J. Koopman and S. Grimme, ACS Omega 2019, 4, 12, 15120-15133.
     DOI: 10.1021/acsomega.9b02011
   
   for metadynamics refer to:
   * S. Grimme, J. Chem. Theory Comput., 2019, 155, 2847-2862
     DOI: 10.1021/acs.jctc.9b00143
   
   for SPH calculations refer to:
   * S. Spicher and S. Grimme, J. Chem. Theory Comput., 2021, 17, 1701-1714
     DOI: 10.1021/acs.jctc.0c01306
   
   for ONIOM refer to:
   * C. Plett, A. Katbashev, S. Ehlert, S. Grimme, M. Bursch,
     Phys. Chem. Chem. Phys., 2023, 25, 17860-17868. DOI: 10.1039/D3CP02178E
   
   for DIPRO refer to:
   * J. Kohn, N. Gildemeister, S. Grimme, D. Fazzi, A. Hansen,
     J. Chem. Phys., 2023, just accepted.
   
   for PTB refer to:
   * S. Grimme, M. Mueller, A. Hansen, J. Chem. Phys., 2023, 158, 124111.
     DOI: 10.1063/5.0137838
   
   with help from (in alphabetical order)
   P. Atkinson, C. Bannwarth, F. Bohle, G. Brandenburg, E. Caldeweyher
   M. Checinski, S. Dohm, S. Ehlert, S. Ehrlich, I. Gerasimov, C. Hölzer
   A. Katbashev, J. Kohn, J. Koopman, C. Lavigne, S. Lehtola, F. März, M. Müller,
   F. Musil, H. Neugebauer, J. Pisarek, C. Plett, P. Pracht, F. Pultar,
   J. Seibert, P. Shushkov, S. Spicher, M. Stahn, M. Steiner, T. Strunk,
   J. Stückrath, T. Rose, and J. Unsleber
   
 * started run on 2025/04/06 at 22:38:50.624     
   ID    Z sym.   atoms
    1    6 C      1-4
    2    8 O      5
    3    1 H      6-15

           -------------------------------------------------
          |                Calculation Setup                |
           -------------------------------------------------

          program call               : /srv/scratch/z5358697/.xtb/bin/xtb xtb_rrho.coord --gfn2 --ohess vtight --chrg 0 --enso --norestart -I rrho-xcontrol-inp --parallel 1 --alpb water
          hostname                   : k159
          coordinate file            : xtb_rrho.coord
          omp threads                :                     1


           -------------------------------------------------
          |                 G F N 2 - x T B                 |
           -------------------------------------------------

        Reference                      10.1021/acs.jctc.8b01176
      * Hamiltonian:
        H0-scaling (s, p, d)           1.850000    2.230000    2.230000
        zeta-weighting                 0.500000
      * Dispersion:
        s8                             2.700000
        a1                             0.520000
        a2                             5.000000
        s9                             5.000000
      * Repulsion:
        kExp                           1.500000    1.000000
        rExp                           1.000000
      * Coulomb:
        alpha                          2.000000
        third order                    shell-resolved
        anisotropic                    true
        a3                             3.000000
        a5                             4.000000
        cn-shift                       1.200000
        cn-exp                         4.000000
        max-rad                        5.000000

      * Solvation model:               ALPB
        Solvent                        water
        Parameter file                 internal GFN2-xTB/ALPB
        Dielectric constant                8.0200E+01
        Reference state                gsolv [1 M gas/solution]
        Free energy shift                  1.0808E-03 Eh       6.7819E-01 kcal/mol
        Temperature                        2.9815E+02 K
        Density                            1.0000E+00 kg/L
        Solvent mass                       1.8000E+01 g/mol
        Interaction kernel             P16
        Born radius scaling (c1)           1.4744E+00
        Born radii integrator          GBOBC
        Born offset                        0.0000E+00 a0       0.0000E+00 AA
        H-bond correction              true
        Ion screening                  false
        Surface tension                    1.0000E-05 Eh       1.5569E+01 dyn/cm
        Grid points                               974 per atom

          ...................................................
          :                      SETUP                      :
          :.................................................:
          :  # basis functions                  30          :
          :  # atomic orbitals                  30          :
          :  # shells                           20          :
          :  # electrons                        32          :
          :  max. iterations                   250          :
          :  Hamiltonian                  GFN2-xTB          :
          :  restarted?                      false          :
          :  GBSA solvation                   true          :
          :  PC potential                    false          :
          :  electronic temp.          300.0000000     K    :
          :  accuracy                    1.0000000          :
          :  -> integral cutoff          0.2500000E+02      :
          :  -> integral neglect         0.1000000E-07      :
          :  -> SCF convergence          0.1000000E-05 Eh   :
          :  -> wf. convergence          0.1000000E-03 e    :
          :  Broyden damping             0.4000000          :
          :  net charge                          0          :
          :  unpaired electrons                  0          :
          ...................................................

 iter      E             dE          RMSdq      gap      omega  full diag
   1    -17.9059065 -0.179059E+02  0.333E+00   12.19       0.0  T
   2    -17.9329298 -0.270234E-01  0.174E+00   11.96       1.0  T
   3    -17.9337125 -0.782671E-03  0.627E-01   11.94       1.0  T
   4    -17.9338585 -0.145934E-03  0.116E-01   11.93       1.0  T
   5    -17.9338740 -0.155558E-04  0.647E-02   11.95       1.0  T
   6    -17.9338764 -0.238110E-05  0.122E-02   11.95       2.1  T
   7    -17.9338766 -0.251112E-06  0.545E-03   11.95       4.7  T
   8    -17.9338767 -0.495380E-07  0.200E-03   11.95      12.9  T
   9    -17.9338767 -0.414904E-08  0.443E-04   11.95      58.2  T
  10    -17.9338767 -0.743597E-09  0.161E-04   11.95     160.5  T

   *** convergence criteria satisfied after 10 iterations ***

         #    Occupation            Energy/Eh            Energy/eV
      -------------------------------------------------------------
         1        2.0000           -0.6844847             -18.6258
       ...           ...                  ...                  ...
        10        2.0000           -0.4786773             -13.0255
        11        2.0000           -0.4698220             -12.7845
        12        2.0000           -0.4564430             -12.4204
        13        2.0000           -0.4458110             -12.1311
        14        2.0000           -0.4288606             -11.6699
        15        2.0000           -0.4250502             -11.5662
        16        2.0000           -0.4122290             -11.2173 (HOMO)
        17                          0.0270311               0.7356 (LUMO)
        18                          0.0729649               1.9855
        19                          0.1091764               2.9708
        20                          0.1146099               3.1187
        21                          0.1399138               3.8072
       ...                                ...                  ...
        30                          0.2933065               7.9813
      -------------------------------------------------------------
                  HL-Gap            0.4392601 Eh           11.9529 eV
             Fermi-level           -0.1925989 Eh           -5.2409 eV

 SCC (total)                   0 d,  0 h,  0 min,  0.020 sec
 SCC setup                      ...        0 min,  0.001 sec (  3.427%)
 Dispersion                     ...        0 min,  0.000 sec (  0.279%)
 classical contributions        ...        0 min,  0.000 sec (  0.070%)
 integral evaluation            ...        0 min,  0.001 sec (  4.769%)
 iterations                     ...        0 min,  0.016 sec ( 81.517%)
 molecular gradient             ...        0 min,  0.002 sec (  9.389%)
 printout                       ...        0 min,  0.000 sec (  0.495%)

         :::::::::::::::::::::::::::::::::::::::::::::::::::::
         ::                     SUMMARY                     ::
         :::::::::::::::::::::::::::::::::::::::::::::::::::::
         :: total energy             -17.727161946455 Eh    ::
         :: total w/o Gsasa/hb       -17.724545682485 Eh    ::
         :: gradient norm              0.028087073910 Eh/a0 ::
         :: HOMO-LUMO gap             11.952875031675 eV    ::
         ::.................................................::
         :: SCC energy               -17.933867211942 Eh    ::
         :: -> isotropic ES            0.035595895988 Eh    ::
         :: -> anisotropic ES          0.003752277794 Eh    ::
         :: -> anisotropic XC          0.006700926435 Eh    ::
         :: -> dispersion             -0.006996668460 Eh    ::
         :: -> Gsolv                  -0.007341666459 Eh    ::
         ::    -> Gelec               -0.004725402489 Eh    ::
         ::    -> Gsasa                0.000829260671 Eh    ::
         ::    -> Ghb                 -0.004526284339 Eh    ::
         ::    -> Gshift               0.001080759698 Eh    ::
         :: repulsion energy           0.206705265486 Eh    ::
         :: add. restraining           0.000000000000 Eh    ::
         :: total charge              -0.000000000000 e     ::
         :::::::::::::::::::::::::::::::::::::::::::::::::::::

      ----------------------------------------------------------- 
     |                   =====================                   |
     |                        A N C O P T                        |
     |                   =====================                   |
     |               Approximate Normal Coordinate               |
     |                Rational Function Optimizer                |
      ----------------------------------------------------------- 
      ----------------------------------------------------------- 
     |                   =====================                   |
     |                        A N C O P T                        |
     |                   =====================                   |
     |               Approximate Normal Coordinate               |
     |                Rational Function Optimizer                |
      ----------------------------------------------------------- 

          ...................................................
          :                      SETUP                      :
          :.................................................:
          :   optimization level         verytight          :
          :   max. optcycles                   300          :
          :   ANC micro-cycles                  20          :
          :   degrees of freedom                39          :
          :.................................................:
          :   RF solver                   davidson          :
          :   write xtbopt.log                true          :
          :   linear?                        false          :
          :   energy convergence         0.1000000E-06 Eh   :
          :   grad. convergence          0.2000000E-03 Eh/α :
          :   maxmium RF displ.          1.0000000          :
          :   Hlow (freq-cutoff)         0.1000000E-01      :
          :   Hmax (freq-cutoff)         5.0000000          :
          :   S6 in model hess.         20.0000000          :
          ...................................................

generating ANC from exact Hessian ...
Using Lindh-Hessian (1995)
 Shifting diagonal of input Hessian by   6.834789016821396E-003
 Lowest  eigenvalues of input Hessian
    0.000000    0.000000    0.000000    0.000000    0.000000    0.000000
    0.010000    0.012054    0.013537    0.017382    0.019767    0.030444
    0.045928    0.050440    0.057842    0.058755    0.060546    0.062531
 Highest eigenvalues
    1.140786    1.176488    1.203946    1.222043    1.300829    1.413013
 

........................................................................
.............................. CYCLE    1 ..............................
........................................................................

 iter      E             dE          RMSdq      gap      omega  full diag
   1    -17.9338767 -0.179339E+02  0.422E-05   11.95       0.0  T
   2    -17.9338767 -0.104912E-10  0.169E-05   11.95    1526.1  T
   3    -17.9338767 -0.479616E-12  0.110E-05   11.95    2352.6  T
     SCC iter.                  ...        0 min,  0.001 sec
     gradient                   ...        0 min,  0.002 sec
 * total energy  :   -17.7271619 Eh     change       -0.5542944E-10 Eh
   gradient norm :     0.0280882 Eh/α   predicted     0.0000000E+00 (-100.00%)
   displ. norm   :     0.0945180 α      lambda       -0.1232747E-02
   maximum displ.:     0.0353709 α      in ANC's #9, #2, #5, ...

........................................................................
.............................. CYCLE    2 ..............................
........................................................................

 iter      E             dE          RMSdq      gap      omega  full diag
   1    -17.9401332 -0.179401E+02  0.104E-01   12.30       0.0  T
   2    -17.9401399 -0.677371E-05  0.602E-02   12.30       1.0  T
   3    -17.9401403 -0.393812E-06  0.118E-02   12.30       2.2  T
   4    -17.9401406 -0.282693E-06  0.279E-03   12.30       9.2  T
   5    -17.9401406 -0.165745E-07  0.143E-03   12.30      18.1  T
   6    -17.9401406 -0.313156E-08  0.578E-04   12.30      44.7  T
   7    -17.9401406 -0.609628E-09  0.191E-04   12.30     135.1  T
     SCC iter.                  ...        0 min,  0.001 sec
     gradient                   ...        0 min,  0.002 sec
 * total energy  :   -17.7279610 Eh     change       -0.7990300E-03 Eh
   gradient norm :     0.0131171 Eh/α   predicted    -0.6218802E-03 ( -22.17%)
   displ. norm   :     0.0695025 α      lambda       -0.3006633E-03
   maximum displ.:     0.0464623 α      in ANC's #2, #4, #3, ...

........................................................................
.............................. CYCLE    3 ..............................
........................................................................

 iter      E             dE          RMSdq      gap      omega  full diag
   1    -17.9429067 -0.179429E+02  0.483E-02   12.54       0.0  T
   2    -17.9429113 -0.466455E-05  0.277E-02   12.54       1.0  T
   3    -17.9429116 -0.236492E-06  0.111E-02   12.54       2.3  T
   4    -17.9429117 -0.119801E-06  0.199E-03   12.54      13.0  T
   5    -17.9429117 -0.816964E-08  0.101E-03   12.54      25.6  T
   6    -17.9429117 -0.148025E-08  0.441E-04   12.54      58.6  T
   7    -17.9429117 -0.284953E-09  0.163E-04   12.54     158.0  T
     SCC iter.                  ...        0 min,  0.001 sec
     gradient                   ...        0 min,  0.002 sec
 * total energy  :   -17.7281406 Eh     change       -0.1795955E-03 Eh
   gradient norm :     0.0035784 Eh/α   predicted    -0.1510582E-03 ( -15.89%)
   displ. norm   :     0.0593709 α      lambda       -0.5915138E-04
   maximum displ.:     0.0443115 α      in ANC's #2, #4, #3, ...

........................................................................
.............................. CYCLE    4 ..............................
........................................................................

 iter      E             dE          RMSdq      gap      omega  full diag
   1    -17.9427230 -0.179427E+02  0.336E-02   12.61       0.0  T
   2    -17.9427235 -0.450063E-06  0.200E-02   12.61       1.3  T
   3    -17.9427235 -0.650159E-08  0.345E-03   12.62       7.5  T
   4    -17.9427235 -0.366240E-07  0.682E-04   12.61      37.9  T
   5    -17.9427235 -0.695039E-09  0.292E-04   12.61      88.3  T
     SCC iter.                  ...        0 min,  0.001 sec
     gradient                   ...        0 min,  0.002 sec
 * total energy  :   -17.7281831 Eh     change       -0.4255062E-04 Eh
   gradient norm :     0.0021193 Eh/α   predicted    -0.2967999E-04 ( -30.25%)
   displ. norm   :     0.0820361 α      lambda       -0.4305704E-04
   maximum displ.:     0.0616430 α      in ANC's #2, #3, #4, ...

........................................................................
.............................. CYCLE    5 ..............................
........................................................................

 iter      E             dE          RMSdq      gap      omega  full diag
   1    -17.9420058 -0.179420E+02  0.412E-02   12.65       0.0  T
   2    -17.9420060 -0.200565E-06  0.247E-02   12.65       1.0  T
   3    -17.9420061 -0.213339E-07  0.200E-03   12.65      12.9  T
   4    -17.9420061 -0.200253E-07  0.714E-04   12.65      36.2  T
   5    -17.9420061 -0.398160E-09  0.215E-04   12.65     120.1  T
     SCC iter.                  ...        0 min,  0.001 sec
     gradient                   ...        0 min,  0.002 sec
 * total energy  :   -17.7282130 Eh     change       -0.2985283E-04 Eh
   gradient norm :     0.0028342 Eh/α   predicted    -0.2167266E-04 ( -27.40%)
   displ. norm   :     0.0643835 α      lambda       -0.2266994E-04
   maximum displ.:     0.0466074 α      in ANC's #2, #3, #4, ...

........................................................................
.............................. CYCLE    6 ..............................
........................................................................

 iter      E             dE          RMSdq      gap      omega  full diag
   1    -17.9416470 -0.179416E+02  0.290E-02   12.66       0.0  T
   2    -17.9416471 -0.481859E-07  0.175E-02   12.66       1.5  T
   3    -17.9416471 -0.241435E-07  0.848E-04   12.66      30.5  T
   4    -17.9416471 -0.793925E-09  0.508E-04   12.66      50.8  T
     SCC iter.                  ...        0 min,  0.001 sec
     gradient                   ...        0 min,  0.002 sec
 * total energy  :   -17.7282309 Eh     change       -0.1795837E-04 Eh
   gradient norm :     0.0025039 Eh/α   predicted    -0.1138030E-04 ( -36.63%)
   displ. norm   :     0.0792314 α      lambda       -0.2393594E-04
   maximum displ.:     0.0563766 α      in ANC's #2, #3, #4, ...

........................................................................
.............................. CYCLE    7 ..............................
........................................................................

 iter      E             dE          RMSdq      gap      omega  full diag
   1    -17.9416369 -0.179416E+02  0.335E-02   12.64       0.0  T
   2    -17.9416370 -0.884640E-07  0.203E-02   12.64       1.3  T
   3    -17.9416371 -0.390270E-07  0.127E-03   12.64      20.3  T
   4    -17.9416371 -0.446523E-08  0.761E-04   12.64      33.9  T
   5    -17.9416371 -0.953804E-09  0.298E-04   12.64      86.5  T
     SCC iter.                  ...        0 min,  0.001 sec
     gradient                   ...        0 min,  0.002 sec
 * total energy  :   -17.7282479 Eh     change       -0.1697489E-04 Eh
   gradient norm :     0.0015433 Eh/α   predicted    -0.1204508E-04 ( -29.04%)
   displ. norm   :     0.0794140 α      lambda       -0.9732358E-05
   maximum displ.:     0.0582477 α      in ANC's #2, #3, #4, ...

........................................................................
.............................. CYCLE    8 ..............................
........................................................................

 iter      E             dE          RMSdq      gap      omega  full diag
   1    -17.9420667 -0.179421E+02  0.334E-02   12.63       0.0  T
   2    -17.9420668 -0.910870E-07  0.202E-02   12.63       1.3  T
   3    -17.9420668 -0.387275E-07  0.138E-03   12.63      18.7  T
   4    -17.9420668 -0.636627E-08  0.808E-04   12.63      32.0  T
   5    -17.9420668 -0.116805E-08  0.280E-04   12.63      92.1  T
     SCC iter.                  ...        0 min,  0.001 sec
     gradient                   ...        0 min,  0.002 sec
 * total energy  :   -17.7282546 Eh     change       -0.6702724E-05 Eh
   gradient norm :     0.0007225 Eh/α   predicted    -0.4880205E-05 ( -27.19%)
   displ. norm   :     0.0120049 α      lambda       -0.1040406E-05
   maximum displ.:     0.0071640 α      in ANC's #1, #4, #3, ...

........................................................................
.............................. CYCLE    9 ..............................
........................................................................

 iter      E             dE          RMSdq      gap      omega  full diag
   1    -17.9423030 -0.179423E+02  0.476E-03   12.63       0.0  T
   2    -17.9423030 -0.870373E-08  0.288E-03   12.63       9.0  T
   3    -17.9423030 -0.487468E-09  0.340E-04   12.63      75.9  T
   4    -17.9423030 -0.290790E-09  0.936E-05   12.63     275.7  T
     SCC iter.                  ...        0 min,  0.001 sec
     gradient                   ...        0 min,  0.002 sec
 * total energy  :   -17.7282556 Eh     change       -0.9762156E-06 Eh
   gradient norm :     0.0002386 Eh/α   predicted    -0.5214709E-06 ( -46.58%)
   displ. norm   :     0.0113884 α      lambda       -0.5245458E-06
   maximum displ.:     0.0100171 α      in ANC's #1, #2, #4, ...

........................................................................
.............................. CYCLE   10 ..............................
........................................................................

 iter      E             dE          RMSdq      gap      omega  full diag
   1    -17.9422818 -0.179423E+02  0.397E-03   12.63       0.0  T
   2    -17.9422818 -0.168389E-08  0.237E-03   12.63      10.9  T
   3    -17.9422818 -0.145640E-09  0.127E-04   12.63     203.6  T
   4    -17.9422818 -0.435492E-10  0.516E-05   12.63     500.2  T
     SCC iter.                  ...        0 min,  0.001 sec
     gradient                   ...        0 min,  0.002 sec
 * total energy  :   -17.7282562 Eh     change       -0.5936382E-06 Eh
   gradient norm :     0.0002831 Eh/α   predicted    -0.2622565E-06 ( -55.82%)
   displ. norm   :     0.0119188 α      lambda       -0.4158661E-06
   maximum displ.:     0.0099727 α      in ANC's #1, #2, #4, ...

........................................................................
.............................. CYCLE   11 ..............................
........................................................................

 iter      E             dE          RMSdq      gap      omega  full diag
   1    -17.9422506 -0.179423E+02  0.416E-03   12.63       0.0  T
   2    -17.9422506 -0.601279E-09  0.250E-03   12.63      10.3  T
   3    -17.9422506 -0.325205E-09  0.113E-04   12.63     229.5  T
   4    -17.9422506 -0.124416E-10  0.640E-05   12.63     403.2  T
     SCC iter.                  ...        0 min,  0.001 sec
     gradient                   ...        0 min,  0.002 sec
 * total energy  :   -17.7282567 Eh     change       -0.5531150E-06 Eh
   gradient norm :     0.0002585 Eh/α   predicted    -0.2092371E-06 ( -62.17%)
   displ. norm   :     0.0146537 α      lambda       -0.4424923E-06
   maximum displ.:     0.0118943 α      in ANC's #1, #2, #4, ...

........................................................................
.............................. CYCLE   12 ..............................
........................................................................

 iter      E             dE          RMSdq      gap      omega  full diag
   1    -17.9422287 -0.179422E+02  0.531E-03   12.63       0.0  T
   2    -17.9422287 -0.100133E-08  0.319E-03   12.63       8.1  T
   3    -17.9422287 -0.356177E-09  0.125E-04   12.63     206.4  T
   4    -17.9422287 -0.230429E-10  0.714E-05   12.63     361.7  T
     SCC iter.                  ...        0 min,  0.001 sec
     gradient                   ...        0 min,  0.002 sec
 * total energy  :   -17.7282573 Eh     change       -0.5604301E-06 Eh
   gradient norm :     0.0000981 Eh/α   predicted    -0.2228255E-06 ( -60.24%)
   displ. norm   :     0.0122749 α      lambda       -0.2674948E-06
   maximum displ.:     0.0104600 α      in ANC's #1, #2, #3, ...

........................................................................
.............................. CYCLE   13 ..............................
........................................................................

 iter      E             dE          RMSdq      gap      omega  full diag
   1    -17.9422240 -0.179422E+02  0.441E-03   12.64       0.0  T
   2    -17.9422240 -0.611902E-09  0.265E-03   12.64       9.7  T
   3    -17.9422240 -0.274742E-09  0.104E-04   12.64     248.3  T
   4    -17.9422240 -0.111555E-10  0.595E-05   12.64     434.3  T
     SCC iter.                  ...        0 min,  0.001 sec
     gradient                   ...        0 min,  0.002 sec
 * total energy  :   -17.7282576 Eh     change       -0.3424886E-06 Eh
   gradient norm :     0.0000555 Eh/α   predicted    -0.1343031E-06 ( -60.79%)
   displ. norm   :     0.0072957 α      lambda       -0.1365917E-06
   maximum displ.:     0.0068178 α      in ANC's #1, #2, #3, ...

........................................................................
.............................. CYCLE   14 ..............................
........................................................................

 iter      E             dE          RMSdq      gap      omega  full diag
   1    -17.9422292 -0.179422E+02  0.243E-03   12.64       0.0  T
   2    -17.9422292 -0.148457E-09  0.146E-03   12.64      17.7  T
   3    -17.9422292 -0.840892E-10  0.583E-05   12.64     443.2  T
   4    -17.9422292 -0.396838E-11  0.346E-05   12.64     745.9  T
     SCC iter.                  ...        0 min,  0.001 sec
     gradient                   ...        0 min,  0.002 sec
 * total energy  :   -17.7282578 Eh     change       -0.1890425E-06 Eh
   gradient norm :     0.0000657 Eh/α   predicted    -0.6831980E-07 ( -63.86%)
   displ. norm   :     0.0047880 α      lambda       -0.9468961E-07
   maximum displ.:     0.0047267 α      in ANC's #1, #3, #4, ...

........................................................................
.............................. CYCLE   15 ..............................
........................................................................

 iter      E             dE          RMSdq      gap      omega  full diag
   1    -17.9422336 -0.179422E+02  0.152E-03   12.64       0.0  T
   2    -17.9422336 -0.443308E-10  0.906E-04   12.64      28.5  T
   3    -17.9422336 -0.222400E-10  0.314E-05   12.64     822.4  T
     SCC iter.                  ...        0 min,  0.000 sec
     gradient                   ...        0 min,  0.002 sec
 * total energy  :   -17.7282580 Eh     change       -0.1372652E-06 Eh
   gradient norm :     0.0000555 Eh/α   predicted    -0.4814828E-07 ( -64.92%)
   displ. norm   :     0.0046076 α      lambda       -0.9115750E-07
   maximum displ.:     0.0044194 α      in ANC's #1, #4, #2, ...

........................................................................
.............................. CYCLE   16 ..............................
........................................................................

 iter      E             dE          RMSdq      gap      omega  full diag
   1    -17.9422377 -0.179422E+02  0.127E-03   12.64       0.0  T
   2    -17.9422377 -0.545128E-10  0.759E-04   12.64      34.0  T
   3    -17.9422377 -0.153619E-10  0.305E-05   12.64     847.3  T
     SCC iter.                  ...        0 min,  0.001 sec
     gradient                   ...        0 min,  0.002 sec
 * total energy  :   -17.7282581 Eh     change       -0.1312862E-06 Eh
   gradient norm :     0.0000333 Eh/α   predicted    -0.4695491E-07 ( -64.23%)
   displ. norm   :     0.0051130 α      lambda       -0.9457814E-07
   maximum displ.:     0.0047276 α      in ANC's #1, #4, #2, ...

........................................................................
.............................. CYCLE   17 ..............................
........................................................................

 iter      E             dE          RMSdq      gap      omega  full diag
   1    -17.9422382 -0.179422E+02  0.152E-03   12.64       0.0  T
   2    -17.9422382 -0.482636E-10  0.904E-04   12.64      28.6  T
   3    -17.9422382 -0.221227E-10  0.295E-05   12.64     874.9  T
     SCC iter.                  ...        0 min,  0.000 sec
     gradient                   ...        0 min,  0.002 sec
 * total energy  :   -17.7282582 Eh     change       -0.1249328E-06 Eh
   gradient norm :     0.0000273 Eh/α   predicted    -0.4597014E-07 ( -63.20%)
   displ. norm   :     0.0049430 α      lambda       -0.7026866E-07
   maximum displ.:     0.0046081 α      in ANC's #1, #4, #2, ...

........................................................................
.............................. CYCLE   18 ..............................
........................................................................

 iter      E             dE          RMSdq      gap      omega  full diag
   1    -17.9422394 -0.179422E+02  0.133E-03   12.64       0.0  T
   2    -17.9422394 -0.392006E-10  0.793E-04   12.64      32.6  T
   3    -17.9422394 -0.179696E-10  0.278E-05   12.64     927.7  T
     SCC iter.                  ...        0 min,  0.000 sec
     gradient                   ...        0 min,  0.002 sec
 * total energy  :   -17.7282583 Eh     change       -0.9865316E-07 Eh
   gradient norm :     0.0000235 Eh/α   predicted    -0.3673660E-07 ( -62.76%)
   displ. norm   :     0.0040094 α      lambda       -0.4998402E-07
   maximum displ.:     0.0038551 α      in ANC's #1, #4, #8, ...

   *** GEOMETRY OPTIMIZATION CONVERGED AFTER 18 ITERATIONS ***

------------------------------------------------------------------------
 total energy gain   :        -0.0010964 Eh       -0.6880 kcal/mol
 total RMSD          :         0.1258150 a0        0.0666 Å
 total power (kW/mol):        -0.1599180 (step)  -34.2095 (real)
------------------------------------------------------------------------

 ANCopt (total)                0 d,  0 h,  0 min,  0.084 sec
 optimizer setup                ...        0 min,  0.000 sec (  0.321%)
 model hessian                  ...        0 min,  0.003 sec (  3.189%)
 ANC generation                 ...        0 min,  0.000 sec (  0.257%)
 coordinate transformation      ...        0 min,  0.000 sec (  0.073%)
 single point calculation       ...        0 min,  0.074 sec ( 87.823%)
 optimization log               ...        0 min,  0.005 sec (  5.905%)
 hessian update                 ...        0 min,  0.000 sec (  0.081%)
 rational function              ...        0 min,  0.001 sec (  1.673%)

================
 final structure:
================
$coord
        4.64346724688323       -0.47897143286219       -0.20652112571703      C
        1.98801147909548        0.52521832709072       -0.69436371679341      C
        0.11752077375649       -0.42356576975786        1.29146992832588      C
       -2.53551063712802        0.68296349075534        0.97294351072985      C
       -3.85707334302008       -0.28099775400762       -1.13773544878893      O
        5.94773402457819        0.20723419978409       -1.63769602909948      H
        5.31683820464594        0.13405836449678        1.63580845247064      H
        4.65388485828603       -2.53369725269573       -0.24758743471390      H
        2.02126551014591        2.58965259051072       -0.66593133914094      H
        1.38326408692708       -0.07764121674461       -2.57287136974012      H
       -0.01127893833083       -2.48077600952707        1.20048671029811      H
        0.79912673827567        0.09323802811460        3.16764777541997      H
       -3.70178639139769        0.18106078703311        2.60149124217105      H
       -2.42805338054459        2.75360456330367        0.86015367601591      H
       -2.94221019071761        0.14933190903269       -2.65926284014210      H
$end
 
 Bond Distances (Angstroems)
 ---------------------------
C1-C2=1.5243         C1-H6=1.0871         C1-H7=1.0875         C1-H8=1.0875         C2-C1=1.5243         C2-C3=1.5284         
C2-H9=1.0927         C2-H10=1.0919        C3-C2=1.5284         C3-C4=1.5305         C3-H11=1.0918        C3-H12=1.0911        
C4-C3=1.5305         C4-O5=1.4131         C4-H13=1.0928        C4-H14=1.0988        O5-C4=1.4131         O5-H15=0.9667        
H6-C1=1.0871         H7-C1=1.0875         H8-C1=1.0875         H9-C2=1.0927         H10-C2=1.0919        H11-C3=1.0918        
H12-C3=1.0911        H13-C4=1.0928        H14-C4=1.0988        H15-O5=0.9667        
 C  H  Rav=1.0913 sigma=0.0035  Rmin=1.0871  Rmax=1.0988     9
 C  C  Rav=1.5277 sigma=0.0025  Rmin=1.5243  Rmax=1.5305     3
 O  H  Rav=0.9667 sigma=0.0000  Rmin=0.9667  Rmax=0.9667     1
 O  C  Rav=1.4131 sigma=0.0000  Rmin=1.4131  Rmax=1.4131     1
 
 selected bond angles (degree)
 --------------------
H6-C1-C2=110.54                H7-C1-C2=110.48                H7-C1-H6=108.47                H8-C1-C2=110.48                
H8-C1-H6=108.47                H8-C1-H7=108.33                C3-C2-C1=111.47                H9-C2-C1=109.35                
H9-C2-C3=109.23                H10-C2-C1=108.81               H10-C2-C3=109.89               H10-C2-H9=108.02               
C4-C3-C2=113.12                H11-C3-C2=109.73               H11-C3-C4=108.62               H12-C3-C2=109.22               
H12-C3-C4=107.91               H12-C3-H11=108.10              O5-C4-C3=113.76                H13-C4-C3=109.77               
H13-C4-O5=104.84               H14-C4-C3=109.88               H14-C4-O5=110.04               H14-C4-H13=108.33              
H15-O5-C4=108.99               
 
 selected dihedral angles (degree)
 ---------------------------------
C3-C2-C1-H6=179.80            C3-C2-C1-H7=299.88            C3-C2-C1-H8= 59.73            H9-C2-C1-H6=300.68            
H9-C2-C1-H7= 60.76            H9-C2-C1-H8=180.61            H10-C2-C1-H6= 58.46           H10-C2-C1-H7=178.53           
H10-C2-C1-H8=298.39           C4-C3-C2-C1=176.15            C4-C3-C2-H9= 55.20            C4-C3-C2-H10=296.87           
H11-C3-C2-C1=297.62           H11-C3-C2-H9=176.67           H11-C3-C2-H10= 58.34          H12-C3-C2-C1= 55.96           
H12-C3-C2-H9=295.00           H12-C3-C2-H10=176.67          O5-C4-C3-C2= 71.82            O5-C4-C3-H11=309.73           
O5-C4-C3-H12=192.76           H13-C4-C3-C2=188.93           H13-C4-C3-H11= 66.83          H13-C4-C3-H12=309.87          
H14-C4-C3-C2=307.95           H14-C4-C3-H11=185.86          H14-C4-C3-H12= 68.90          H15-O5-C4-C3=298.18           
H15-O5-C4-H13=178.25          H15-O5-C4-H14= 61.96          
           -------------------------------------------------
          |                Final Singlepoint                |
           -------------------------------------------------

          ...................................................
          :                      SETUP                      :
          :.................................................:
          :  # basis functions                  30          :
          :  # atomic orbitals                  30          :
          :  # shells                           20          :
          :  # electrons                        32          :
          :  max. iterations                   250          :
          :  Hamiltonian                  GFN2-xTB          :
          :  restarted?                      false          :
          :  GBSA solvation                   true          :
          :  PC potential                    false          :
          :  electronic temp.          300.0000000     K    :
          :  accuracy                    1.0000000          :
          :  -> integral cutoff          0.2500000E+02      :
          :  -> integral neglect         0.1000000E-07      :
          :  -> SCF convergence          0.1000000E-05 Eh   :
          :  -> wf. convergence          0.1000000E-03 e    :
          :  Broyden damping             0.4000000          :
          :  net charge                          0          :
          :  unpaired electrons                  0          :
          ...................................................

 iter      E             dE          RMSdq      gap      omega  full diag
   1    -17.9422394 -0.179422E+02  0.161E-05   12.64       0.0  T
   2    -17.9422394 -0.994760E-13  0.995E-06   12.64    2595.0  T
   3    -17.9422394 -0.461853E-13  0.184E-06   12.64   14043.3  T

   *** convergence criteria satisfied after 3 iterations ***

         #    Occupation            Energy/Eh            Energy/eV
      -------------------------------------------------------------
         1        2.0000           -0.6877092             -18.7135
       ...           ...                  ...                  ...
        10        2.0000           -0.4784434             -13.0191
        11        2.0000           -0.4707099             -12.8087
        12        2.0000           -0.4572066             -12.4412
        13        2.0000           -0.4448412             -12.1047
        14        2.0000           -0.4273434             -11.6286
        15        2.0000           -0.4265577             -11.6072
        16        2.0000           -0.4100393             -11.1577 (HOMO)
        17                          0.0543093               1.4778 (LUMO)
        18                          0.0759437               2.0665
        19                          0.1101248               2.9966
        20                          0.1240358               3.3752
        21                          0.1458124               3.9678
       ...                                ...                  ...
        30                          0.3077465               8.3742
      -------------------------------------------------------------
                  HL-Gap            0.4643485 Eh           12.6356 eV
             Fermi-level           -0.1778650 Eh           -4.8400 eV

 SCC (total)                   0 d,  0 h,  0 min,  0.004 sec
 SCC setup                      ...        0 min,  0.001 sec ( 16.269%)
 Dispersion                     ...        0 min,  0.000 sec (  0.774%)
 classical contributions        ...        0 min,  0.000 sec (  0.235%)
 integral evaluation            ...        0 min,  0.001 sec ( 16.986%)
 iterations                     ...        0 min,  0.001 sec ( 18.160%)
 molecular gradient             ...        0 min,  0.002 sec ( 45.049%)
 printout                       ...        0 min,  0.000 sec (  2.215%)

         :::::::::::::::::::::::::::::::::::::::::::::::::::::
         ::                     SUMMARY                     ::
         :::::::::::::::::::::::::::::::::::::::::::::::::::::
         :: total energy             -17.728258318567 Eh    ::
         :: total w/o Gsasa/hb       -17.725481048802 Eh    ::
         :: gradient norm              0.000023560003 Eh/a0 ::
         :: HOMO-LUMO gap             12.635566751149 eV    ::
         ::.................................................::
         :: SCC energy               -17.942230267050 Eh    ::
         :: -> isotropic ES            0.034804161510 Eh    ::
         :: -> anisotropic ES          0.003334281881 Eh    ::
         :: -> anisotropic XC          0.006199038165 Eh    ::
         :: -> dispersion             -0.007008616636 Eh    ::
         :: -> Gsolv                  -0.007279170804 Eh    ::
         ::    -> Gelec               -0.004501901038 Eh    ::
         ::    -> Gsasa                0.000792834355 Eh    ::
         ::    -> Ghb                 -0.004650863818 Eh    ::
         ::    -> Gshift               0.001080759698 Eh    ::
         :: repulsion energy           0.213971948483 Eh    ::
         :: add. restraining           0.000000000000 Eh    ::
         :: total charge              -0.000000000000 e     ::
         :::::::::::::::::::::::::::::::::::::::::::::::::::::

           ------------------------------------------------- 
          |                Numerical Hessian                |
           ------------------------------------------------- 
step length          :   0.00500
SCC accuracy         :   0.30000
Hessian scale factor :   1.00000
frozen atoms in %    :   0.00000    0
RMS gradient         :   0.00002
estimated CPU  time      0.01 min
estimated wall time      0.01 min

writing file <hessian>.

 projected vibrational frequencies (cm⁻¹)
eigval :       -0.00    -0.00     0.00     0.00     0.00     0.00
eigval :       73.60   115.87   229.94   246.66   313.34   350.43
eigval :      494.20   780.36   858.71   882.65   963.49   982.23
eigval :     1080.19  1089.56  1113.08  1131.19  1179.46  1235.65
eigval :     1278.91  1289.83  1308.50  1342.73  1365.19  1412.68
eigval :     1470.17  1475.01  1488.15  1498.61  1501.89  2873.32
eigval :     2959.15  2970.15  2975.70  2980.94  2990.69  3028.87
eigval :     3031.54  3040.74  3503.45
           -------------------------------------------------
          |                Property Printout                |
           -------------------------------------------------

    * Orbital Energies and Occupations

         #    Occupation            Energy/Eh            Energy/eV
      -------------------------------------------------------------
         1        2.0000           -0.6877092             -18.7135
       ...           ...                  ...                  ...
         4        2.0000           -0.5881372             -16.0040
         5        2.0000           -0.5606062             -15.2549
         6        2.0000           -0.5538690             -15.0715
         7        2.0000           -0.5288677             -14.3912
         8        2.0000           -0.5140695             -13.9885
         9        2.0000           -0.5037655             -13.7082
        10        2.0000           -0.4784434             -13.0191
        11        2.0000           -0.4707099             -12.8087
        12        2.0000           -0.4572066             -12.4412
        13        2.0000           -0.4448412             -12.1047
        14        2.0000           -0.4273434             -11.6286
        15        2.0000           -0.4265577             -11.6072
        16        2.0000           -0.4100393             -11.1577 (HOMO)
        17                          0.0543093               1.4778 (LUMO)
        18                          0.0759437               2.0665
        19                          0.1101248               2.9966
        20                          0.1240358               3.3752
        21                          0.1458124               3.9678
        22                          0.1564831               4.2581
        23                          0.1737763               4.7287
        24                          0.1865366               5.0759
        25                          0.2084969               5.6735
        26                          0.2144825               5.8364
        27                          0.2459713               6.6932
       ...                                ...                  ...
        30                          0.3077465               8.3742
      -------------------------------------------------------------
                  HL-Gap            0.4643485 Eh           12.6356 eV
             Fermi-level           -0.1778650 Eh           -4.8400 eV

     #   Z          covCN         q      C6AA      α(0)
     1   6 C        3.752    -0.114    22.737     6.800
     2   6 C        3.800    -0.058    21.614     6.619
     3   6 C        3.801    -0.078    21.994     6.677
     4   6 C        3.674     0.078    19.508     6.330
     5   8 O        1.654    -0.514    23.205     6.503
     6   1 H        0.925     0.041     2.439     2.442
     7   1 H        0.925     0.039     2.468     2.457
     8   1 H        0.925     0.039     2.462     2.454
     9   1 H        0.924     0.035     2.519     2.482
    10   1 H        0.924     0.034     2.530     2.488
    11   1 H        0.924     0.047     2.356     2.400
    12   1 H        0.924     0.043     2.415     2.430
    13   1 H        0.924     0.043     2.409     2.427
    14   1 H        0.923     0.022     2.706     2.572
    15   1 H        0.805     0.345     0.601     1.217

 Mol. C6AA /au·bohr⁶  :       1458.853818
 Mol. C8AA /au·bohr⁸  :      29880.962661
 Mol. α(0) /au        :         56.298223


Wiberg/Mayer (AO) data.
largest (>0.10) Wiberg bond orders for each atom

 ---------------------------------------------------------------------------
     #   Z sym  total        # sym  WBO       # sym  WBO       # sym  WBO
 ---------------------------------------------------------------------------
     1   6 C    3.996 --     2 C    1.019     8 H    0.988     7 H    0.988
                             6 H    0.987
     2   6 C    3.998 --     1 C    1.019     3 C    1.009     9 H    0.978
                            10 H    0.976
     3   6 C    3.995 --     2 C    1.009     4 C    0.998    11 H    0.976
                            12 H    0.975
     4   6 C    3.952 --     3 C    0.998     5 O    0.993    13 H    0.974
                            14 H    0.971
     5   8 O    1.915 --     4 C    0.993    15 H    0.865
     6   1 H    0.998 --     1 C    0.987
     7   1 H    0.999 --     1 C    0.988
     8   1 H    0.998 --     1 C    0.988
     9   1 H    0.999 --     2 C    0.978
    10   1 H    0.999 --     2 C    0.976
    11   1 H    0.998 --     3 C    0.976
    12   1 H    0.998 --     3 C    0.975
    13   1 H    0.998 --     4 C    0.974
    14   1 H    1.000 --     4 C    0.971
    15   1 H    0.881 --     5 O    0.865
 ---------------------------------------------------------------------------

Topologies differ in total number of bonds
Writing topology from bond orders to xtbtopo.mol

molecular dipole:
                 x           y           z       tot (Debye)
 q only:        0.688       0.263      -0.095
   full:        0.811       0.361      -0.130       2.280
molecular quadrupole (traceless):
                xx          xy          yy          xz          yz          zz
 q only:       -4.438      -1.532       0.683      -0.302      -0.431       3.756
  q+dip:       -6.732      -1.835       2.131      -0.921      -0.706       4.601
   full:       -6.281      -1.864       1.494      -0.741      -0.644       4.787

           -------------------------------------------------
          |                Geometry Summary                 |
           -------------------------------------------------

      molecular mass/u    :       74.1217560
   center of mass at/Å    :        0.0001618       0.0014232      -0.0009318
  moments of inertia/u·Å² :        0.3868843E+02   0.2198915E+03   0.2356987E+03
rotational constants/cm⁻¹ :        0.4357280E+00   0.7666342E-01   0.7152194E-01

 * 14 selected distances

     #   Z          #   Z                                           value/Å
     1   6 C        2   6 C                                       1.5243459
     2   6 C        3   6 C                                       1.5284396
     3   6 C        4   6 C                                       1.5304518 (max)
     4   6 C        5   8 O                                       1.4130831
     1   6 C        6   1 H                                       1.0871021
     1   6 C        7   1 H                                       1.0875091
     1   6 C        8   1 H                                       1.0875453
     2   6 C        9   1 H                                       1.0926970
     2   6 C       10   1 H                                       1.0919467
     3   6 C       11   1 H                                       1.0918225
     3   6 C       12   1 H                                       1.0911471
     4   6 C       13   1 H                                       1.0927572
     4   6 C       14   1 H                                       1.0988329
     5   8 O       15   1 H                                       0.9667018 (min)

 * 4 distinct bonds (by element types)

   Z      Z             #   av. dist./Å        max./Å        min./Å
   1 H    6 C           9     1.0912622     1.0988329     1.0871021
   6 C    6 C           3     1.5277458     1.5304518     1.5243459
   1 H    8 O           1     0.9667018     0.9667018     0.9667018
   6 C    8 O           1     1.4130831     1.4130831     1.4130831

           -------------------------------------------------
          |               Frequency Printout                |
           -------------------------------------------------
 projected vibrational frequencies (cm⁻¹)
eigval :       -0.00    -0.00     0.00     0.00     0.00     0.00
eigval :       73.60   115.87   229.94   246.66   313.34   350.43
eigval :      494.20   780.36   858.71   882.65   963.49   982.23
eigval :     1080.19  1089.56  1113.08  1131.19  1179.46  1235.65
eigval :     1278.91  1289.83  1308.50  1342.73  1365.19  1412.68
eigval :     1470.17  1475.01  1488.15  1498.61  1501.89  2873.32
eigval :     2959.15  2970.15  2975.70  2980.94  2990.69  3028.87
eigval :     3031.54  3040.74  3503.45
 reduced masses (amu)
   1:  9.13   2: 10.55   3: 10.45   4:  8.89   5: 12.18   6: 12.68   7:  7.28   8:  9.84
   9:  3.03  10:  5.05  11:  5.12  12:  8.72  13:  8.65  14:  2.42  15:  5.79  16:  5.07
  17:  3.64  18:  7.79  19: 10.16  20:  5.40  21:  7.65  22:  6.53  23:  5.59  24:  4.20
  25:  2.19  26:  3.72  27:  2.76  28:  3.36  29:  5.22  30:  3.18  31:  1.86  32:  1.93
  33:  1.90  34:  1.52  35:  1.59  36:  1.74  37:  1.95  38:  1.67  39:  1.48  40:  1.99
  41:  1.51  42:  1.95  43:  1.93  44:  1.26  45:  1.87
 IR intensities (km·mol⁻¹)
   1:  0.99   2:  0.04   3:  0.01   4:  1.03   5:  0.69   6:  0.31   7:  0.54   8:  7.05
   9:  4.20  10: 34.55  11:112.02  12: 84.28  13:  2.67  14: 14.37  15: 13.68  16: 10.48
  17: 21.48  18: 40.86  19: 51.86  20: 59.63  21:  1.02  22: 19.36  23: 33.95  24:  4.70
  25:  3.06  26: 13.36  27: 26.35  28: 49.98  29: 10.57  30:  0.38  31:  1.34  32:  1.49
  33:  1.49  34:  1.72  35:  0.62  36:108.40  37: 47.28  38: 47.86  39: 51.88  40:114.95
  41: 74.05  42: 85.08  43: 84.72  44: 40.83  45: 62.59
 Raman intensities (Ä⁴*amu⁻¹)
   1:  0.00   2:  0.00   3:  0.00   4:  0.00   5:  0.00   6:  0.00   7:  0.00   8:  0.00
   9:  0.00  10:  0.00  11:  0.00  12:  0.00  13:  0.00  14:  0.00  15:  0.00  16:  0.00
  17:  0.00  18:  0.00  19:  0.00  20:  0.00  21:  0.00  22:  0.00  23:  0.00  24:  0.00
  25:  0.00  26:  0.00  27:  0.00  28:  0.00  29:  0.00  30:  0.00  31:  0.00  32:  0.00
  33:  0.00  34:  0.00  35:  0.00  36:  0.00  37:  0.00  38:  0.00  39:  0.00  40:  0.00
  41:  0.00  42:  0.00  43:  0.00  44:  0.00  45:  0.00
 output can be read by thermo (or use thermo option).
 writing <g98.out> molden fake output.
 recommended (thermochemical) frequency scaling factor: 1.0
           -------------------------------------------------
          |             Thermodynamic Functions             |
           -------------------------------------------------

Molecule has no symmetry elements
It seems to be the C1 point group
c1  symmetry found (for desy threshold:  0.10E+00) used in thermo

          ...................................................
          :                      SETUP                      :
          :.................................................:
          :  # frequencies                          39      :
          :  # imaginary freq.                       0      :
          :  linear?                             false      :
          :  only rotor calc.                    false      :
          :  symmetry                               c1      :
          :  rotational number                       1      :
          :  scaling factor                  1.0000000      :
          :  rotor cutoff                    0.0000000 cm⁻¹ :
          :  imag. cutoff                 -100.0000000 cm⁻¹ :
          :.................................................:

    mode    ω/cm⁻¹     T·S(HO)/kcal·mol⁻¹    T·S(FR)/kcal·mol⁻¹   T·S(vib)
   ------------------------------------------------------------------------
       1     73.60    -1.20894 (100.00%)    -0.94162 (  0.00%)    -1.20894
       2    115.87    -0.94458 (100.00%)    -0.80732 (  0.00%)    -0.94458
       3    229.94    -0.56035 (100.00%)    -0.60442 (  0.00%)    -0.56035
       4    246.66    -0.52305 (100.00%)    -0.58363 (  0.00%)    -0.52305
   ------------------------------------------------------------------------

   temp. (K)  partition function   enthalpy   heat capacity  entropy
                                   cal/mol     cal/K/mol   cal/K/mol   J/K/mol
 298.15  VIB   32.4                 2506.678     17.245     15.321
         ROT  0.108E+06              888.752      2.981     26.016
         INT  0.351E+07             3395.430     20.226     41.337
         TR   0.617E+27             1481.254      4.968     38.808
         TOT                        4876.6844    25.1943    80.1447   335.3253

       T/K    H(0)-H(T)+PV         H(T)/Eh          T*S/Eh         G(T)/Eh
   ------------------------------------------------------------------------
    298.15    0.777149E-02    0.141971E+00    0.380793E-01    0.103892E+00
   ------------------------------------------------------------------------

         :::::::::::::::::::::::::::::::::::::::::::::::::::::
         ::                  THERMODYNAMIC                  ::
         :::::::::::::::::::::::::::::::::::::::::::::::::::::
         :: total free energy         -17.624366525758 Eh   ::
         ::.................................................::
         :: total energy              -17.728258318518 Eh   ::
         :: zero point energy           0.134199619931 Eh   ::
         :: G(RRHO) w/o ZPVE           -0.030307827170 Eh   ::
         :: G(RRHO) contrib.            0.103891792761 Eh   ::
         :::::::::::::::::::::::::::::::::::::::::::::::::::::

optimized geometry written to: xtbopt.coord


           -------------------------------------------------
          | TOTAL ENERGY              -17.728258318518 Eh   |
          | TOTAL ENTHALPY            -17.586287207287 Eh   |
          | TOTAL FREE ENERGY         -17.624366525758 Eh   |
          | GRADIENT NORM               0.000023557031 Eh/α |
          | HOMO-LUMO GAP              12.635566662354 eV   |
           -------------------------------------------------

------------------------------------------------------------------------
 * finished run on 2025/04/06 at 22:38:51.170     
------------------------------------------------------------------------
 total:
 * wall-time:     0 d,  0 h,  0 min,  0.546 sec
 *  cpu-time:     0 d,  0 h,  0 min,  0.464 sec
 * ratio c/w:     0.850 speedup
 SCF:
 * wall-time:     0 d,  0 h,  0 min,  0.020 sec
 *  cpu-time:     0 d,  0 h,  0 min,  0.007 sec
 * ratio c/w:     0.360 speedup
 ANC optimizer:
 * wall-time:     0 d,  0 h,  0 min,  0.100 sec
 *  cpu-time:     0 d,  0 h,  0 min,  0.085 sec
 * ratio c/w:     0.848 speedup
 analytical hessian:
 * wall-time:     0 d,  0 h,  0 min,  0.372 sec
 *  cpu-time:     0 d,  0 h,  0 min,  0.363 sec
 * ratio c/w:     0.976 speedup

