 Entering Gaussian System
 *********************************************
 Gaussian 98:
 frequency output generated by the xtb code
 *********************************************
                         Standard orientation:
 --------------------------------------------------------------------
  Center     Atomic     Atomic              Coordinates (Angstroms)
  Number     Number      Type              X           Y           Z
 --------------------------------------------------------------------
    1          6             0        1.779750   -0.832759    0.284191
    2          6             0        1.210831    0.578833    0.163367
    3          6             0        0.043946    0.663305   -0.829749
    4          6             0       -1.332954    0.499097   -0.177860
    5          8             0       -1.550025   -0.761668    0.421871
    6          1             0        2.529022   -0.875501    1.071440
    7          1             0        1.000444   -1.556949    0.505799
    8          1             0        2.251093   -1.126263   -0.651389
    9          1             0        0.881223    0.933858    1.142855
   10          1             0        2.010204    1.245060   -0.166431
   11          1             0        0.043395    1.637538   -1.320314
   12          1             0        0.164773   -0.101042   -1.598749
   13          1             0       -1.486902    1.296540    0.561777
   14          1             0       -2.109083    0.587914   -0.942649
   15          1             0       -0.981196   -0.835014    1.200062
 --------------------------------------------------------------------
     1 basis functions        1 primitive gaussians
     1 alpha electrons        1 beta electrons
 
 Harmonic frequencies (cm**-1), IR intensities (km*mol⁻¹),
 Raman scattering activities (A**4/amu), Raman depolarization ratios,
 reduced masses (AMU), force constants (mDyne/A) and normal coordinates:
                      1                      2                      3
                        a                      a                      a 
 Frequencies --    96.2526               105.9795               199.9972
 Red. masses --     8.2445                 9.0472                 2.0213
 Frc consts  --     0.0000                 0.0000                 0.0000
 IR Inten    --     4.6822                10.5626                 1.5278
 Raman Activ --     0.0000                 0.0000                 0.0000
 Depolar     --     0.0000                 0.0000                 0.0000
 Atom AN      X      Y      Z        X      Y      Z        X      Y      Z
   1   6    -0.15  -0.10  -0.19    -0.49  -0.09   0.20     0.05  -0.03  -0.05
   2   6    -0.19  -0.08   0.21     0.11   0.11  -0.20    -0.01  -0.05   0.14
   3   6     0.04   0.13  -0.04    -0.01   0.27  -0.03     0.03   0.08   0.09
   4   6    -0.06  -0.10  -0.30     0.07  -0.08   0.07    -0.08  -0.06  -0.18
   5   8     0.38   0.14   0.34     0.39  -0.22  -0.07    -0.00   0.04   0.03
   6   1    -0.15  -0.13   0.04    -0.13  -0.05   0.05     0.40   0.11  -0.37
   7   1    -0.07  -0.07  -0.26    -0.22   0.09   0.13     0.12   0.04   0.48
   8   1     0.08   0.10  -0.03    -0.20  -0.17   0.07    -0.44  -0.16  -0.20
   9   1    -0.13  -0.13   0.07     0.12   0.18  -0.08     0.01  -0.05   0.05
  10   1    -0.05   0.03   0.19     0.10  -0.10  -0.17    -0.00  -0.01   0.05
  11   1     0.02   0.07   0.05    -0.05   0.13   0.08     0.02   0.05   0.08
  12   1     0.07   0.09  -0.05     0.00   0.15  -0.08     0.05   0.07  -0.01
  13   1    -0.16   0.06  -0.21    -0.01  -0.06   0.05    -0.12   0.02  -0.11
  14   1     0.02  -0.22  -0.15     0.00  -0.04   0.03     0.03  -0.10  -0.12
  15   1     0.07   0.21   0.12    -0.02   0.02   0.08    -0.05   0.09   0.05
                      4                      5                      6
                        a                      a                      a 
 Frequencies --   277.1831               351.4223               382.8961
 Red. masses --     6.8369                 5.3898                 6.8468
 Frc consts  --     0.0000                 0.0000                 0.0000
 IR Inten    --    38.2439                85.1462               121.3868
 Raman Activ --     0.0000                 0.0000                 0.0000
 Depolar     --     0.0000                 0.0000                 0.0000
 Atom AN      X      Y      Z        X      Y      Z        X      Y      Z
   1   6    -0.07  -0.04   0.13    -0.23   0.12  -0.17     0.31  -0.11   0.16
   2   6    -0.34  -0.14   0.07    -0.12   0.16   0.17    -0.12  -0.28  -0.14
   3   6    -0.13  -0.07  -0.18     0.11  -0.26  -0.07    -0.22   0.11  -0.03
   4   6     0.02   0.21   0.09     0.21   0.07   0.14    -0.18   0.18   0.06
   5   8     0.41   0.09  -0.12     0.18  -0.07  -0.14     0.28   0.00  -0.19
   6   1     0.06   0.09  -0.03    -0.00  -0.06  -0.12     0.05   0.12   0.09
   7   1     0.06  -0.06   0.16    -0.10   0.08  -0.03     0.15  -0.09   0.06
   8   1    -0.09  -0.03   0.01    -0.17   0.07  -0.11     0.18  -0.05   0.10
   9   1    -0.18  -0.09   0.01    -0.12  -0.04   0.05    -0.02  -0.08  -0.03
  10   1    -0.09  -0.00   0.11    -0.04   0.10   0.14    -0.05  -0.06  -0.04
  11   1     0.04  -0.06  -0.12     0.05  -0.18  -0.22    -0.00   0.06   0.06
  12   1    -0.09  -0.09   0.01     0.01  -0.24   0.14    -0.14   0.07  -0.05
  13   1     0.12   0.02   0.10     0.15  -0.01   0.08    -0.06   0.02   0.04
  14   1    -0.09   0.12   0.13     0.02   0.11   0.08    -0.07   0.06   0.03
  15   1     0.46  -0.13  -0.31    -0.40   0.14   0.31    -0.41   0.26   0.32
                      7                      8                      9
                        a                      a                      a 
 Frequencies --   475.6632               796.4904               860.6819
 Red. masses --     7.3813                 4.0609                 6.0532
 Frc consts  --     0.0000                 0.0000                 0.0000
 IR Inten    --     1.0222                 3.1833                15.8555
 Raman Activ --     0.0000                 0.0000                 0.0000
 Depolar     --     0.0000                 0.0000                 0.0000
 Atom AN      X      Y      Z        X      Y      Z        X      Y      Z
   1   6     0.01   0.04   0.06     0.10  -0.08  -0.01     0.14  -0.09   0.11
   2   6    -0.22  -0.09  -0.07     0.28   0.10  -0.14     0.22   0.14   0.25
   3   6     0.14   0.19  -0.39     0.04   0.22  -0.16    -0.05  -0.06  -0.29
   4   6     0.36  -0.17   0.06    -0.18   0.09   0.08    -0.38   0.00  -0.19
   5   8    -0.25  -0.05   0.20    -0.05  -0.13   0.06     0.01  -0.10   0.08
   6   1     0.02   0.11   0.01    -0.07  -0.05   0.09     0.09  -0.30  -0.03
   7   1     0.05  -0.03   0.08    -0.17   0.22   0.10    -0.07   0.05  -0.07
   8   1     0.01  -0.01   0.03     0.02  -0.34   0.10    -0.08   0.06  -0.06
   9   1    -0.23  -0.12  -0.04    -0.17  -0.37   0.03     0.06   0.11   0.04
  10   1    -0.04   0.04   0.18     0.03   0.27   0.36     0.05   0.03   0.01
  11   1    -0.04   0.18   0.13     0.02  -0.04  -0.24     0.00   0.04   0.03
  12   1     0.10   0.24  -0.28    -0.10  -0.10   0.09     0.13   0.08  -0.14
  13   1     0.27  -0.05   0.06    -0.18   0.00   0.01     0.28  -0.08   0.11
  14   1     0.01   0.07   0.12    -0.02  -0.08  -0.02    -0.33   0.24   0.22
  15   1    -0.13  -0.08   0.09     0.02  -0.07  -0.01     0.06   0.20   0.00
                     10                     11                     12
                        a                      a                      a 
 Frequencies --   870.4494               969.5271               987.7766
 Red. masses --     5.8548                 5.1512                 7.7457
 Frc consts  --     0.0000                 0.0000                 0.0000
 IR Inten    --    10.0362                39.7672                16.7268
 Raman Activ --     0.0000                 0.0000                 0.0000
 Depolar     --     0.0000                 0.0000                 0.0000
 Atom AN      X      Y      Z        X      Y      Z        X      Y      Z
   1   6     0.01   0.18  -0.06     0.18  -0.14   0.22     0.13  -0.31  -0.06
   2   6     0.08  -0.05  -0.12     0.05   0.13   0.05    -0.12   0.25   0.10
   3   6    -0.11  -0.43   0.25    -0.19  -0.07  -0.20    -0.32   0.21   0.08
   4   6     0.02  -0.11  -0.03     0.13  -0.07   0.25     0.24  -0.32  -0.11
   5   8     0.11   0.23  -0.13     0.04   0.21  -0.14     0.01   0.24  -0.08
   6   1    -0.09  -0.03   0.06     0.15  -0.43  -0.06    -0.02  -0.00   0.05
   7   1    -0.20   0.28   0.04    -0.06   0.02  -0.12     0.02  -0.04   0.07
   8   1    -0.03  -0.20   0.05    -0.15   0.16  -0.11     0.09  -0.23   0.06
   9   1    -0.06  -0.22   0.02    -0.17   0.16  -0.09     0.17  -0.04   0.13
  10   1    -0.15   0.22   0.04    -0.00   0.06   0.03    -0.09   0.09  -0.07
  11   1    -0.12   0.06   0.41    -0.15   0.03   0.04    -0.32  -0.06  -0.20
  12   1     0.01   0.17  -0.20    -0.21   0.05  -0.14     0.15  -0.08   0.19
  13   1     0.13   0.01  -0.02    -0.20   0.10  -0.10     0.21  -0.06  -0.01
  14   1     0.01   0.08   0.00     0.12  -0.26  -0.06    -0.02   0.02   0.07
  15   1     0.04   0.10  -0.04    -0.09  -0.21   0.01    -0.02   0.04  -0.01
                     13                     14                     15
                        a                      a                      a 
 Frequencies --  1054.5469              1092.0422              1115.8818
 Red. masses --     8.2232                 3.6644                 7.9305
 Frc consts  --     0.0000                 0.0000                 0.0000
 IR Inten    --    62.6953                54.7776                 8.4004
 Raman Activ --     0.0000                 0.0000                 0.0000
 Depolar     --     0.0000                 0.0000                 0.0000
 Atom AN      X      Y      Z        X      Y      Z        X      Y      Z
   1   6    -0.22  -0.01  -0.05    -0.04  -0.19   0.11     0.05  -0.37  -0.11
   2   6     0.24   0.05   0.00     0.03   0.20  -0.25    -0.21   0.42  -0.05
   3   6     0.13  -0.08  -0.10     0.02  -0.02   0.22     0.23  -0.23   0.03
   4   6    -0.29  -0.35   0.28     0.08  -0.04  -0.08    -0.16   0.30   0.10
   5   8     0.06   0.35  -0.19    -0.06  -0.11   0.04     0.04  -0.14   0.02
   6   1    -0.02   0.29  -0.03     0.08  -0.04  -0.05    -0.02   0.08   0.02
   7   1     0.17  -0.23   0.04     0.11  -0.20  -0.04     0.08  -0.14   0.07
   8   1     0.08   0.11   0.02    -0.02   0.14  -0.04     0.11  -0.20   0.05
   9   1    -0.07  -0.04  -0.02    -0.31   0.06  -0.17    -0.11   0.16  -0.05
  10   1     0.25  -0.10   0.24     0.08   0.09   0.19    -0.09   0.13  -0.05
  11   1    -0.15  -0.01  -0.00    -0.15  -0.02   0.03    -0.04   0.02   0.15
  12   1     0.12   0.01  -0.04    -0.18  -0.01   0.04     0.32   0.10  -0.10
  13   1    -0.04  -0.02   0.02    -0.03  -0.16   0.14    -0.05   0.17  -0.09
  14   1    -0.12  -0.11   0.11     0.21   0.31  -0.16    -0.01  -0.06  -0.02
  15   1    -0.03   0.03  -0.02     0.16   0.45  -0.07    -0.04  -0.15   0.03
                     16                     17                     18
                        a                      a                      a 
 Frequencies --  1136.1213              1187.8875              1220.3274
 Red. masses --     7.8374                 5.4024                 3.2150
 Frc consts  --     0.0000                 0.0000                 0.0000
 IR Inten    --    21.5506                20.1750                11.6415
 Raman Activ --     0.0000                 0.0000                 0.0000
 Depolar     --     0.0000                 0.0000                 0.0000
 Atom AN      X      Y      Z        X      Y      Z        X      Y      Z
   1   6     0.18   0.01   0.05     0.06   0.01  -0.19     0.01  -0.14  -0.16
   2   6    -0.33  -0.09  -0.20    -0.06   0.03   0.36     0.03   0.20   0.13
   3   6     0.38   0.16   0.09     0.03  -0.09  -0.35    -0.02  -0.02   0.07
   4   6    -0.20  -0.32   0.21     0.05  -0.03   0.28     0.05  -0.17  -0.18
   5   8    -0.01   0.21  -0.08    -0.08  -0.04  -0.05     0.02   0.13   0.02
   6   1     0.03  -0.22   0.01    -0.09   0.09   0.06    -0.06   0.13   0.03
   7   1    -0.12   0.16  -0.05    -0.04   0.10   0.08     0.03  -0.02   0.08
   8   1    -0.08  -0.06  -0.03     0.08  -0.22   0.06     0.09  -0.16   0.05
   9   1    -0.10   0.10  -0.10     0.18   0.13   0.11    -0.15   0.24  -0.08
  10   1    -0.18   0.04  -0.15    -0.01  -0.09  -0.10     0.01   0.04   0.02
  11   1     0.26  -0.02  -0.08    -0.04   0.03   0.01     0.51   0.04   0.12
  12   1     0.20  -0.04   0.12    -0.14   0.03  -0.17    -0.52  -0.02  -0.04
  13   1    -0.09  -0.15   0.13    -0.27  -0.09   0.09     0.02  -0.16   0.09
  14   1    -0.04   0.01   0.05     0.26   0.07  -0.17    -0.16  -0.04   0.13
  15   1     0.04   0.14  -0.04     0.14   0.40  -0.09    -0.07  -0.16   0.04
                     19                     20                     21
                        a                      a                      a 
 Frequencies --  1262.6171              1306.4569              1329.1095
 Red. masses --     2.6518                 2.8751                 3.8314
 Frc consts  --     0.0000                 0.0000                 0.0000
 IR Inten    --     0.6179                41.6728                 7.2962
 Raman Activ --     0.0000                 0.0000                 0.0000
 Depolar     --     0.0000                 0.0000                 0.0000
 Atom AN      X      Y      Z        X      Y      Z        X      Y      Z
   1   6    -0.20  -0.10   0.19    -0.02  -0.00   0.01     0.06   0.05   0.03
   2   6     0.08   0.15  -0.10     0.02  -0.02   0.04    -0.15   0.21  -0.16
   3   6     0.02  -0.04  -0.12     0.08  -0.06  -0.08    -0.36  -0.08  -0.04
   4   6     0.03  -0.04   0.08    -0.11   0.02  -0.19    -0.03  -0.08   0.08
   5   8    -0.03   0.01  -0.02     0.15   0.18   0.14     0.04   0.03   0.03
   6   1     0.08   0.02  -0.07     0.00   0.02  -0.00     0.03  -0.13  -0.01
   7   1     0.13  -0.24  -0.04     0.00  -0.01  -0.00     0.02  -0.01  -0.03
   8   1    -0.01   0.21  -0.01    -0.00   0.02  -0.00    -0.01  -0.07   0.02
   9   1     0.33  -0.37   0.23     0.04  -0.04   0.03     0.14  -0.14   0.09
  10   1    -0.33   0.38  -0.19    -0.06   0.03  -0.07     0.34  -0.26   0.24
  11   1     0.30   0.02   0.04    -0.21  -0.01  -0.02     0.48   0.02   0.07
  12   1    -0.07   0.03  -0.08     0.06   0.02  -0.05     0.28   0.02   0.00
  13   1    -0.08  -0.05   0.04    -0.29  -0.40   0.33     0.03   0.00  -0.00
  14   1     0.01  -0.06   0.00     0.14   0.37  -0.18     0.22   0.17  -0.19
  15   1     0.02   0.09  -0.02    -0.14  -0.46   0.11    -0.02  -0.07   0.02
                     22                     23                     24
                        a                      a                      a 
 Frequencies --  1347.8085              1354.2248              1415.0889
 Red. masses --     3.3451                 4.9109                 3.1336
 Frc consts  --     0.0000                 0.0000                 0.0000
 IR Inten    --    52.4046                 1.5591                 0.8834
 Raman Activ --     0.0000                 0.0000                 0.0000
 Depolar     --     0.0000                 0.0000                 0.0000
 Atom AN      X      Y      Z        X      Y      Z        X      Y      Z
   1   6     0.02   0.03   0.02    -0.08  -0.05  -0.06    -0.18   0.38  -0.06
   2   6    -0.06   0.06  -0.08     0.33  -0.22   0.13     0.07  -0.05   0.04
   3   6    -0.08  -0.12   0.02    -0.38   0.05  -0.04     0.01   0.03  -0.01
   4   6     0.30   0.23  -0.13     0.09   0.01   0.06     0.00  -0.01  -0.00
   5   8    -0.09   0.02  -0.03    -0.01  -0.00   0.00     0.00  -0.00   0.00
   6   1     0.02  -0.06  -0.01    -0.02   0.15  -0.01     0.05  -0.50  -0.10
   7   1     0.01  -0.00  -0.01    -0.02   0.01   0.04     0.37  -0.36   0.06
   8   1    -0.00  -0.02   0.01     0.05   0.06  -0.00     0.16  -0.41   0.22
   9   1     0.02  -0.06   0.02    -0.31   0.24  -0.21    -0.11   0.01  -0.04
  10   1     0.13  -0.11   0.09    -0.22   0.25  -0.09    -0.06   0.03  -0.09
  11   1    -0.02  -0.00   0.07     0.26  -0.02  -0.07    -0.03   0.01   0.01
  12   1     0.21   0.01   0.00     0.45   0.04   0.05     0.00  -0.02   0.03
  13   1    -0.38  -0.34   0.29    -0.10  -0.03   0.03    -0.01   0.02  -0.02
  14   1    -0.30  -0.37   0.30     0.08   0.04  -0.04    -0.01   0.02   0.01
  15   1     0.03   0.17  -0.03     0.01   0.04  -0.01    -0.01  -0.00   0.01
                     25                     26                     27
                        a                      a                      a 
 Frequencies --  1467.3522              1473.7416              1495.2907
 Red. masses --     1.8817                 1.8451                 1.5520
 Frc consts  --     0.0000                 0.0000                 0.0000
 IR Inten    --     1.3758                 1.3817                 0.6679
 Raman Activ --     0.0000                 0.0000                 0.0000
 Depolar     --     0.0000                 0.0000                 0.0000
 Atom AN      X      Y      Z        X      Y      Z        X      Y      Z
   1   6     0.01   0.04   0.02     0.02  -0.00   0.02    -0.09   0.01   0.18
   2   6    -0.00   0.02   0.04    -0.00   0.06   0.02    -0.05  -0.08  -0.00
   3   6    -0.01  -0.04   0.26     0.01  -0.03   0.09     0.01  -0.00  -0.01
   4   6    -0.06   0.05   0.01     0.19  -0.16   0.01     0.01  -0.00  -0.01
   5   8    -0.00   0.02  -0.01     0.00  -0.04   0.01    -0.00  -0.00   0.00
   6   1     0.00   0.02   0.00     0.00   0.03   0.01     0.42   0.24  -0.39
   7   1     0.02  -0.04  -0.09    -0.01  -0.00  -0.05    -0.19   0.03  -0.53
   8   1    -0.05  -0.09   0.00    -0.04  -0.02  -0.01     0.15  -0.30   0.18
   9   1    -0.03  -0.02   0.01    -0.06  -0.10   0.02     0.15   0.19  -0.01
  10   1     0.02  -0.04  -0.04     0.03  -0.08  -0.09    -0.02   0.10   0.19
  11   1     0.06  -0.29  -0.55     0.03  -0.10  -0.18    -0.02   0.01   0.02
  12   1    -0.03   0.45  -0.44    -0.00   0.15  -0.15    -0.02  -0.02   0.01
  13   1     0.17  -0.09   0.13    -0.48   0.24  -0.35    -0.02   0.01  -0.02
  14   1     0.07  -0.19  -0.09    -0.24   0.49   0.31    -0.01   0.02   0.02
  15   1    -0.00   0.01  -0.00     0.00  -0.01   0.00     0.00  -0.01   0.00
                     28                     29                     30
                        a                      a                      a 
 Frequencies --  1497.6669              1509.2519              2876.8111
 Red. masses --     1.8021                 1.6327                 1.7476
 Frc consts  --     0.0000                 0.0000                 0.0000
 IR Inten    --     0.5082                 0.8875               107.1237
 Raman Activ --     0.0000                 0.0000                 0.0000
 Depolar     --     0.0000                 0.0000                 0.0000
 Atom AN      X      Y      Z        X      Y      Z        X      Y      Z
   1   6     0.05   0.05  -0.05     0.16   0.09   0.10     0.00  -0.00   0.00
   2   6    -0.08  -0.19  -0.14     0.07   0.04   0.06    -0.00   0.00   0.00
   3   6     0.00  -0.02   0.03    -0.02   0.01  -0.05     0.00   0.01  -0.00
   4   6     0.03  -0.01  -0.01    -0.01   0.01   0.00     0.02  -0.17  -0.20
   5   8     0.00  -0.00   0.00    -0.00   0.00  -0.00    -0.00  -0.02   0.00
   6   1    -0.20  -0.08   0.18    -0.21   0.23   0.22    -0.00   0.00  -0.00
   7   1     0.13  -0.11   0.09     0.13  -0.26  -0.44     0.00   0.00  -0.00
   8   1    -0.18  -0.01  -0.09    -0.57  -0.33  -0.19    -0.00   0.00   0.00
   9   1     0.44   0.42  -0.01    -0.11  -0.08  -0.01     0.01  -0.00  -0.01
  10   1    -0.06   0.33   0.51    -0.01  -0.03  -0.12     0.00   0.00  -0.00
  11   1    -0.02  -0.04  -0.06     0.01   0.05   0.09     0.00  -0.02   0.01
  12   1    -0.00   0.06  -0.06     0.02  -0.08   0.08     0.01  -0.03  -0.03
  13   1    -0.08   0.03  -0.05     0.02  -0.01   0.02    -0.13   0.69   0.66
  14   1    -0.04   0.07   0.05     0.01  -0.02  -0.02     0.07  -0.03   0.04
  15   1    -0.01  -0.02   0.01    -0.00   0.01   0.00    -0.00   0.00   0.00
                     31                     32                     33
                        a                      a                      a 
 Frequencies --  2957.4284              2964.9507              2977.3939
 Red. masses --     1.9313                 1.6672                 1.6413
 Frc consts  --     0.0000                 0.0000                 0.0000
 IR Inten    --    64.0645                58.2536                27.3772
 Raman Activ --     0.0000                 0.0000                 0.0000
 Depolar     --     0.0000                 0.0000                 0.0000
 Atom AN      X      Y      Z        X      Y      Z        X      Y      Z
   1   6    -0.01  -0.00   0.02     0.00   0.00  -0.00    -0.01  -0.00  -0.00
   2   6     0.16   0.01  -0.24    -0.01   0.00   0.01     0.09   0.13   0.04
   3   6     0.00  -0.01   0.01     0.01   0.02  -0.02     0.01  -0.17   0.02
   4   6     0.01  -0.00   0.01     0.18  -0.03   0.16     0.01  -0.01   0.01
   5   8    -0.00  -0.00   0.00    -0.00  -0.01   0.00    -0.00  -0.00   0.00
   6   1    -0.02  -0.00  -0.02     0.00   0.00   0.00     0.03  -0.00   0.03
   7   1     0.03   0.03  -0.00    -0.00  -0.00   0.00     0.02   0.03  -0.01
   8   1     0.03  -0.02  -0.06    -0.00   0.00   0.01     0.00  -0.00  -0.01
   9   1    -0.25   0.27   0.74     0.01  -0.01  -0.03     0.15  -0.11  -0.38
  10   1    -0.34  -0.30   0.12     0.01   0.01  -0.00    -0.48  -0.39   0.22
  11   1     0.00   0.08  -0.04     0.00  -0.12   0.06     0.00   0.46  -0.23
  12   1     0.01  -0.03  -0.03    -0.01   0.04   0.03    -0.03   0.16   0.18
  13   1    -0.00   0.01   0.01     0.02   0.06   0.09     0.00   0.02   0.02
  14   1    -0.04   0.00  -0.04    -0.67   0.07  -0.68    -0.04   0.00  -0.04
  15   1    -0.00  -0.00   0.00     0.01  -0.00   0.01     0.00   0.00   0.00
                     34                     35                     36
                        a                      a                      a 
 Frequencies --  2988.0624              2997.4911              3025.5849
 Red. masses --     1.8515                 1.5245                 1.9452
 Frc consts  --     0.0000                 0.0000                 0.0000
 IR Inten    --   113.8021                62.5284                89.6891
 Raman Activ --     0.0000                 0.0000                 0.0000
 Depolar     --     0.0000                 0.0000                 0.0000
 Atom AN      X      Y      Z        X      Y      Z        X      Y      Z
   1   6     0.02   0.01   0.01    -0.01   0.00   0.01     0.00   0.02   0.29
   2   6    -0.08  -0.10  -0.02     0.03   0.02  -0.02    -0.01   0.01   0.03
   3   6     0.01  -0.24  -0.02     0.02  -0.02  -0.21    -0.00   0.01   0.01
   4   6     0.01  -0.01   0.00    -0.02  -0.00  -0.03     0.00   0.00   0.00
   5   8    -0.00  -0.00   0.00     0.00   0.00   0.00     0.00  -0.00   0.00
   6   1    -0.05   0.00  -0.05    -0.00   0.00  -0.00    -0.43   0.02  -0.41
   7   1    -0.04  -0.04   0.02     0.01   0.01  -0.00     0.09   0.09   0.02
   8   1     0.01  -0.00  -0.01     0.02  -0.01  -0.04     0.33  -0.19  -0.63
   9   1    -0.09   0.06   0.23    -0.00   0.01   0.01     0.02  -0.02  -0.07
  10   1     0.37   0.30  -0.17    -0.11  -0.09   0.04     0.01   0.01  -0.00
  11   1     0.01   0.52  -0.27    -0.00  -0.50   0.21     0.00  -0.01   0.00
  12   1    -0.06   0.34   0.36    -0.09   0.57   0.53     0.00  -0.03  -0.03
  13   1    -0.00   0.03   0.03    -0.00   0.01   0.00     0.00  -0.00  -0.00
  14   1    -0.04   0.00  -0.04     0.08  -0.01   0.08    -0.00   0.00  -0.00
  15   1     0.00  -0.00   0.00    -0.00  -0.00  -0.00    -0.00   0.00  -0.00
                     37                     38                     39
                        a                      a                      a 
 Frequencies --  3031.8939              3046.2808              3503.2803
 Red. masses --     1.7158                 1.4839                 1.8766
 Frc consts  --     0.0000                 0.0000                 0.0000
 IR Inten    --    66.1975                42.8305                62.0343
 Raman Activ --     0.0000                 0.0000                 0.0000
 Depolar     --     0.0000                 0.0000                 0.0000
 Atom AN      X      Y      Z        X      Y      Z        X      Y      Z
   1   6    -0.25  -0.01  -0.00     0.11   0.18  -0.02    -0.00   0.00  -0.00
   2   6    -0.02  -0.01   0.00     0.01   0.01  -0.00     0.00   0.00  -0.00
   3   6     0.00  -0.01   0.00    -0.00   0.01   0.00    -0.00   0.00  -0.00
   4   6     0.00  -0.00   0.00    -0.00   0.00  -0.00    -0.00   0.00  -0.01
   5   8    -0.00  -0.00  -0.00     0.00  -0.00  -0.00    -0.14   0.02  -0.19
   6   1     0.48  -0.02   0.55     0.14   0.02   0.13    -0.00  -0.00  -0.00
   7   1     0.20   0.20  -0.07    -0.67  -0.59   0.19     0.00   0.00   0.00
   8   1     0.20  -0.15  -0.49     0.15  -0.05  -0.26    -0.00  -0.00  -0.00
   9   1    -0.01   0.00   0.01     0.00  -0.00  -0.01     0.00  -0.00   0.00
  10   1     0.06   0.05  -0.03    -0.04  -0.03   0.02    -0.00  -0.00   0.00
  11   1    -0.00   0.03  -0.01     0.00  -0.01   0.01    -0.00  -0.00   0.00
  12   1    -0.00   0.01   0.01     0.00  -0.01  -0.02    -0.00   0.00   0.00
  13   1    -0.00   0.00   0.00     0.00   0.00  -0.00     0.00  -0.00   0.00
  14   1    -0.00   0.00  -0.00     0.00   0.00   0.00     0.01   0.00   0.01
  15   1     0.00   0.00   0.00     0.00  -0.00   0.00     0.57  -0.08   0.78
