      -----------------------------------------------------------      
     |                   =====================                   |     
     |                           x T B                           |     
     |                   =====================                   |     
     |                         S. Grimme                         |     
     |          Mulliken Center for Theoretical Chemistry        |     
     |                    University of Bonn                     |     
      -----------------------------------------------------------      

   * xtb version 6.7.1 (edcfbbe) compiled by 'albert@albert-system' on 2024-07-22

   xtb is free software: you can redistribute it and/or modify it under
   the terms of the GNU Lesser General Public License as published by
   the Free Software Foundation, either version 3 of the License, or
   (at your option) any later version.
   
   xtb is distributed in the hope that it will be useful,
   but WITHOUT ANY WARRANTY; without even the implied warranty of
   MERCHANTABILITY or FITNESS FOR A PARTICULAR PURPOSE.  See the
   GNU Lesser General Public License for more details.
   
   Cite this work as:
   * C. Bannwarth, E. Caldeweyher, S. Ehlert, A. Hansen, P. Pracht,
     J. Seibert, S. Spicher, S. Grimme, WIREs Comput. Mol. Sci., 2020, 11,
     e01493. DOI: 10.1002/wcms.1493
   
   for GFN2-xTB:
   * C. Bannwarth, S. Ehlert and S. Grimme., J. Chem. Theory Comput., 2019,
     15, 1652-1671. DOI: 10.1021/acs.jctc.8b01176
   for GFN1-xTB:
   * S. Grimme, C. Bannwarth, P. Shushkov, J. Chem. Theory Comput., 2017,
     13, 1989-2009. DOI: 10.1021/acs.jctc.7b00118
   for GFN0-xTB:
   * P. Pracht, E. Caldeweyher, S. Ehlert, S. Grimme, ChemRxiv, 2019, preprint.
     DOI: 10.26434/chemrxiv.8326202.v1
   for GFN-FF:
   * S. Spicher and S. Grimme, Angew. Chem. Int. Ed., 2020, 59, 15665-15673.
     DOI: 10.1002/anie.202004239
   
   for ALPB and GBSA implicit solvation:
   * S. Ehlert, M. Stahn, S. Spicher, S. Grimme, J. Chem. Theory Comput.,
     2021, 17, 4250-4261. DOI: 10.1021/acs.jctc.1c00471
   
   for ddCOSMO and CPCM-X implicit solvation:
   * M. Stahn, S. Ehlert, S. Grimme, J. Phys. Chem. A,
     2023, XX, XXXX-XXXX. DOI: 10.1021/acs.jpca.3c04382
   
   for DFT-D4:
   * E. Caldeweyher, C. Bannwarth and S. Grimme, J. Chem. Phys., 2017,
     147, 034112. DOI: 10.1063/1.4993215
   * E. Caldeweyher, S. Ehlert, A. Hansen, H. Neugebauer, S. Spicher,
     C. Bannwarth and S. Grimme, J. Chem. Phys., 2019, 150, 154122.
     DOI: 10.1063/1.5090222
   * E. Caldeweyher, J.-M. Mewes, S. Ehlert and S. Grimme, Phys. Chem. Chem. Phys.
     2020, 22, 8499-8512. DOI: 10.1039/D0CP00502A
   
   for sTDA-xTB:
   * S. Grimme and C. Bannwarth, J. Chem. Phys., 2016, 145, 054103.
     DOI: 10.1063/1.4959605
   
   in the mass-spec context:
   * V. Asgeirsson, C. Bauer and S. Grimme, Chem. Sci., 2017, 8, 4879.
     DOI: 10.1039/c7sc00601b
   * J. Koopman and S. Grimme, ACS Omega 2019, 4, 12, 15120-15133.
     DOI: 10.1021/acsomega.9b02011
   
   for metadynamics refer to:
   * S. Grimme, J. Chem. Theory Comput., 2019, 155, 2847-2862
     DOI: 10.1021/acs.jctc.9b00143
   
   for SPH calculations refer to:
   * S. Spicher and S. Grimme, J. Chem. Theory Comput., 2021, 17, 1701-1714
     DOI: 10.1021/acs.jctc.0c01306
   
   for ONIOM refer to:
   * C. Plett, A. Katbashev, S. Ehlert, S. Grimme, M. Bursch,
     Phys. Chem. Chem. Phys., 2023, 25, 17860-17868. DOI: 10.1039/D3CP02178E
   
   for DIPRO refer to:
   * J. Kohn, N. Gildemeister, S. Grimme, D. Fazzi, A. Hansen,
     J. Chem. Phys., 2023, just accepted.
   
   for PTB refer to:
   * S. Grimme, M. Mueller, A. Hansen, J. Chem. Phys., 2023, 158, 124111.
     DOI: 10.1063/5.0137838
   
   with help from (in alphabetical order)
   P. Atkinson, C. Bannwarth, F. Bohle, G. Brandenburg, E. Caldeweyher
   M. Checinski, S. Dohm, S. Ehlert, S. Ehrlich, I. Gerasimov, C. Hölzer
   A. Katbashev, J. Kohn, J. Koopman, C. Lavigne, S. Lehtola, F. März, M. Müller,
   F. Musil, H. Neugebauer, J. Pisarek, C. Plett, P. Pracht, F. Pultar,
   J. Seibert, P. Shushkov, S. Spicher, M. Stahn, M. Steiner, T. Strunk,
   J. Stückrath, T. Rose, and J. Unsleber
   
 * started run on 2025/04/06 at 22:34:25.821     
   ID    Z sym.   atoms
    1    6 C      1-4
    2    8 O      5
    3    1 H      6-15

           -------------------------------------------------
          |                Calculation Setup                |
           -------------------------------------------------

          program call               : /srv/scratch/z5358697/.xtb/bin/xtb xtb_rrho.coord --gfn2 --bhess vtight --chrg 0 --enso --norestart -I rrho-xcontrol-inp --parallel 1 --alpb water
          hostname                   : k159
          coordinate file            : xtb_rrho.coord
          omp threads                :                     1


           -------------------------------------------------
          |                 G F N 2 - x T B                 |
           -------------------------------------------------

        Reference                      10.1021/acs.jctc.8b01176
      * Hamiltonian:
        H0-scaling (s, p, d)           1.850000    2.230000    2.230000
        zeta-weighting                 0.500000
      * Dispersion:
        s8                             2.700000
        a1                             0.520000
        a2                             5.000000
        s9                             5.000000
      * Repulsion:
        kExp                           1.500000    1.000000
        rExp                           1.000000
      * Coulomb:
        alpha                          2.000000
        third order                    shell-resolved
        anisotropic                    true
        a3                             3.000000
        a5                             4.000000
        cn-shift                       1.200000
        cn-exp                         4.000000
        max-rad                        5.000000

      * Solvation model:               ALPB
        Solvent                        water
        Parameter file                 internal GFN2-xTB/ALPB
        Dielectric constant                8.0200E+01
        Reference state                gsolv [1 M gas/solution]
        Free energy shift                  1.0808E-03 Eh       6.7819E-01 kcal/mol
        Temperature                        2.9815E+02 K
        Density                            1.0000E+00 kg/L
        Solvent mass                       1.8000E+01 g/mol
        Interaction kernel             P16
        Born radius scaling (c1)           1.4744E+00
        Born radii integrator          GBOBC
        Born offset                        0.0000E+00 a0       0.0000E+00 AA
        H-bond correction              true
        Ion screening                  false
        Surface tension                    1.0000E-05 Eh       1.5569E+01 dyn/cm
        Grid points                               974 per atom

          ...................................................
          :                      SETUP                      :
          :.................................................:
          :  # basis functions                  30          :
          :  # atomic orbitals                  30          :
          :  # shells                           20          :
          :  # electrons                        32          :
          :  max. iterations                   250          :
          :  Hamiltonian                  GFN2-xTB          :
          :  restarted?                      false          :
          :  GBSA solvation                   true          :
          :  PC potential                    false          :
          :  electronic temp.          300.0000000     K    :
          :  accuracy                    1.0000000          :
          :  -> integral cutoff          0.2500000E+02      :
          :  -> integral neglect         0.1000000E-07      :
          :  -> SCF convergence          0.1000000E-05 Eh   :
          :  -> wf. convergence          0.1000000E-03 e    :
          :  Broyden damping             0.4000000          :
          :  net charge                          0          :
          :  unpaired electrons                  0          :
          ...................................................

 iter      E             dE          RMSdq      gap      omega  full diag
   1    -17.9030227 -0.179030E+02  0.328E+00   12.01       0.0  T
   2    -17.9289374 -0.259147E-01  0.171E+00   11.83       1.0  T
   3    -17.9296742 -0.736784E-03  0.619E-01   11.83       1.0  T
   4    -17.9298141 -0.139887E-03  0.114E-01   11.80       1.0  T
   5    -17.9298304 -0.163140E-04  0.624E-02   11.82       1.0  T
   6    -17.9298327 -0.237797E-05  0.122E-02   11.82       2.1  T
   7    -17.9298330 -0.248521E-06  0.548E-03   11.82       4.7  T
   8    -17.9298330 -0.520455E-07  0.208E-03   11.82      12.4  T
   9    -17.9298331 -0.469221E-08  0.563E-04   11.82      45.9  T
  10    -17.9298331 -0.925553E-09  0.180E-04   11.82     143.8  T

   *** convergence criteria satisfied after 10 iterations ***

         #    Occupation            Energy/Eh            Energy/eV
      -------------------------------------------------------------
         1        2.0000           -0.6839900             -18.6123
       ...           ...                  ...                  ...
        10        2.0000           -0.4891348             -13.3100
        11        2.0000           -0.4732770             -12.8785
        12        2.0000           -0.4572523             -12.4425
        13        2.0000           -0.4389155             -11.9435
        14        2.0000           -0.4330521             -11.7839
        15        2.0000           -0.4249522             -11.5635
        16        2.0000           -0.4081551             -11.1065 (HOMO)
        17                          0.0262024               0.7130 (LUMO)
        18                          0.0756019               2.0572
        19                          0.0976935               2.6584
        20                          0.1174774               3.1967
        21                          0.1324278               3.6035
       ...                                ...                  ...
        30                          0.3021079               8.2208
      -------------------------------------------------------------
                  HL-Gap            0.4343575 Eh           11.8195 eV
             Fermi-level           -0.1909764 Eh           -5.1967 eV

 SCC (total)                   0 d,  0 h,  0 min,  0.013 sec
 SCC setup                      ...        0 min,  0.001 sec (  5.448%)
 Dispersion                     ...        0 min,  0.000 sec (  0.413%)
 classical contributions        ...        0 min,  0.000 sec (  0.100%)
 integral evaluation            ...        0 min,  0.001 sec (  5.541%)
 iterations                     ...        0 min,  0.009 sec ( 72.466%)
 molecular gradient             ...        0 min,  0.002 sec ( 15.212%)
 printout                       ...        0 min,  0.000 sec (  0.733%)

         :::::::::::::::::::::::::::::::::::::::::::::::::::::
         ::                     SUMMARY                     ::
         :::::::::::::::::::::::::::::::::::::::::::::::::::::
         :: total energy             -17.723930292831 Eh    ::
         :: total w/o Gsasa/hb       -17.721990544585 Eh    ::
         :: gradient norm              0.026978056106 Eh/a0 ::
         :: HOMO-LUMO gap             11.819468660947 eV    ::
         ::.................................................::
         :: SCC energy               -17.929820322183 Eh    ::
         :: -> isotropic ES            0.034930929959 Eh    ::
         :: -> anisotropic ES          0.003924926634 Eh    ::
         :: -> anisotropic XC          0.006679999861 Eh    ::
         :: -> dispersion             -0.007306715093 Eh    ::
         :: -> Gsolv                  -0.006518668575 Eh    ::
         ::    -> Gelec               -0.004578920329 Eh    ::
         ::    -> Gsasa                0.000744362036 Eh    ::
         ::    -> Ghb                 -0.003764869981 Eh    ::
         ::    -> Gshift               0.001080759698 Eh    ::
         :: repulsion energy           0.205890029352 Eh    ::
         :: add. restraining           0.000000000000 Eh    ::
         :: total charge               0.000000000000 e     ::
         :::::::::::::::::::::::::::::::::::::::::::::::::::::

metadynamics with 1 initial structures loaded
           -------------------------------------------------
          |           Optimal kpush determination           |
           -------------------------------------------------
      ----------------------------------------------------------- 
     |                   =====================                   |
     |                        A N C O P T                        |
     |                   =====================                   |
     |               Approximate Normal Coordinate               |
     |                Rational Function Optimizer                |
      ----------------------------------------------------------- 
target rmsd / Å         0.100000
unbiased initial rmsd   0.078886
 
iter. min.        max.        rmsd       kpush
final kpush:  0.000000
           -------------------------------------------------
          |            Biased Numerical Hessian             |
           -------------------------------------------------
kpush                :   0.00000
alpha                :   1.00000
step length          :   0.00500
SCC accuracy         :   0.30000
Hessian scale factor :   1.00000
frozen atoms in %    :   0.00000    0
RMS gradient         :   0.00005
estimated CPU  time      0.01 min
estimated wall time      0.01 min

writing file <hessian>.

 projected vibrational frequencies (cm⁻¹)
eigval :       -0.00    -0.00    -0.00    -0.00     0.00     0.00
eigval :       96.25   105.98   200.00   277.18   351.42   382.90
eigval :      475.66   796.49   860.68   870.45   969.53   987.78
eigval :     1054.55  1092.04  1115.88  1136.12  1187.89  1220.33
eigval :     1262.62  1306.46  1329.11  1347.81  1354.22  1415.09
eigval :     1467.35  1473.74  1495.29  1497.67  1509.25  2876.81
eigval :     2957.43  2964.95  2977.39  2988.06  2997.49  3025.58
eigval :     3031.89  3046.28  3503.28
           -------------------------------------------------
          |                Property Printout                |
           -------------------------------------------------

    * Orbital Energies and Occupations

         #    Occupation            Energy/Eh            Energy/eV
      -------------------------------------------------------------
         1        2.0000           -0.6876178             -18.7110
       ...           ...                  ...                  ...
         4        2.0000           -0.5866521             -15.9636
         5        2.0000           -0.5605583             -15.2536
         6        2.0000           -0.5573872             -15.1673
         7        2.0000           -0.5283555             -14.3773
         8        2.0000           -0.5116384             -13.9224
         9        2.0000           -0.4911973             -13.3662
        10        2.0000           -0.4887164             -13.2987
        11        2.0000           -0.4739691             -12.8974
        12        2.0000           -0.4570778             -12.4377
        13        2.0000           -0.4387879             -11.9400
        14        2.0000           -0.4324823             -11.7684
        15        2.0000           -0.4245476             -11.5525
        16        2.0000           -0.4064514             -11.0601 (HOMO)
        17                          0.0505190               1.3747 (LUMO)
        18                          0.0830041               2.2587
        19                          0.1032560               2.8097
        20                          0.1263018               3.4368
        21                          0.1346286               3.6634
        22                          0.1498469               4.0775
        23                          0.1670023               4.5444
        24                          0.1844817               5.0200
        25                          0.1952980               5.3143
        26                          0.2241608               6.0997
        27                          0.2503396               6.8121
       ...                                ...                  ...
        30                          0.3152471               8.5783
      -------------------------------------------------------------
                  HL-Gap            0.4569704 Eh           12.4348 eV
             Fermi-level           -0.1779662 Eh           -4.8427 eV

     #   Z          covCN         q      C6AA      α(0)
     1   6 C        3.751    -0.113    22.722     6.798
     2   6 C        3.799    -0.058    21.623     6.621
     3   6 C        3.799    -0.079    22.014     6.680
     4   6 C        3.673     0.079    19.483     6.326
     5   8 O        1.654    -0.509    23.078     6.485
     6   1 H        0.925     0.037     2.488     2.467
     7   1 H        0.925     0.044     2.390     2.418
     8   1 H        0.925     0.036     2.498     2.472
     9   1 H        0.924     0.035     2.523     2.484
    10   1 H        0.924     0.035     2.513     2.479
    11   1 H        0.924     0.040     2.448     2.447
    12   1 H        0.924     0.050     2.319     2.381
    13   1 H        0.923     0.021     2.720     2.579
    14   1 H        0.924     0.040     2.443     2.444
    15   1 H        0.805     0.341     0.611     1.228

 Mol. C6AA /au·bohr⁶  :       1459.175973
 Mol. C8AA /au·bohr⁸  :      29880.581572
 Mol. α(0) /au        :         56.308843


Wiberg/Mayer (AO) data.
largest (>0.10) Wiberg bond orders for each atom

 ---------------------------------------------------------------------------
     #   Z sym  total        # sym  WBO       # sym  WBO       # sym  WBO
 ---------------------------------------------------------------------------
     1   6 C    3.996 --     2 C    1.020     8 H    0.988     6 H    0.987
                             7 H    0.984
     2   6 C    3.997 --     1 C    1.020     3 C    1.005    10 H    0.980
                             9 H    0.977
     3   6 C    3.995 --     2 C    1.005     4 C    0.998    11 H    0.977
                            12 H    0.976
     4   6 C    3.952 --     3 C    0.998     5 O    0.993    14 H    0.974
                            13 H    0.972
     5   8 O    1.921 --     4 C    0.993    15 H    0.867
     6   1 H    0.999 --     1 C    0.987
     7   1 H    0.998 --     1 C    0.984
     8   1 H    0.999 --     1 C    0.988
     9   1 H    0.999 --     2 C    0.977
    10   1 H    0.999 --     2 C    0.980
    11   1 H    0.998 --     3 C    0.977
    12   1 H    0.997 --     3 C    0.976
    13   1 H    1.000 --     4 C    0.972
    14   1 H    0.998 --     4 C    0.974
    15   1 H    0.884 --     5 O    0.867
 ---------------------------------------------------------------------------

Topologies differ in total number of bonds
Writing topology from bond orders to xtbtopo.mol

molecular dipole:
                 x           y           z       tot (Debye)
 q only:        0.545       0.369       0.221
   full:        0.641       0.483       0.305       2.182
molecular quadrupole (traceless):
                xx          xy          yy          xz          yz          zz
 q only:       -2.881      -2.492       0.264       0.133      -1.174       2.617
  q+dip:       -3.515      -3.134      -0.496      -0.005      -0.400       4.010
   full:       -3.567      -3.190      -0.176       0.172      -0.922       3.743

           -------------------------------------------------
          |                Geometry Summary                 |
           -------------------------------------------------

      molecular mass/u    :       74.1217560
   center of mass at/Å    :       -0.0003399      -0.0007966      -0.0023761
  moments of inertia/u·Å² :        0.6507370E+02   0.1534306E+03   0.1932274E+03
rotational constants/cm⁻¹ :        0.2590545E+00   0.1098714E+00   0.8724247E-01

 * 14 selected distances

     #   Z          #   Z                                           value/Å
     1   6 C        2   6 C                                       1.5267158
     2   6 C        3   6 C                                       1.5346131 (max)
     3   6 C        4   6 C                                       1.5322454
     4   6 C        5   8 O                                       1.4129139
     1   6 C        6   1 H                                       1.0876559
     1   6 C        7   1 H                                       1.0866826
     1   6 C        8   1 H                                       1.0879418
     2   6 C        9   1 H                                       1.0927408
     2   6 C       10   1 H                                       1.0916142
     3   6 C       11   1 H                                       1.0907725
     3   6 C       12   1 H                                       1.0909559
     4   6 C       13   1 H                                       1.0984896
     4   6 C       14   1 H                                       1.0932369
     5   8 O       15   1 H                                       0.9667104 (min)

 * 4 distinct bonds (by element types)

   Z      Z             #   av. dist./Å        max./Å        min./Å
   1 H    6 C           9     1.0911212     1.0984896     1.0866826
   6 C    6 C           3     1.5311914     1.5346131     1.5267158
   1 H    8 O           1     0.9667104     0.9667104     0.9667104
   6 C    8 O           1     1.4129139     1.4129139     1.4129139

           -------------------------------------------------
          |               Frequency Printout                |
           -------------------------------------------------
 projected vibrational frequencies (cm⁻¹)
eigval :       -0.00    -0.00    -0.00    -0.00     0.00     0.00
eigval :       96.25   105.98   200.00   277.18   351.42   382.90
eigval :      475.66   796.49   860.68   870.45   969.53   987.78
eigval :     1054.55  1092.04  1115.88  1136.12  1187.89  1220.33
eigval :     1262.62  1306.46  1329.11  1347.81  1354.22  1415.09
eigval :     1467.35  1473.74  1495.29  1497.67  1509.25  2876.81
eigval :     2957.43  2964.95  2977.39  2988.06  2997.49  3025.58
eigval :     3031.89  3046.28  3503.28
 reduced masses (amu)
   1: 12.59   2: 10.85   3: 10.62   4: 10.15   5: 10.17   6: 10.24   7:  8.24   8:  9.05
   9:  2.02  10:  6.84  11:  5.39  12:  6.85  13:  7.38  14:  4.06  15:  6.05  16:  5.85
  17:  5.15  18:  7.75  19:  8.22  20:  3.66  21:  7.93  22:  7.84  23:  5.40  24:  3.21
  25:  2.65  26:  2.88  27:  3.83  28:  3.35  29:  4.91  30:  3.13  31:  1.88  32:  1.85
  33:  1.55  34:  1.80  35:  1.63  36:  1.75  37:  1.93  38:  1.67  39:  1.64  40:  1.85
  41:  1.52  42:  1.95  43:  1.72  44:  1.48  45:  1.88
 IR intensities (km·mol⁻¹)
   1:  1.21   2:  1.16   3:  0.25   4:  0.57   5:  0.07   6:  0.09   7:  4.68   8: 10.56
   9:  1.53  10: 38.24  11: 85.15  12:121.39  13:  1.02  14:  3.18  15: 15.86  16: 10.04
  17: 39.77  18: 16.73  19: 62.70  20: 54.78  21:  8.40  22: 21.55  23: 20.17  24: 11.64
  25:  0.62  26: 41.67  27:  7.30  28: 52.40  29:  1.56  30:  0.88  31:  1.38  32:  1.38
  33:  0.67  34:  0.51  35:  0.89  36:107.12  37: 64.06  38: 58.25  39: 27.38  40:113.80
  41: 62.53  42: 89.69  43: 66.20  44: 42.83  45: 62.03
 Raman intensities (Ä⁴*amu⁻¹)
   1:  0.00   2:  0.00   3:  0.00   4:  0.00   5:  0.00   6:  0.00   7:  0.00   8:  0.00
   9:  0.00  10:  0.00  11:  0.00  12:  0.00  13:  0.00  14:  0.00  15:  0.00  16:  0.00
  17:  0.00  18:  0.00  19:  0.00  20:  0.00  21:  0.00  22:  0.00  23:  0.00  24:  0.00
  25:  0.00  26:  0.00  27:  0.00  28:  0.00  29:  0.00  30:  0.00  31:  0.00  32:  0.00
  33:  0.00  34:  0.00  35:  0.00  36:  0.00  37:  0.00  38:  0.00  39:  0.00  40:  0.00
  41:  0.00  42:  0.00  43:  0.00  44:  0.00  45:  0.00
 output can be read by thermo (or use thermo option).
 writing <g98.out> molden fake output.
 recommended (thermochemical) frequency scaling factor: 1.0
           -------------------------------------------------
          |             Thermodynamic Functions             |
           -------------------------------------------------

Molecule has no symmetry elements
It seems to be the C1 point group
c1  symmetry found (for desy threshold:  0.10E+00) used in thermo

          ...................................................
          :                      SETUP                      :
          :.................................................:
          :  # frequencies                          39      :
          :  # imaginary freq.                       0      :
          :  linear?                             false      :
          :  only rotor calc.                    false      :
          :  symmetry                               c1      :
          :  rotational number                       1      :
          :  scaling factor                  1.0000000      :
          :  rotor cutoff                    0.0000000 cm⁻¹ :
          :  imag. cutoff                 -100.0000000 cm⁻¹ :
          :.................................................:

    mode    ω/cm⁻¹     T·S(HO)/kcal·mol⁻¹    T·S(FR)/kcal·mol⁻¹   T·S(vib)
   ------------------------------------------------------------------------
       1     96.25    -1.05211 (100.00%)    -0.86215 (  0.00%)    -1.05211
       2    105.98    -0.99619 (100.00%)    -0.83366 (  0.00%)    -0.99619
       3    200.00    -0.63599 (100.00%)    -0.64569 (  0.00%)    -0.63599
       4    277.18    -0.46243 (100.00%)    -0.54906 (  0.00%)    -0.46243
   ------------------------------------------------------------------------

   temp. (K)  partition function   enthalpy   heat capacity  entropy
                                   cal/mol     cal/K/mol   cal/K/mol   J/K/mol
 298.15  VIB   26.6                 2450.499     17.111     14.737
         ROT  0.106E+06              888.752      2.981     25.978
         INT  0.282E+07             3339.251     20.092     40.715
         TR   0.617E+27             1481.254      4.968     38.808
         TOT                        4820.5052    25.0605    79.5227   332.7232

       T/K    H(0)-H(T)+PV         H(T)/Eh          T*S/Eh         G(T)/Eh
   ------------------------------------------------------------------------
    298.15    0.768196E-02    0.142114E+00    0.377838E-01    0.104330E+00
   ------------------------------------------------------------------------

         :::::::::::::::::::::::::::::::::::::::::::::::::::::
         ::                  THERMODYNAMIC                  ::
         :::::::::::::::::::::::::::::::::::::::::::::::::::::
         :: total free energy         -17.620721774182 Eh   ::
         ::.................................................::
         :: total energy              -17.725052110332 Eh   ::
         :: zero point energy           0.134432195863 Eh   ::
         :: G(RRHO) w/o ZPVE           -0.030101859713 Eh   ::
         :: G(RRHO) contrib.            0.104330336150 Eh   ::
         :::::::::::::::::::::::::::::::::::::::::::::::::::::

optimized geometry written to: xtbopt.coord


           -------------------------------------------------
          | TOTAL ENERGY              -17.725052110332 Eh   |
          | TOTAL ENTHALPY            -17.582937950480 Eh   |
          | TOTAL FREE ENERGY         -17.620721774182 Eh   |
          | GRADIENT NORM               0.000052707331 Eh/α |
          | HOMO-LUMO GAP              12.434798709755 eV   |
           -------------------------------------------------

------------------------------------------------------------------------
 * finished run on 2025/04/06 at 22:34:26.387     
------------------------------------------------------------------------
 total:
 * wall-time:     0 d,  0 h,  0 min,  0.566 sec
 *  cpu-time:     0 d,  0 h,  0 min,  0.504 sec
 * ratio c/w:     0.891 speedup
 SCF:
 * wall-time:     0 d,  0 h,  0 min,  0.013 sec
 *  cpu-time:     0 d,  0 h,  0 min,  0.007 sec
 * ratio c/w:     0.533 speedup
 analytical hessian:
 * wall-time:     0 d,  0 h,  0 min,  0.419 sec
 *  cpu-time:     0 d,  0 h,  0 min,  0.410 sec
 * ratio c/w:     0.979 speedup

