15
 xtb: 6.7.1 (edcfbbe)
C            1.92558684250499        0.58470482002435        0.31331307813352
C            1.02312516992262       -0.16562553432741       -0.65094835098394
O           -0.00006029310562       -0.94041629101552        0.00055139557740
C           -1.02309138693791       -0.16475067723162        0.65125260720801
C           -1.92554101092756        0.58458023691400       -0.31379490009626
H            2.74644923019933        1.04305990832744       -0.24827797999106
H            1.39807589846898        1.38514510736596        0.83971212557851
H            2.35653298064491       -0.09861310522102        1.05249556586384
H            1.60815196351383       -0.89965024388963       -1.21419883501385
H            0.57427458397293        0.52540076181337       -1.37734376780523
H           -1.60815794089015       -0.89805449865019        1.21540038690778
H           -0.57408246572283        0.52705303349756        1.37680333713262
H           -2.74627636151274        1.04372142879504        0.24733928995492
H           -1.39796210388125        1.38431761224298       -0.84119464019533
H           -2.35666948982076       -0.09954040635821       -1.05212761361614
