! r2scan-3c def2/J RI DEFGRID2 scfconv6 printgap
%output
    printlevel normal
end
* xyz 0 1
C 2.4841165233 -3.09027e-05 -0.0798522825
C 1.0143188991 -7.7977e-05 0.3320022174
C 0.3011542533 1.2493904912 -0.1875152541
C -1.1686176498 1.2520097964 0.2232297882
C -1.8705695694 -4.00276e-05 -0.2938435545
C -1.1685795743 -1.251947952 0.2234713977
C 0.3010354578 -1.2493584402 -0.1877731026
H 2.9891730111 -0.8826805971 0.3056896675
H 2.5736818873 0.0004309488 -1.1642587466
H 2.9894188588 0.8823972481 0.3061946267
H 0.9584240025 -0.0001974614 1.4269913228
H 0.7951469751 2.1432188602 0.1999642605
H 0.3723941785 1.2746050567 -1.2776495199
H -1.2396233974 1.281789404 1.313152536
H -1.6612940358 2.1442733431 -0.1686012139
H -2.9153065461 -1.1266e-05 0.0236020251
H -1.8516561067 -0.0001485855 -1.3861251857
H -1.2391462404 -1.2812231305 1.3134426445
H -1.6614428411 -2.1443611311 -0.1677818997
H 0.7951329608 -2.1433520124 0.1991626444
H 0.3718891176 -1.2740851077 -1.2779427296
*
