! r2scan-3c def2/J RI DEFGRID2 scfconv6 printgap
%output
    printlevel normal
end
%cpcm
    smd true
    smdsolvent "water"
end
* xyz 0 1
C 0.0002189625 0.0004739288 0.5226544332
Br 0.3852240127 -1.8225247471 -0.0329712852
Br 1.3864403176 1.2446958042 -0.032995888
Br -1.7716975477 0.5777601073 -0.0329799331
H 2.40961e-05 -0.0001905161 1.6159268241
*
