      -----------------------------------------------------------      
     |                   =====================                   |     
     |                           x T B                           |     
     |                   =====================                   |     
     |                         S. Grimme                         |     
     |          Mulliken Center for Theoretical Chemistry        |     
     |                    University of Bonn                     |     
      -----------------------------------------------------------      

   * xtb version 6.7.1 (edcfbbe) compiled by 'albert@albert-system' on 2024-07-22

   xtb is free software: you can redistribute it and/or modify it under
   the terms of the GNU Lesser General Public License as published by
   the Free Software Foundation, either version 3 of the License, or
   (at your option) any later version.
   
   xtb is distributed in the hope that it will be useful,
   but WITHOUT ANY WARRANTY; without even the implied warranty of
   MERCHANTABILITY or FITNESS FOR A PARTICULAR PURPOSE.  See the
   GNU Lesser General Public License for more details.
   
   Cite this work as:
   * C. Bannwarth, E. Caldeweyher, S. Ehlert, A. Hansen, P. Pracht,
     J. Seibert, S. Spicher, S. Grimme, WIREs Comput. Mol. Sci., 2020, 11,
     e01493. DOI: 10.1002/wcms.1493
   
   for GFN2-xTB:
   * C. Bannwarth, S. Ehlert and S. Grimme., J. Chem. Theory Comput., 2019,
     15, 1652-1671. DOI: 10.1021/acs.jctc.8b01176
   for GFN1-xTB:
   * S. Grimme, C. Bannwarth, P. Shushkov, J. Chem. Theory Comput., 2017,
     13, 1989-2009. DOI: 10.1021/acs.jctc.7b00118
   for GFN0-xTB:
   * P. Pracht, E. Caldeweyher, S. Ehlert, S. Grimme, ChemRxiv, 2019, preprint.
     DOI: 10.26434/chemrxiv.8326202.v1
   for GFN-FF:
   * S. Spicher and S. Grimme, Angew. Chem. Int. Ed., 2020, 59, 15665-15673.
     DOI: 10.1002/anie.202004239
   
   for ALPB and GBSA implicit solvation:
   * S. Ehlert, M. Stahn, S. Spicher, S. Grimme, J. Chem. Theory Comput.,
     2021, 17, 4250-4261. DOI: 10.1021/acs.jctc.1c00471
   
   for ddCOSMO and CPCM-X implicit solvation:
   * M. Stahn, S. Ehlert, S. Grimme, J. Phys. Chem. A,
     2023, XX, XXXX-XXXX. DOI: 10.1021/acs.jpca.3c04382
   
   for DFT-D4:
   * E. Caldeweyher, C. Bannwarth and S. Grimme, J. Chem. Phys., 2017,
     147, 034112. DOI: 10.1063/1.4993215
   * E. Caldeweyher, S. Ehlert, A. Hansen, H. Neugebauer, S. Spicher,
     C. Bannwarth and S. Grimme, J. Chem. Phys., 2019, 150, 154122.
     DOI: 10.1063/1.5090222
   * E. Caldeweyher, J.-M. Mewes, S. Ehlert and S. Grimme, Phys. Chem. Chem. Phys.
     2020, 22, 8499-8512. DOI: 10.1039/D0CP00502A
   
   for sTDA-xTB:
   * S. Grimme and C. Bannwarth, J. Chem. Phys., 2016, 145, 054103.
     DOI: 10.1063/1.4959605
   
   in the mass-spec context:
   * V. Asgeirsson, C. Bauer and S. Grimme, Chem. Sci., 2017, 8, 4879.
     DOI: 10.1039/c7sc00601b
   * J. Koopman and S. Grimme, ACS Omega 2019, 4, 12, 15120-15133.
     DOI: 10.1021/acsomega.9b02011
   
   for metadynamics refer to:
   * S. Grimme, J. Chem. Theory Comput., 2019, 155, 2847-2862
     DOI: 10.1021/acs.jctc.9b00143
   
   for SPH calculations refer to:
   * S. Spicher and S. Grimme, J. Chem. Theory Comput., 2021, 17, 1701-1714
     DOI: 10.1021/acs.jctc.0c01306
   
   for ONIOM refer to:
   * C. Plett, A. Katbashev, S. Ehlert, S. Grimme, M. Bursch,
     Phys. Chem. Chem. Phys., 2023, 25, 17860-17868. DOI: 10.1039/D3CP02178E
   
   for DIPRO refer to:
   * J. Kohn, N. Gildemeister, S. Grimme, D. Fazzi, A. Hansen,
     J. Chem. Phys., 2023, just accepted.
   
   for PTB refer to:
   * S. Grimme, M. Mueller, A. Hansen, J. Chem. Phys., 2023, 158, 124111.
     DOI: 10.1063/5.0137838
   
   with help from (in alphabetical order)
   P. Atkinson, C. Bannwarth, F. Bohle, G. Brandenburg, E. Caldeweyher
   M. Checinski, S. Dohm, S. Ehlert, S. Ehrlich, I. Gerasimov, C. Hölzer
   A. Katbashev, J. Kohn, J. Koopman, C. Lavigne, S. Lehtola, F. März, M. Müller,
   F. Musil, H. Neugebauer, J. Pisarek, C. Plett, P. Pracht, F. Pultar,
   J. Seibert, P. Shushkov, S. Spicher, M. Stahn, M. Steiner, T. Strunk,
   J. Stückrath, T. Rose, and J. Unsleber
   
 * started run on 2025/04/07 at 02:42:52.452     
   ID    Z sym.   atoms
    1    6 C      1, 2, 4, 5
    2    8 O      3
    3    1 H      6-15

           -------------------------------------------------
          |                Calculation Setup                |
           -------------------------------------------------

          program call               : /srv/scratch/z5358697/.xtb/bin/xtb gas.coord --gfn2 --sp --chrg 0 --norestart --parallel 1
          hostname                   : k140
          coordinate file            : gas.coord
          omp threads                :                     1


           -------------------------------------------------
          |                 G F N 2 - x T B                 |
           -------------------------------------------------

        Reference                      10.1021/acs.jctc.8b01176
      * Hamiltonian:
        H0-scaling (s, p, d)           1.850000    2.230000    2.230000
        zeta-weighting                 0.500000
      * Dispersion:
        s8                             2.700000
        a1                             0.520000
        a2                             5.000000
        s9                             5.000000
      * Repulsion:
        kExp                           1.500000    1.000000
        rExp                           1.000000
      * Coulomb:
        alpha                          2.000000
        third order                    shell-resolved
        anisotropic                    true
        a3                             3.000000
        a5                             4.000000
        cn-shift                       1.200000
        cn-exp                         4.000000
        max-rad                        5.000000


          ...................................................
          :                      SETUP                      :
          :.................................................:
          :  # basis functions                  30          :
          :  # atomic orbitals                  30          :
          :  # shells                           20          :
          :  # electrons                        32          :
          :  max. iterations                   250          :
          :  Hamiltonian                  GFN2-xTB          :
          :  restarted?                      false          :
          :  GBSA solvation                  false          :
          :  PC potential                    false          :
          :  electronic temp.          300.0000000     K    :
          :  accuracy                    1.0000000          :
          :  -> integral cutoff          0.2500000E+02      :
          :  -> integral neglect         0.1000000E-07      :
          :  -> SCF convergence          0.1000000E-05 Eh   :
          :  -> wf. convergence          0.1000000E-03 e    :
          :  Broyden damping             0.4000000          :
          :  net charge                          0          :
          :  unpaired electrons                  0          :
          ...................................................

 iter      E             dE          RMSdq      gap      omega  full diag
   1    -17.8799994 -0.178800E+02  0.362E+00   11.55       0.0  T
   2    -17.9279791 -0.479797E-01  0.184E+00   11.09       1.0  T
   3    -17.9285585 -0.579418E-03  0.848E-01   11.21       1.0  T
   4    -17.9287569 -0.198458E-03  0.119E-01   11.23       1.0  T
   5    -17.9287845 -0.275450E-04  0.661E-02   11.25       1.0  T
   6    -17.9287853 -0.836572E-06  0.556E-03   11.25       4.6  T
   7    -17.9287853 -0.207352E-07  0.248E-03   11.25      10.4  T
   8    -17.9287854 -0.551171E-08  0.544E-04   11.26      47.5  T
   9    -17.9287854 -0.353349E-09  0.837E-05   11.26     308.5  T

   *** convergence criteria satisfied after 9 iterations ***

         #    Occupation            Energy/Eh            Energy/eV
      -------------------------------------------------------------
         1        2.0000           -0.6884192             -18.7328
       ...           ...                  ...                  ...
        10        2.0000           -0.4812715             -13.0961
        11        2.0000           -0.4778087             -13.0018
        12        2.0000           -0.4726066             -12.8603
        13        2.0000           -0.4571050             -12.4385
        14        2.0000           -0.4326274             -11.7724
        15        2.0000           -0.4324896             -11.7686
        16        2.0000           -0.3942954             -10.7293 (HOMO)
        17                          0.0193235               0.5258 (LUMO)
        18                          0.0948442               2.5808
        19                          0.1138686               3.0985
        20                          0.1249328               3.3996
        21                          0.1255136               3.4154
       ...                                ...                  ...
        30                          0.3254458               8.8558
      -------------------------------------------------------------
                  HL-Gap            0.4136189 Eh           11.2551 eV
             Fermi-level           -0.1874859 Eh           -5.1018 eV

 SCC (total)                   0 d,  0 h,  0 min,  0.014 sec
 SCC setup                      ...        0 min,  0.000 sec (  0.955%)
 Dispersion                     ...        0 min,  0.000 sec (  0.394%)
 classical contributions        ...        0 min,  0.000 sec (  0.104%)
 integral evaluation            ...        0 min,  0.001 sec (  6.511%)
 iterations                     ...        0 min,  0.011 sec ( 78.217%)
 molecular gradient             ...        0 min,  0.002 sec ( 13.023%)
 printout                       ...        0 min,  0.000 sec (  0.719%)

         :::::::::::::::::::::::::::::::::::::::::::::::::::::
         ::                     SUMMARY                     ::
         :::::::::::::::::::::::::::::::::::::::::::::::::::::
         :: total energy             -17.719288034450 Eh    ::
         :: gradient norm              0.008896062781 Eh/a0 ::
         :: HOMO-LUMO gap             11.255142124838 eV    ::
         ::.................................................::
         :: SCC energy               -17.928771964186 Eh    ::
         :: -> isotropic ES            0.021226215835 Eh    ::
         :: -> anisotropic ES          0.004075836964 Eh    ::
         :: -> anisotropic XC          0.005766419863 Eh    ::
         :: -> dispersion             -0.007265816338 Eh    ::
         :: repulsion energy           0.209483929736 Eh    ::
         :: add. restraining           0.000000000000 Eh    ::
         :: total charge               0.000000000000 e     ::
         :::::::::::::::::::::::::::::::::::::::::::::::::::::

           -------------------------------------------------
          |                Property Printout                |
           -------------------------------------------------

    * Orbital Energies and Occupations

         #    Occupation            Energy/Eh            Energy/eV
      -------------------------------------------------------------
         1        2.0000           -0.6884192             -18.7328
       ...           ...                  ...                  ...
         4        2.0000           -0.5898858             -16.0516
         5        2.0000           -0.5785682             -15.7436
         6        2.0000           -0.5443207             -14.8117
         7        2.0000           -0.5350027             -14.5582
         8        2.0000           -0.5222677             -14.2116
         9        2.0000           -0.4944550             -13.4548
        10        2.0000           -0.4812715             -13.0961
        11        2.0000           -0.4778087             -13.0018
        12        2.0000           -0.4726066             -12.8603
        13        2.0000           -0.4571050             -12.4385
        14        2.0000           -0.4326274             -11.7724
        15        2.0000           -0.4324896             -11.7686
        16        2.0000           -0.3942954             -10.7293 (HOMO)
        17                          0.0193235               0.5258 (LUMO)
        18                          0.0948442               2.5808
        19                          0.1138686               3.0985
        20                          0.1249328               3.3996
        21                          0.1255136               3.4154
        22                          0.1526882               4.1549
        23                          0.1768904               4.8134
        24                          0.1787158               4.8631
        25                          0.1875408               5.1032
        26                          0.2206309               6.0037
        27                          0.2402995               6.5389
       ...                                ...                  ...
        30                          0.3254458               8.8558
      -------------------------------------------------------------
                  HL-Gap            0.4136189 Eh           11.2551 eV
             Fermi-level           -0.1874859 Eh           -5.1018 eV

     #   Z          covCN         q      C6AA      α(0)
     1   6 C        3.750    -0.114    22.746     6.802
     2   6 C        3.684     0.084    19.372     6.302
     3   8 O        1.699    -0.328    19.497     5.962
     4   6 C        3.684     0.084    19.372     6.302
     5   6 C        3.750    -0.114    22.747     6.802
     6   1 H        0.925     0.038     2.477     2.461
     7   1 H        0.925     0.041     2.434     2.440
     8   1 H        0.925     0.052     2.298     2.371
     9   1 H        0.924     0.045     2.388     2.417
    10   1 H        0.923     0.019     2.755     2.596
    11   1 H        0.923     0.019     2.753     2.595
    12   1 H        0.924     0.044     2.392     2.419
    13   1 H        0.925     0.038     2.477     2.461
    14   1 H        0.925     0.052     2.298     2.370
    15   1 H        0.925     0.041     2.432     2.438

 Mol. C6AA /au·bohr⁶  :       1473.149063
 Mol. C8AA /au·bohr⁸  :      29844.008155
 Mol. α(0) /au        :         56.736236


Wiberg/Mayer (AO) data.
largest (>0.10) Wiberg bond orders for each atom

 ---------------------------------------------------------------------------
     #   Z sym  total        # sym  WBO       # sym  WBO       # sym  WBO
 ---------------------------------------------------------------------------
     1   6 C    3.996 --     2 C    1.008     8 H    0.986     6 H    0.986
                             7 H    0.984
     2   6 C    3.955 --     1 C    1.008     3 O    0.984     9 H    0.971
                            10 H    0.968
     3   8 O    2.075 --     2 C    0.984     4 C    0.984
     4   6 C    3.955 --     5 C    1.008     3 O    0.984    12 H    0.971
                            11 H    0.968
     5   6 C    3.996 --     4 C    1.008    14 H    0.986    13 H    0.986
                            15 H    0.984
     6   1 H    0.999 --     1 C    0.986
     7   1 H    0.998 --     1 C    0.984
     8   1 H    0.997 --     1 C    0.986
     9   1 H    0.998 --     2 C    0.971
    10   1 H    1.000 --     2 C    0.968
    11   1 H    1.000 --     4 C    0.968
    12   1 H    0.998 --     4 C    0.971
    13   1 H    0.999 --     5 C    0.986
    14   1 H    0.997 --     5 C    0.986
    15   1 H    0.998 --     5 C    0.984
 ---------------------------------------------------------------------------

Topologies differ in total number of bonds
Writing topology from bond orders to xtbtopo.mol

molecular dipole:
                 x           y           z       tot (Debye)
 q only:        0.002       0.209      -0.414
   full:        0.003       0.204      -0.594       1.597
molecular quadrupole (traceless):
                xx          xy          yy          xz          yz          zz
 q only:        2.622      -0.006      -0.637       0.016       0.715      -1.985
  q+dip:        1.999      -0.002      -0.756       0.013       1.464      -1.244
   full:        2.567      -0.004      -0.832       0.016       1.287      -1.734


           -------------------------------------------------
          | TOTAL ENERGY              -17.719288034450 Eh   |
          | GRADIENT NORM               0.008896062781 Eh/α |
          | HOMO-LUMO GAP              11.255142124838 eV   |
           -------------------------------------------------

------------------------------------------------------------------------
 * finished run on 2025/04/07 at 02:42:52.502     
------------------------------------------------------------------------
 total:
 * wall-time:     0 d,  0 h,  0 min,  0.050 sec
 *  cpu-time:     0 d,  0 h,  0 min,  0.013 sec
 * ratio c/w:     0.264 speedup
 SCF:
 * wall-time:     0 d,  0 h,  0 min,  0.015 sec
 *  cpu-time:     0 d,  0 h,  0 min,  0.007 sec
 * ratio c/w:     0.483 speedup

