      -----------------------------------------------------------      
     |                   =====================                   |     
     |                           x T B                           |     
     |                   =====================                   |     
     |                         S. Grimme                         |     
     |          Mulliken Center for Theoretical Chemistry        |     
     |                    University of Bonn                     |     
      -----------------------------------------------------------      

   * xtb version 6.7.1 (edcfbbe) compiled by 'albert@albert-system' on 2024-07-22

   xtb is free software: you can redistribute it and/or modify it under
   the terms of the GNU Lesser General Public License as published by
   the Free Software Foundation, either version 3 of the License, or
   (at your option) any later version.
   
   xtb is distributed in the hope that it will be useful,
   but WITHOUT ANY WARRANTY; without even the implied warranty of
   MERCHANTABILITY or FITNESS FOR A PARTICULAR PURPOSE.  See the
   GNU Lesser General Public License for more details.
   
   Cite this work as:
   * C. Bannwarth, E. Caldeweyher, S. Ehlert, A. Hansen, P. Pracht,
     J. Seibert, S. Spicher, S. Grimme, WIREs Comput. Mol. Sci., 2020, 11,
     e01493. DOI: 10.1002/wcms.1493
   
   for GFN2-xTB:
   * C. Bannwarth, S. Ehlert and S. Grimme., J. Chem. Theory Comput., 2019,
     15, 1652-1671. DOI: 10.1021/acs.jctc.8b01176
   for GFN1-xTB:
   * S. Grimme, C. Bannwarth, P. Shushkov, J. Chem. Theory Comput., 2017,
     13, 1989-2009. DOI: 10.1021/acs.jctc.7b00118
   for GFN0-xTB:
   * P. Pracht, E. Caldeweyher, S. Ehlert, S. Grimme, ChemRxiv, 2019, preprint.
     DOI: 10.26434/chemrxiv.8326202.v1
   for GFN-FF:
   * S. Spicher and S. Grimme, Angew. Chem. Int. Ed., 2020, 59, 15665-15673.
     DOI: 10.1002/anie.202004239
   
   for ALPB and GBSA implicit solvation:
   * S. Ehlert, M. Stahn, S. Spicher, S. Grimme, J. Chem. Theory Comput.,
     2021, 17, 4250-4261. DOI: 10.1021/acs.jctc.1c00471
   
   for ddCOSMO and CPCM-X implicit solvation:
   * M. Stahn, S. Ehlert, S. Grimme, J. Phys. Chem. A,
     2023, XX, XXXX-XXXX. DOI: 10.1021/acs.jpca.3c04382
   
   for DFT-D4:
   * E. Caldeweyher, C. Bannwarth and S. Grimme, J. Chem. Phys., 2017,
     147, 034112. DOI: 10.1063/1.4993215
   * E. Caldeweyher, S. Ehlert, A. Hansen, H. Neugebauer, S. Spicher,
     C. Bannwarth and S. Grimme, J. Chem. Phys., 2019, 150, 154122.
     DOI: 10.1063/1.5090222
   * E. Caldeweyher, J.-M. Mewes, S. Ehlert and S. Grimme, Phys. Chem. Chem. Phys.
     2020, 22, 8499-8512. DOI: 10.1039/D0CP00502A
   
   for sTDA-xTB:
   * S. Grimme and C. Bannwarth, J. Chem. Phys., 2016, 145, 054103.
     DOI: 10.1063/1.4959605
   
   in the mass-spec context:
   * V. Asgeirsson, C. Bauer and S. Grimme, Chem. Sci., 2017, 8, 4879.
     DOI: 10.1039/c7sc00601b
   * J. Koopman and S. Grimme, ACS Omega 2019, 4, 12, 15120-15133.
     DOI: 10.1021/acsomega.9b02011
   
   for metadynamics refer to:
   * S. Grimme, J. Chem. Theory Comput., 2019, 155, 2847-2862
     DOI: 10.1021/acs.jctc.9b00143
   
   for SPH calculations refer to:
   * S. Spicher and S. Grimme, J. Chem. Theory Comput., 2021, 17, 1701-1714
     DOI: 10.1021/acs.jctc.0c01306
   
   for ONIOM refer to:
   * C. Plett, A. Katbashev, S. Ehlert, S. Grimme, M. Bursch,
     Phys. Chem. Chem. Phys., 2023, 25, 17860-17868. DOI: 10.1039/D3CP02178E
   
   for DIPRO refer to:
   * J. Kohn, N. Gildemeister, S. Grimme, D. Fazzi, A. Hansen,
     J. Chem. Phys., 2023, just accepted.
   
   for PTB refer to:
   * S. Grimme, M. Mueller, A. Hansen, J. Chem. Phys., 2023, 158, 124111.
     DOI: 10.1063/5.0137838
   
   with help from (in alphabetical order)
   P. Atkinson, C. Bannwarth, F. Bohle, G. Brandenburg, E. Caldeweyher
   M. Checinski, S. Dohm, S. Ehlert, S. Ehrlich, I. Gerasimov, C. Hölzer
   A. Katbashev, J. Kohn, J. Koopman, C. Lavigne, S. Lehtola, F. März, M. Müller,
   F. Musil, H. Neugebauer, J. Pisarek, C. Plett, P. Pracht, F. Pultar,
   J. Seibert, P. Shushkov, S. Spicher, M. Stahn, M. Steiner, T. Strunk,
   J. Stückrath, T. Rose, and J. Unsleber
   
 * started run on 2025/04/07 at 02:42:52.536     
   ID    Z sym.   atoms
    1    6 C      1, 2, 4, 5
    2    8 O      3
    3    1 H      6-15

           -------------------------------------------------
          |                Calculation Setup                |
           -------------------------------------------------

          program call               : /srv/scratch/z5358697/.xtb/bin/xtb solv.coord --gfn2 --sp --chrg 0 --norestart --parallel 1 --alpb water reference -I xtb_sp-xcontrol-inp
          hostname                   : k140
          coordinate file            : solv.coord
          omp threads                :                     1


           -------------------------------------------------
          |                 G F N 2 - x T B                 |
           -------------------------------------------------

        Reference                      10.1021/acs.jctc.8b01176
      * Hamiltonian:
        H0-scaling (s, p, d)           1.850000    2.230000    2.230000
        zeta-weighting                 0.500000
      * Dispersion:
        s8                             2.700000
        a1                             0.520000
        a2                             5.000000
        s9                             5.000000
      * Repulsion:
        kExp                           1.500000    1.000000
        rExp                           1.000000
      * Coulomb:
        alpha                          2.000000
        third order                    shell-resolved
        anisotropic                    true
        a3                             3.000000
        a5                             4.000000
        cn-shift                       1.200000
        cn-exp                         4.000000
        max-rad                        5.000000

      * Solvation model:               ALPB
        Solvent                        water
        Parameter file                 internal GFN2-xTB/ALPB
        Dielectric constant                8.0200E+01
        Reference state                gsolv=reference [X=1]
        Free energy shift                  2.8945E-03 Eh       1.8164E+00 kcal/mol
        Temperature                        2.9815E+02 K
        Density                            1.0000E+00 kg/L
        Solvent mass                       1.8000E+01 g/mol
        Interaction kernel             P16
        Born radius scaling (c1)           1.4744E+00
        Born radii integrator          GBOBC
        Born offset                        0.0000E+00 a0       0.0000E+00 AA
        H-bond correction              true
        Ion screening                  false
        Surface tension                    1.0000E-05 Eh       1.5569E+01 dyn/cm
        Grid points                               974 per atom

          ...................................................
          :                      SETUP                      :
          :.................................................:
          :  # basis functions                  30          :
          :  # atomic orbitals                  30          :
          :  # shells                           20          :
          :  # electrons                        32          :
          :  max. iterations                   250          :
          :  Hamiltonian                  GFN2-xTB          :
          :  restarted?                      false          :
          :  GBSA solvation                   true          :
          :  PC potential                    false          :
          :  electronic temp.          300.0000000     K    :
          :  accuracy                    1.0000000          :
          :  -> integral cutoff          0.2500000E+02      :
          :  -> integral neglect         0.1000000E-07      :
          :  -> SCF convergence          0.1000000E-05 Eh   :
          :  -> wf. convergence          0.1000000E-03 e    :
          :  Broyden damping             0.4000000          :
          :  net charge                          0          :
          :  unpaired electrons                  0          :
          ...................................................

 iter      E             dE          RMSdq      gap      omega  full diag
   1    -17.8921790 -0.178922E+02  0.371E+00   11.58       0.0  T
   2    -17.9286081 -0.364291E-01  0.187E+00   11.18       1.0  T
   3    -17.9293118 -0.703719E-03  0.720E-01   11.23       1.0  T
   4    -17.9294801 -0.168271E-03  0.123E-01   11.25       1.0  T
   5    -17.9294962 -0.160930E-04  0.667E-02   11.27       1.0  T
   6    -17.9294977 -0.147059E-05  0.746E-03   11.27       3.5  T
   7    -17.9294978 -0.129692E-06  0.268E-03   11.27       9.6  T
   8    -17.9294978 -0.757043E-08  0.117E-03   11.27      22.1  T
   9    -17.9294978 -0.477208E-08  0.173E-04   11.27     148.9  T
  10    -17.9294978  0.866756E-10  0.123E-04   11.27     209.2  T

   *** convergence criteria satisfied after 10 iterations ***

         #    Occupation            Energy/Eh            Energy/eV
      -------------------------------------------------------------
         1        2.0000           -0.6977946             -18.9880
       ...           ...                  ...                  ...
        10        2.0000           -0.4815863             -13.1046
        11        2.0000           -0.4766558             -12.9705
        12        2.0000           -0.4693280             -12.7711
        13        2.0000           -0.4552086             -12.3869
        14        2.0000           -0.4343651             -11.8197
        15        2.0000           -0.4316428             -11.7456
        16        2.0000           -0.3996335             -10.8746 (HOMO)
        17                          0.0146645               0.3990 (LUMO)
        18                          0.0929285               2.5287
        19                          0.1130525               3.0763
        20                          0.1246986               3.3932
        21                          0.1272470               3.4626
       ...                                ...                  ...
        30                          0.3258694               8.8674
      -------------------------------------------------------------
                  HL-Gap            0.4142980 Eh           11.2736 eV
             Fermi-level           -0.1924845 Eh           -5.2378 eV

 SCC (total)                   0 d,  0 h,  0 min,  0.010 sec
 SCC setup                      ...        0 min,  0.001 sec (  7.254%)
 Dispersion                     ...        0 min,  0.000 sec (  0.544%)
 classical contributions        ...        0 min,  0.000 sec (  0.125%)
 integral evaluation            ...        0 min,  0.001 sec (  9.725%)
 iterations                     ...        0 min,  0.006 sec ( 60.950%)
 molecular gradient             ...        0 min,  0.002 sec ( 20.401%)
 printout                       ...        0 min,  0.000 sec (  0.911%)

         :::::::::::::::::::::::::::::::::::::::::::::::::::::
         ::                     SUMMARY                     ::
         :::::::::::::::::::::::::::::::::::::::::::::::::::::
         :: total energy             -17.720000496656 Eh    ::
         :: total w/o Gsasa/hb       -17.722085397368 Eh    ::
         :: gradient norm              0.000267827956 Eh/a0 ::
         :: HOMO-LUMO gap             11.273622934345 eV    ::
         ::.................................................::
         :: SCC energy               -17.929484426391 Eh    ::
         :: -> isotropic ES            0.026159927600 Eh    ::
         :: -> anisotropic ES          0.003588364420 Eh    ::
         :: -> anisotropic XC          0.006160811162 Eh    ::
         :: -> dispersion             -0.007202167986 Eh    ::
         :: -> Gsolv                  -0.001360363191 Eh    ::
         ::    -> Gelec               -0.003445263903 Eh    ::
         ::    -> Gsasa                0.000099980254 Eh    ::
         ::    -> Ghb                 -0.000909628702 Eh    ::
         ::    -> Gshift               0.002894549160 Eh    ::
         :: repulsion energy           0.209483929736 Eh    ::
         :: add. restraining           0.000000000000 Eh    ::
         :: total charge              -0.000000000000 e     ::
         :::::::::::::::::::::::::::::::::::::::::::::::::::::

           -------------------------------------------------
          |                Property Printout                |
           -------------------------------------------------

    * Orbital Energies and Occupations

         #    Occupation            Energy/Eh            Energy/eV
      -------------------------------------------------------------
         1        2.0000           -0.6977946             -18.9880
       ...           ...                  ...                  ...
         4        2.0000           -0.5891156             -16.0307
         5        2.0000           -0.5801932             -15.7879
         6        2.0000           -0.5473371             -14.8938
         7        2.0000           -0.5367885             -14.6068
         8        2.0000           -0.5239989             -14.2587
         9        2.0000           -0.4937427             -13.4354
        10        2.0000           -0.4815863             -13.1046
        11        2.0000           -0.4766558             -12.9705
        12        2.0000           -0.4693280             -12.7711
        13        2.0000           -0.4552086             -12.3869
        14        2.0000           -0.4343651             -11.8197
        15        2.0000           -0.4316428             -11.7456
        16        2.0000           -0.3996335             -10.8746 (HOMO)
        17                          0.0146645               0.3990 (LUMO)
        18                          0.0929285               2.5287
        19                          0.1130525               3.0763
        20                          0.1246986               3.3932
        21                          0.1272470               3.4626
        22                          0.1542776               4.1981
        23                          0.1767499               4.8096
        24                          0.1783812               4.8540
        25                          0.1892440               5.1496
        26                          0.2220820               6.0432
        27                          0.2434173               6.6237
       ...                                ...                  ...
        30                          0.3258694               8.8674
      -------------------------------------------------------------
                  HL-Gap            0.4142980 Eh           11.2736 eV
             Fermi-level           -0.1924845 Eh           -5.2378 eV

     #   Z          covCN         q      C6AA      α(0)
     1   6 C        3.750    -0.126    22.973     6.836
     2   6 C        3.684     0.080    19.443     6.313
     3   8 O        1.699    -0.368    20.217     6.071
     4   6 C        3.684     0.080    19.443     6.313
     5   6 C        3.750    -0.126    22.975     6.836
     6   1 H        0.925     0.052     2.291     2.367
     7   1 H        0.925     0.049     2.339     2.391
     8   1 H        0.925     0.055     2.263     2.352
     9   1 H        0.924     0.049     2.330     2.387
    10   1 H        0.923     0.025     2.659     2.550
    11   1 H        0.923     0.025     2.656     2.549
    12   1 H        0.924     0.049     2.335     2.390
    13   1 H        0.925     0.052     2.291     2.367
    14   1 H        0.925     0.055     2.263     2.353
    15   1 H        0.925     0.049     2.336     2.390

 Mol. C6AA /au·bohr⁶  :       1461.163638
 Mol. C8AA /au·bohr⁸  :      29726.665866
 Mol. α(0) /au        :         56.465207


Wiberg/Mayer (AO) data.
largest (>0.10) Wiberg bond orders for each atom

 ---------------------------------------------------------------------------
     #   Z sym  total        # sym  WBO       # sym  WBO       # sym  WBO
 ---------------------------------------------------------------------------
     1   6 C    3.994 --     2 C    1.009     8 H    0.986     6 H    0.984
                             7 H    0.983
     2   6 C    3.947 --     1 C    1.009     3 O    0.975     9 H    0.971
                            10 H    0.968
     3   8 O    2.053 --     2 C    0.975     4 C    0.974
     4   6 C    3.947 --     5 C    1.009     3 O    0.974    12 H    0.971
                            11 H    0.968
     5   6 C    3.994 --     4 C    1.009    14 H    0.986    13 H    0.984
                            15 H    0.983
     6   1 H    0.997 --     1 C    0.984
     7   1 H    0.998 --     1 C    0.983
     8   1 H    0.997 --     1 C    0.986
     9   1 H    0.998 --     2 C    0.971
    10   1 H    0.999 --     2 C    0.968
    11   1 H    0.999 --     4 C    0.968
    12   1 H    0.998 --     4 C    0.971
    13   1 H    0.997 --     5 C    0.984
    14   1 H    0.997 --     5 C    0.986
    15   1 H    0.998 --     5 C    0.983
 ---------------------------------------------------------------------------

Topologies differ in total number of bonds
Writing topology from bond orders to xtbtopo.mol

molecular dipole:
                 x           y           z       tot (Debye)
 q only:        0.002       0.284      -0.523
   full:        0.003       0.249      -0.658       1.789
molecular quadrupole (traceless):
                xx          xy          yy          xz          yz          zz
 q only:        3.265      -0.007      -0.896       0.019       0.718      -2.370
  q+dip:        2.395      -0.002      -0.928       0.015       1.456      -1.467
   full:        2.976      -0.005      -1.006       0.018       1.279      -1.970


           -------------------------------------------------
          | TOTAL ENERGY              -17.720000496656 Eh   |
          | GRADIENT NORM               0.000267827956 Eh/α |
          | HOMO-LUMO GAP              11.273622934345 eV   |
           -------------------------------------------------

------------------------------------------------------------------------
 * finished run on 2025/04/07 at 02:42:52.575     
------------------------------------------------------------------------
 total:
 * wall-time:     0 d,  0 h,  0 min,  0.039 sec
 *  cpu-time:     0 d,  0 h,  0 min,  0.014 sec
 * ratio c/w:     0.366 speedup
 SCF:
 * wall-time:     0 d,  0 h,  0 min,  0.010 sec
 *  cpu-time:     0 d,  0 h,  0 min,  0.008 sec
 * ratio c/w:     0.782 speedup

