 Entering Gaussian System
 *********************************************
 Gaussian 98:
 frequency output generated by the xtb code
 *********************************************
                         Standard orientation:
 --------------------------------------------------------------------
  Center     Atomic     Atomic              Coordinates (Angstroms)
  Number     Number      Type              X           Y           Z
 --------------------------------------------------------------------
    1          6             0        1.911940    0.620936    0.296432
    2          6             0        1.019396   -0.179931   -0.648915
    3          8             0       -0.000014   -0.925057    0.000087
    4          6             0       -1.019411   -0.179749    0.648900
    5          6             0       -1.911941    0.620890   -0.296653
    6          1             0        1.375407    1.461350    0.729367
    7          1             0        2.270433   -0.019460    1.098491
    8          1             0        2.762603    1.004117   -0.258665
    9          1             0        1.610393   -0.946164   -1.156516
   10          1             0        0.583595    0.481365   -1.408206
   11          1             0       -1.610421   -0.945843    1.156695
   12          1             0       -0.583599    0.481732    1.408023
   13          1             0       -2.762598    1.004227    0.258346
   14          1             0       -1.375394    1.461186   -0.729801
   15          1             0       -2.270445   -0.019703   -1.098551
 --------------------------------------------------------------------
     1 basis functions        1 primitive gaussians
     1 alpha electrons        1 beta electrons
 
 Harmonic frequencies (cm**-1), IR intensities (km*mol⁻¹),
 Raman scattering activities (A**4/amu), Raman depolarization ratios,
 reduced masses (AMU), force constants (mDyne/A) and normal coordinates:
                      1                      2                      3
                        a                      a                      a 
 Frequencies --    30.7938               131.3434               204.4824
 Red. masses --     7.8930                 4.9138                 1.3689
 Frc consts  --     0.0000                 0.0000                 0.0000
 IR Inten    --     0.1034                 5.0502                 0.2885
 Raman Activ --     0.0000                 0.0000                 0.0000
 Depolar     --     0.0000                 0.0000                 0.0000
 Atom AN      X      Y      Z        X      Y      Z        X      Y      Z
   1   6    -0.36   0.30  -0.10    -0.16   0.05   0.17    -0.05   0.06   0.03
   2   6    -0.00  -0.21  -0.01     0.18  -0.11  -0.03     0.03  -0.04   0.06
   3   8    -0.00  -0.23   0.00    -0.07  -0.00  -0.33    -0.00  -0.07  -0.00
   4   6     0.00  -0.21   0.01     0.18   0.11  -0.03    -0.03  -0.04  -0.06
   5   6     0.36   0.30   0.10    -0.16  -0.05   0.17     0.05   0.06  -0.03
   6   1    -0.18   0.11  -0.16    -0.02   0.16  -0.20    -0.15  -0.21   0.29
   7   1    -0.13   0.19   0.07    -0.29   0.10   0.23     0.32  -0.04  -0.19
   8   1    -0.09   0.07  -0.01     0.12  -0.19   0.16    -0.23   0.36  -0.09
   9   1     0.07  -0.08   0.11     0.10  -0.06   0.09     0.03  -0.00   0.03
  10   1     0.01  -0.16  -0.10     0.14  -0.07  -0.09     0.01  -0.02   0.00
  11   1    -0.07  -0.08  -0.11     0.10   0.06   0.09    -0.03  -0.00  -0.03
  12   1    -0.01  -0.16   0.10     0.14   0.07  -0.09    -0.01  -0.02  -0.00
  13   1     0.09   0.07   0.01     0.12   0.19   0.16     0.23   0.36   0.09
  14   1     0.18   0.11   0.16    -0.02  -0.16  -0.20     0.15  -0.21  -0.29
  15   1     0.13   0.19  -0.07    -0.29  -0.10   0.23    -0.32  -0.04   0.19
                      4                      5                      6
                        a                      a                      a 
 Frequencies --   266.4109               291.2052               439.8797
 Red. masses --     4.9523                 8.1327                10.7352
 Frc consts  --     0.0000                 0.0000                 0.0000
 IR Inten    --     3.5209                 0.3572                16.3447
 Raman Activ --     0.0000                 0.0000                 0.0000
 Depolar     --     0.0000                 0.0000                 0.0000
 Atom AN      X      Y      Z        X      Y      Z        X      Y      Z
   1   6     0.14   0.00  -0.09    -0.37  -0.13   0.12    -0.23  -0.18   0.02
   2   6    -0.20   0.26   0.00    -0.31   0.17  -0.16     0.06  -0.05  -0.26
   3   8     0.12   0.00   0.22    -0.00  -0.10   0.00     0.50   0.00   0.40
   4   6    -0.20  -0.26   0.00     0.31   0.17   0.16     0.06   0.05  -0.26
   5   6     0.14  -0.00  -0.09     0.37  -0.13  -0.12    -0.23   0.18   0.02
   6   1     0.20   0.18  -0.17    -0.10  -0.06   0.09    -0.15  -0.11   0.02
   7   1    -0.18   0.01   0.08    -0.16  -0.12  -0.01    -0.17  -0.13  -0.00
   8   1     0.19  -0.27   0.01    -0.07   0.00   0.11     0.00   0.03   0.17
   9   1    -0.10   0.12  -0.12    -0.09   0.13  -0.17     0.02   0.01  -0.11
  10   1    -0.14   0.12   0.09    -0.17   0.11   0.06    -0.08  -0.04  -0.04
  11   1    -0.10  -0.12  -0.12     0.09   0.13   0.17     0.02  -0.01  -0.11
  12   1    -0.14  -0.12   0.09     0.17   0.11  -0.06    -0.08   0.04  -0.04
  13   1     0.19   0.27   0.01     0.07   0.00  -0.11     0.00  -0.03   0.17
  14   1     0.20  -0.18  -0.17     0.10  -0.06  -0.09    -0.15   0.11   0.02
  15   1    -0.18  -0.01   0.08     0.16  -0.12   0.01    -0.17   0.13  -0.00
                      7                      8                      9
                        a                      a                      a 
 Frequencies --   474.7629               807.5449               816.1356
 Red. masses --     9.0314                 2.1661                 5.3353
 Frc consts  --     0.0000                 0.0000                 0.0000
 IR Inten    --     6.6610                 9.3061                22.0520
 Raman Activ --     0.0000                 0.0000                 0.0000
 Depolar     --     0.0000                 0.0000                 0.0000
 Atom AN      X      Y      Z        X      Y      Z        X      Y      Z
   1   6    -0.12  -0.16  -0.04    -0.03   0.08  -0.01    -0.16  -0.05  -0.02
   2   6     0.18  -0.04  -0.31    -0.10   0.18  -0.05    -0.28   0.04   0.23
   3   8    -0.00   0.54  -0.00     0.02   0.00   0.05     0.00   0.24  -0.00
   4   6    -0.18  -0.04   0.31    -0.10  -0.18  -0.05     0.28   0.04  -0.23
   5   6     0.12  -0.16   0.04    -0.03  -0.08  -0.01     0.16  -0.05   0.02
   6   1    -0.14  -0.12   0.01     0.23   0.05   0.22     0.21   0.07   0.13
   7   1    -0.11  -0.11  -0.03    -0.08  -0.24  -0.17     0.01  -0.13  -0.12
   8   1     0.02   0.05   0.13     0.05  -0.09   0.02    -0.07  -0.18  -0.17
   9   1     0.02  -0.14   0.07     0.14  -0.04   0.31     0.05  -0.06   0.31
  10   1     0.17  -0.07  -0.21     0.05  -0.21  -0.28     0.03  -0.15  -0.15
  11   1    -0.02  -0.14  -0.07     0.14   0.04   0.31    -0.05  -0.07  -0.31
  12   1    -0.17  -0.07   0.21     0.05   0.21  -0.28    -0.03  -0.15   0.15
  13   1    -0.02   0.05  -0.13     0.05   0.09   0.02     0.07  -0.18   0.17
  14   1     0.14  -0.12  -0.01     0.23  -0.05   0.22    -0.21   0.07  -0.13
  15   1     0.11  -0.11   0.03    -0.08   0.24  -0.17    -0.01  -0.13   0.12
                     10                     11                     12
                        a                      a                      a 
 Frequencies --   865.2926               936.9214              1047.4074
 Red. masses --     6.4019                 8.2161                 8.0577
 Frc consts  --     0.0000                 0.0000                 0.0000
 IR Inten    --     3.7964                12.1164                26.3628
 Raman Activ --     0.0000                 0.0000                 0.0000
 Depolar     --     0.0000                 0.0000                 0.0000
 Atom AN      X      Y      Z        X      Y      Z        X      Y      Z
   1   6     0.11   0.20   0.01     0.28   0.19   0.03    -0.26  -0.16  -0.11
   2   6     0.09   0.13  -0.22     0.02   0.01  -0.22     0.39   0.22   0.02
   3   8    -0.00  -0.42   0.00    -0.44   0.00   0.21    -0.00  -0.17   0.00
   4   6    -0.09   0.13   0.22     0.02  -0.01  -0.22    -0.39   0.22  -0.02
   5   6    -0.11   0.20  -0.01     0.28  -0.19   0.03     0.26  -0.16   0.11
   6   1     0.15   0.03   0.20    -0.10  -0.06   0.03     0.05   0.03  -0.04
   7   1    -0.11  -0.21  -0.13    -0.10  -0.03   0.02     0.03  -0.02  -0.06
   8   1     0.15   0.01   0.16     0.19   0.20   0.29    -0.13  -0.15  -0.20
   9   1     0.18   0.06   0.09    -0.11  -0.09  -0.04     0.21   0.16  -0.02
  10   1    -0.06  -0.16  -0.17    -0.05  -0.03  -0.05     0.10   0.11   0.05
  11   1    -0.18   0.06  -0.09    -0.11   0.09  -0.04    -0.21   0.16   0.02
  12   1     0.06  -0.16   0.17    -0.05   0.03  -0.05    -0.10   0.11  -0.05
  13   1    -0.15   0.01  -0.16     0.19  -0.20   0.29     0.13  -0.15   0.20
  14   1    -0.15   0.03  -0.20    -0.10   0.07   0.03    -0.05   0.03   0.04
  15   1     0.11  -0.21   0.13    -0.10   0.03   0.02    -0.03  -0.02   0.06
                     13                     14                     15
                        a                      a                      a 
 Frequencies --  1068.2728              1081.8011              1106.9938
 Red. masses --     9.2882                 6.9479                 8.5896
 Frc consts  --     0.0000                 0.0000                 0.0000
 IR Inten    --    39.1241                 0.2127               119.5678
 Raman Activ --     0.0000                 0.0000                 0.0000
 Depolar     --     0.0000                 0.0000                 0.0000
 Atom AN      X      Y      Z        X      Y      Z        X      Y      Z
   1   6     0.09   0.14   0.33     0.00  -0.03  -0.34    -0.07  -0.13   0.14
   2   6    -0.25  -0.28  -0.27     0.06   0.07   0.38     0.16   0.27  -0.28
   3   8     0.19  -0.00  -0.05     0.00   0.02  -0.00    -0.26   0.00   0.35
   4   6    -0.25   0.28  -0.27    -0.06   0.07  -0.38     0.16  -0.27  -0.28
   5   6     0.09  -0.14   0.33    -0.00  -0.03   0.34    -0.07   0.13   0.14
   6   1     0.17   0.12   0.10    -0.16  -0.14  -0.03     0.02   0.05  -0.09
   7   1     0.15   0.10   0.08    -0.23  -0.16  -0.10     0.16   0.14   0.09
   8   1    -0.04  -0.05  -0.09     0.13   0.11   0.21    -0.14  -0.07  -0.18
   9   1    -0.00  -0.01  -0.11    -0.02   0.03   0.04    -0.03  -0.06   0.06
  10   1    -0.08  -0.06  -0.06    -0.07  -0.02   0.11     0.19   0.10  -0.11
  11   1    -0.00   0.01  -0.11     0.02   0.03  -0.04    -0.03   0.06   0.06
  12   1    -0.08   0.06  -0.06     0.07  -0.02  -0.11     0.19  -0.10  -0.11
  13   1    -0.04   0.05  -0.09    -0.13   0.11  -0.21    -0.14   0.07  -0.18
  14   1     0.17  -0.12   0.10     0.16  -0.14   0.03     0.02  -0.05  -0.09
  15   1     0.15  -0.10   0.08     0.23  -0.16   0.10     0.16  -0.14   0.09
                     16                     17                     18
                        a                      a                      a 
 Frequencies --  1123.8289              1181.4223              1251.9287
 Red. masses --     6.6259                 6.6965                 2.3408
 Frc consts  --     0.0000                 0.0000                 0.0000
 IR Inten    --    54.1437                17.6119                 2.2645
 Raman Activ --     0.0000                 0.0000                 0.0000
 Depolar     --     0.0000                 0.0000                 0.0000
 Atom AN      X      Y      Z        X      Y      Z        X      Y      Z
   1   6     0.16  -0.13   0.01    -0.15   0.21   0.01     0.11  -0.16   0.03
   2   6    -0.32   0.13   0.04     0.17  -0.33   0.02    -0.03   0.08  -0.03
   3   8     0.34  -0.00  -0.14     0.00   0.28  -0.00    -0.14   0.00   0.01
   4   6    -0.32  -0.13   0.04    -0.17  -0.33  -0.02    -0.03  -0.08  -0.03
   5   6     0.16   0.13   0.01     0.15   0.21  -0.01     0.11   0.16   0.03
   6   1    -0.19  -0.09  -0.15     0.19   0.09   0.19    -0.10  -0.06  -0.13
   7   1     0.03   0.13   0.13    -0.06  -0.15  -0.14     0.06   0.12   0.12
   8   1     0.00   0.13   0.07     0.02  -0.11  -0.01    -0.02   0.05  -0.01
   9   1    -0.14  -0.16   0.21    -0.06  -0.00  -0.24     0.37   0.27   0.07
  10   1     0.16  -0.01  -0.17    -0.12   0.04   0.20    -0.31  -0.25  -0.06
  11   1    -0.14   0.16   0.21     0.06  -0.00   0.24     0.37  -0.27   0.07
  12   1     0.16   0.01  -0.17     0.12   0.04  -0.20    -0.31   0.25  -0.06
  13   1     0.00  -0.13   0.07    -0.02  -0.11   0.01    -0.02  -0.05  -0.01
  14   1    -0.19   0.09  -0.15    -0.19   0.09  -0.19    -0.10   0.06  -0.13
  15   1     0.03  -0.13   0.13     0.06  -0.15   0.14     0.06  -0.12   0.12
                     19                     20                     21
                        a                      a                      a 
 Frequencies --  1281.1541              1326.6476              1326.6967
 Red. masses --     2.6235                 3.5788                 3.0865
 Frc consts  --     0.0000                 0.0000                 0.0000
 IR Inten    --     1.9808                21.9744                24.2293
 Raman Activ --     0.0000                 0.0000                 0.0000
 Depolar     --     0.0000                 0.0000                 0.0000
 Atom AN      X      Y      Z        X      Y      Z        X      Y      Z
   1   6    -0.05   0.12  -0.05     0.02  -0.00  -0.10    -0.00   0.01   0.11
   2   6    -0.03   0.04  -0.00    -0.23  -0.22  -0.02     0.19   0.15   0.04
   3   8    -0.00  -0.27   0.00    -0.00   0.09   0.00     0.06   0.00  -0.16
   4   6     0.03   0.04   0.00     0.22  -0.22   0.02     0.20  -0.15   0.04
   5   6     0.05   0.12   0.05    -0.02  -0.00   0.10    -0.00  -0.01   0.12
   6   1     0.05   0.02   0.09     0.04  -0.02   0.06    -0.04   0.01  -0.04
   7   1    -0.06  -0.07  -0.07    -0.01   0.05   0.03     0.01  -0.04  -0.01
   8   1     0.03  -0.03   0.01     0.07   0.05   0.10    -0.07  -0.07  -0.12
   9   1    -0.29  -0.22   0.03     0.39   0.29  -0.00    -0.33  -0.24  -0.01
  10   1     0.43   0.30  -0.00     0.28   0.22   0.03    -0.37  -0.28  -0.02
  11   1     0.29  -0.22  -0.03    -0.39   0.29   0.01    -0.33   0.25  -0.01
  12   1    -0.43   0.30   0.00    -0.27   0.21  -0.03    -0.37   0.28  -0.02
  13   1    -0.03  -0.03  -0.01    -0.07   0.05  -0.10    -0.07   0.07  -0.12
  14   1    -0.05   0.02  -0.09    -0.03  -0.02  -0.06    -0.04  -0.01  -0.04
  15   1     0.06  -0.07   0.07     0.01   0.05  -0.03     0.01   0.04  -0.02
                     22                     23                     24
                        a                      a                      a 
 Frequencies --  1392.9974              1394.2454              1459.5842
 Red. masses --     3.1617                 3.1366                 1.8737
 Frc consts  --     0.0000                 0.0000                 0.0000
 IR Inten    --     5.3417                14.2858                 1.1584
 Raman Activ --     0.0000                 0.0000                 0.0000
 Depolar     --     0.0000                 0.0000                 0.0000
 Atom AN      X      Y      Z        X      Y      Z        X      Y      Z
   1   6    -0.20  -0.15  -0.17    -0.20  -0.15  -0.17    -0.00  -0.05   0.02
   2   6     0.05   0.05  -0.02     0.05   0.04   0.01     0.01   0.03   0.18
   3   8     0.00  -0.01  -0.00     0.02  -0.00  -0.04    -0.05   0.00   0.05
   4   6    -0.05   0.05   0.02     0.05  -0.04   0.01     0.01  -0.03   0.18
   5   6     0.20  -0.15   0.17    -0.20   0.15  -0.17    -0.00   0.05   0.02
   6   1     0.28   0.10   0.14     0.28   0.09   0.16     0.09   0.08  -0.05
   7   1     0.23   0.26   0.09     0.23   0.28   0.11    -0.04  -0.03   0.00
   8   1     0.13   0.12   0.32     0.13   0.11   0.31    -0.06   0.14   0.01
   9   1    -0.05  -0.09   0.08    -0.07  -0.06   0.02    -0.12   0.18  -0.40
  10   1    -0.08  -0.00   0.05    -0.09  -0.05   0.01     0.21  -0.24  -0.33
  11   1     0.05  -0.09  -0.08    -0.07   0.06   0.02    -0.12  -0.18  -0.40
  12   1     0.08  -0.00  -0.05    -0.09   0.05   0.01     0.21   0.24  -0.33
  13   1    -0.13   0.12  -0.32     0.13  -0.11   0.31    -0.06  -0.14   0.01
  14   1    -0.28   0.10  -0.14     0.28  -0.09   0.16     0.09  -0.08  -0.05
  15   1    -0.23   0.26  -0.09     0.23  -0.28   0.11    -0.05   0.03   0.00
                     25                     26                     27
                        a                      a                      a 
 Frequencies --  1461.5426              1484.0851              1486.4928
 Red. masses --     1.7772                 1.5729                 1.5643
 Frc consts  --     0.0000                 0.0000                 0.0000
 IR Inten    --     0.0235                 3.1738                 3.3682
 Raman Activ --     0.0000                 0.0000                 0.0000
 Depolar     --     0.0000                 0.0000                 0.0000
 Atom AN      X      Y      Z        X      Y      Z        X      Y      Z
   1   6    -0.05   0.03  -0.03    -0.10   0.10   0.05     0.08  -0.12  -0.04
   2   6    -0.01   0.04   0.17    -0.03   0.02   0.04     0.03  -0.00   0.06
   3   8     0.00  -0.01  -0.00    -0.01   0.00   0.01    -0.00  -0.01   0.00
   4   6     0.01   0.04  -0.17    -0.03  -0.02   0.04    -0.03  -0.00  -0.06
   5   6     0.05   0.03   0.03    -0.10  -0.10   0.05    -0.08  -0.12   0.04
   6   1    -0.05  -0.07   0.09    -0.22  -0.06  -0.13     0.26   0.10   0.10
   7   1     0.13   0.09   0.01     0.39  -0.04  -0.21    -0.34   0.03   0.19
   8   1     0.11  -0.16   0.06     0.24  -0.32   0.17    -0.23   0.34  -0.13
   9   1    -0.11   0.17  -0.38    -0.01   0.05  -0.07    -0.06   0.04  -0.14
  10   1     0.18  -0.25  -0.32     0.05  -0.05  -0.09     0.06  -0.08  -0.11
  11   1     0.11   0.17   0.38    -0.01  -0.05  -0.07     0.06   0.04   0.14
  12   1    -0.18  -0.25   0.32     0.05   0.05  -0.09    -0.06  -0.08   0.11
  13   1    -0.11  -0.16  -0.06     0.24   0.32   0.17     0.23   0.34   0.13
  14   1     0.05  -0.07  -0.09    -0.22   0.06  -0.13    -0.26   0.10  -0.10
  15   1    -0.13   0.09  -0.01     0.39   0.04  -0.21     0.34   0.03  -0.19
                     28                     29                     30
                        a                      a                      a 
 Frequencies --  1492.9662              1495.7514              2891.0537
 Red. masses --     1.5413                 1.6003                 1.7582
 Frc consts  --     0.0000                 0.0000                 0.0000
 IR Inten    --     1.7248                 0.6555               113.1029
 Raman Activ --     0.0000                 0.0000                 0.0000
 Depolar     --     0.0000                 0.0000                 0.0000
 Atom AN      X      Y      Z        X      Y      Z        X      Y      Z
   1   6     0.04   0.08  -0.12    -0.06  -0.06   0.12    -0.00  -0.00   0.00
   2   6     0.01   0.03   0.02    -0.03  -0.02   0.06    -0.09   0.12  -0.11
   3   8    -0.01   0.00   0.02    -0.00  -0.00   0.00     0.01  -0.00  -0.01
   4   6     0.01  -0.03   0.02     0.03  -0.02  -0.06    -0.09  -0.12  -0.11
   5   6     0.04  -0.08  -0.12     0.06  -0.06  -0.12    -0.00   0.00   0.00
   6   1    -0.13  -0.28   0.39     0.10   0.27  -0.39     0.00  -0.00   0.00
   7   1    -0.11   0.23   0.22     0.16  -0.23  -0.25    -0.01   0.01  -0.02
   8   1     0.05  -0.27  -0.13    -0.02   0.23   0.15     0.00   0.00  -0.00
   9   1    -0.03   0.03  -0.09    -0.01   0.05  -0.09     0.03  -0.04  -0.06
  10   1     0.05  -0.06  -0.09     0.09  -0.03  -0.07     0.28  -0.41   0.46
  11   1    -0.03  -0.03  -0.09     0.01   0.05   0.09     0.03   0.04  -0.06
  12   1     0.05   0.06  -0.09    -0.09  -0.03   0.07     0.28   0.41   0.46
  13   1     0.05   0.27  -0.13     0.02   0.23  -0.15     0.00  -0.00  -0.00
  14   1    -0.13   0.28   0.39    -0.10   0.27   0.39     0.00   0.00   0.00
  15   1    -0.11  -0.23   0.22    -0.16  -0.23   0.25    -0.01  -0.01  -0.02
                     31                     32                     33
                        a                      a                      a 
 Frequencies --  2893.2861              2965.2780              2965.7683
 Red. masses --     1.7533                 1.6668                 1.6609
 Frc consts  --     0.0000                 0.0000                 0.0000
 IR Inten    --    51.8627                31.4289                66.1217
 Raman Activ --     0.0000                 0.0000                 0.0000
 Depolar     --     0.0000                 0.0000                 0.0000
 Atom AN      X      Y      Z        X      Y      Z        X      Y      Z
   1   6    -0.00   0.01  -0.00     0.01  -0.00  -0.00    -0.01   0.01   0.01
   2   6     0.09  -0.12   0.11    -0.09   0.12   0.09     0.08  -0.12  -0.09
   3   8    -0.00  -0.02   0.00    -0.00  -0.00   0.00     0.02  -0.00  -0.01
   4   6    -0.09  -0.12  -0.11     0.09   0.12  -0.09     0.08   0.12  -0.09
   5   6     0.00   0.01   0.00    -0.01  -0.00   0.00    -0.01  -0.01   0.01
   6   1     0.01  -0.02  -0.01    -0.02   0.04   0.02     0.02  -0.04  -0.02
   7   1     0.01  -0.01   0.02    -0.00   0.00  -0.01     0.00  -0.00   0.01
   8   1    -0.01  -0.00   0.01    -0.01  -0.01   0.01     0.02   0.01  -0.01
   9   1    -0.03   0.03   0.05     0.37  -0.48  -0.30    -0.37   0.48   0.30
  10   1    -0.28   0.41  -0.46    -0.04   0.06  -0.04     0.05  -0.07   0.04
  11   1     0.03   0.03  -0.05    -0.37  -0.48   0.30    -0.37  -0.48   0.30
  12   1     0.28   0.41   0.46     0.04   0.06   0.04     0.05   0.07   0.04
  13   1     0.01  -0.00  -0.01     0.01  -0.01  -0.01     0.02  -0.01  -0.01
  14   1    -0.01  -0.02   0.01     0.02   0.04  -0.02     0.02   0.04  -0.02
  15   1    -0.01  -0.01  -0.02     0.00   0.00   0.01     0.00   0.00   0.01
                     34                     35                     36
                        a                      a                      a 
 Frequencies --  3037.0742              3037.0959              3042.3439
 Red. masses --     1.9224                 1.9224                 1.6254
 Frc consts  --     0.0000                 0.0000                 0.0000
 IR Inten    --    75.7900                43.8877                 3.2232
 Raman Activ --     0.0000                 0.0000                 0.0000
 Depolar     --     0.0000                 0.0000                 0.0000
 Atom AN      X      Y      Z        X      Y      Z        X      Y      Z
   1   6     0.12  -0.16  -0.03    -0.13   0.16   0.03    -0.00   0.06  -0.16
   2   6     0.01  -0.02  -0.00    -0.01   0.01   0.01    -0.00   0.00  -0.01
   3   8     0.00  -0.00  -0.00    -0.00  -0.00   0.00    -0.00  -0.00  -0.00
   4   6    -0.01  -0.02   0.00    -0.01  -0.01   0.01     0.00   0.00   0.01
   5   6    -0.12  -0.16   0.03    -0.13  -0.16   0.03     0.00   0.06   0.16
   6   1    -0.31   0.47   0.25     0.31  -0.47  -0.25    -0.13   0.21   0.08
   7   1    -0.07   0.14  -0.20     0.06  -0.13   0.19     0.21  -0.38   0.45
   8   1    -0.05  -0.06   0.05     0.06   0.06  -0.05    -0.06  -0.02   0.02
   9   1    -0.03   0.03   0.02     0.03  -0.04  -0.02    -0.01   0.01   0.00
  10   1    -0.01   0.01  -0.02     0.00  -0.00   0.00     0.01  -0.01   0.01
  11   1     0.03   0.03  -0.02     0.03   0.04  -0.02     0.01   0.01  -0.00
  12   1     0.01   0.01   0.02     0.00   0.00   0.00    -0.01  -0.01  -0.01
  13   1     0.05  -0.05  -0.05     0.07  -0.06  -0.05     0.06  -0.02  -0.02
  14   1     0.31   0.47  -0.25     0.31   0.48  -0.25     0.13   0.21  -0.08
  15   1     0.07   0.14   0.20     0.07   0.13   0.19    -0.21  -0.38  -0.46
                     37                     38                     39
                        a                      a                      a 
 Frequencies --  3042.5283              3053.1941              3053.5804
 Red. masses --     1.6311                 1.6098                 1.6024
 Frc consts  --     0.0000                 0.0000                 0.0000
 IR Inten    --    73.8912                15.0826                46.1991
 Raman Activ --     0.0000                 0.0000                 0.0000
 Depolar     --     0.0000                 0.0000                 0.0000
 Atom AN      X      Y      Z        X      Y      Z        X      Y      Z
   1   6    -0.01   0.06  -0.16    -0.13  -0.08   0.07    -0.12  -0.08   0.07
   2   6    -0.00   0.00  -0.01    -0.00  -0.00   0.01    -0.00   0.00   0.00
   3   8     0.00  -0.00   0.00    -0.00  -0.00  -0.00    -0.00  -0.00  -0.00
   4   6    -0.00  -0.00  -0.01     0.00  -0.00  -0.01    -0.00  -0.00   0.00
   5   6    -0.01  -0.06  -0.16     0.13  -0.08  -0.07    -0.12   0.08   0.07
   6   1    -0.13   0.20   0.07    -0.08   0.08   0.06    -0.08   0.09   0.06
   7   1     0.21  -0.39   0.46    -0.00  -0.03   0.04    -0.00  -0.03   0.04
   8   1    -0.07  -0.02   0.02     0.53   0.23  -0.35     0.52   0.23  -0.35
   9   1    -0.01   0.01   0.00     0.01  -0.01  -0.01     0.01  -0.01  -0.01
  10   1     0.01  -0.02   0.02    -0.01   0.01  -0.01    -0.00   0.00  -0.00
  11   1    -0.01  -0.01   0.00    -0.01  -0.01   0.01     0.01   0.01  -0.01
  12   1     0.01   0.02   0.02     0.01   0.01   0.01    -0.00  -0.00  -0.00
  13   1    -0.07   0.02   0.02    -0.52   0.23   0.35     0.53  -0.23  -0.35
  14   1    -0.12  -0.20   0.07     0.08   0.08  -0.06    -0.08  -0.09   0.06
  15   1     0.21   0.38   0.46     0.00  -0.03  -0.04    -0.00   0.03   0.04
