      -----------------------------------------------------------      
     |                   =====================                   |     
     |                           x T B                           |     
     |                   =====================                   |     
     |                         S. Grimme                         |     
     |          Mulliken Center for Theoretical Chemistry        |     
     |                    University of Bonn                     |     
      -----------------------------------------------------------      

   * xtb version 6.7.1 (edcfbbe) compiled by 'albert@albert-system' on 2024-07-22

   xtb is free software: you can redistribute it and/or modify it under
   the terms of the GNU Lesser General Public License as published by
   the Free Software Foundation, either version 3 of the License, or
   (at your option) any later version.
   
   xtb is distributed in the hope that it will be useful,
   but WITHOUT ANY WARRANTY; without even the implied warranty of
   MERCHANTABILITY or FITNESS FOR A PARTICULAR PURPOSE.  See the
   GNU Lesser General Public License for more details.
   
   Cite this work as:
   * C. Bannwarth, E. Caldeweyher, S. Ehlert, A. Hansen, P. Pracht,
     J. Seibert, S. Spicher, S. Grimme, WIREs Comput. Mol. Sci., 2020, 11,
     e01493. DOI: 10.1002/wcms.1493
   
   for GFN2-xTB:
   * C. Bannwarth, S. Ehlert and S. Grimme., J. Chem. Theory Comput., 2019,
     15, 1652-1671. DOI: 10.1021/acs.jctc.8b01176
   for GFN1-xTB:
   * S. Grimme, C. Bannwarth, P. Shushkov, J. Chem. Theory Comput., 2017,
     13, 1989-2009. DOI: 10.1021/acs.jctc.7b00118
   for GFN0-xTB:
   * P. Pracht, E. Caldeweyher, S. Ehlert, S. Grimme, ChemRxiv, 2019, preprint.
     DOI: 10.26434/chemrxiv.8326202.v1
   for GFN-FF:
   * S. Spicher and S. Grimme, Angew. Chem. Int. Ed., 2020, 59, 15665-15673.
     DOI: 10.1002/anie.202004239
   
   for ALPB and GBSA implicit solvation:
   * S. Ehlert, M. Stahn, S. Spicher, S. Grimme, J. Chem. Theory Comput.,
     2021, 17, 4250-4261. DOI: 10.1021/acs.jctc.1c00471
   
   for ddCOSMO and CPCM-X implicit solvation:
   * M. Stahn, S. Ehlert, S. Grimme, J. Phys. Chem. A,
     2023, XX, XXXX-XXXX. DOI: 10.1021/acs.jpca.3c04382
   
   for DFT-D4:
   * E. Caldeweyher, C. Bannwarth and S. Grimme, J. Chem. Phys., 2017,
     147, 034112. DOI: 10.1063/1.4993215
   * E. Caldeweyher, S. Ehlert, A. Hansen, H. Neugebauer, S. Spicher,
     C. Bannwarth and S. Grimme, J. Chem. Phys., 2019, 150, 154122.
     DOI: 10.1063/1.5090222
   * E. Caldeweyher, J.-M. Mewes, S. Ehlert and S. Grimme, Phys. Chem. Chem. Phys.
     2020, 22, 8499-8512. DOI: 10.1039/D0CP00502A
   
   for sTDA-xTB:
   * S. Grimme and C. Bannwarth, J. Chem. Phys., 2016, 145, 054103.
     DOI: 10.1063/1.4959605
   
   in the mass-spec context:
   * V. Asgeirsson, C. Bauer and S. Grimme, Chem. Sci., 2017, 8, 4879.
     DOI: 10.1039/c7sc00601b
   * J. Koopman and S. Grimme, ACS Omega 2019, 4, 12, 15120-15133.
     DOI: 10.1021/acsomega.9b02011
   
   for metadynamics refer to:
   * S. Grimme, J. Chem. Theory Comput., 2019, 155, 2847-2862
     DOI: 10.1021/acs.jctc.9b00143
   
   for SPH calculations refer to:
   * S. Spicher and S. Grimme, J. Chem. Theory Comput., 2021, 17, 1701-1714
     DOI: 10.1021/acs.jctc.0c01306
   
   for ONIOM refer to:
   * C. Plett, A. Katbashev, S. Ehlert, S. Grimme, M. Bursch,
     Phys. Chem. Chem. Phys., 2023, 25, 17860-17868. DOI: 10.1039/D3CP02178E
   
   for DIPRO refer to:
   * J. Kohn, N. Gildemeister, S. Grimme, D. Fazzi, A. Hansen,
     J. Chem. Phys., 2023, just accepted.
   
   for PTB refer to:
   * S. Grimme, M. Mueller, A. Hansen, J. Chem. Phys., 2023, 158, 124111.
     DOI: 10.1063/5.0137838
   
   with help from (in alphabetical order)
   P. Atkinson, C. Bannwarth, F. Bohle, G. Brandenburg, E. Caldeweyher
   M. Checinski, S. Dohm, S. Ehlert, S. Ehrlich, I. Gerasimov, C. Hölzer
   A. Katbashev, J. Kohn, J. Koopman, C. Lavigne, S. Lehtola, F. März, M. Müller,
   F. Musil, H. Neugebauer, J. Pisarek, C. Plett, P. Pracht, F. Pultar,
   J. Seibert, P. Shushkov, S. Spicher, M. Stahn, M. Steiner, T. Strunk,
   J. Stückrath, T. Rose, and J. Unsleber
   
 * started run on 2025/04/07 at 02:45:59.791     
   ID    Z sym.   atoms
    1    6 C      1, 2, 4, 5
    2    8 O      3
    3    1 H      6-15

           -------------------------------------------------
          |                Calculation Setup                |
           -------------------------------------------------

          program call               : /srv/scratch/z5358697/.xtb/bin/xtb xtb_rrho.coord --gfn2 --bhess vtight --chrg 0 --enso --norestart -I rrho-xcontrol-inp --parallel 1 --alpb water
          hostname                   : k140
          coordinate file            : xtb_rrho.coord
          omp threads                :                     1


           -------------------------------------------------
          |                 G F N 2 - x T B                 |
           -------------------------------------------------

        Reference                      10.1021/acs.jctc.8b01176
      * Hamiltonian:
        H0-scaling (s, p, d)           1.850000    2.230000    2.230000
        zeta-weighting                 0.500000
      * Dispersion:
        s8                             2.700000
        a1                             0.520000
        a2                             5.000000
        s9                             5.000000
      * Repulsion:
        kExp                           1.500000    1.000000
        rExp                           1.000000
      * Coulomb:
        alpha                          2.000000
        third order                    shell-resolved
        anisotropic                    true
        a3                             3.000000
        a5                             4.000000
        cn-shift                       1.200000
        cn-exp                         4.000000
        max-rad                        5.000000

      * Solvation model:               ALPB
        Solvent                        water
        Parameter file                 internal GFN2-xTB/ALPB
        Dielectric constant                8.0200E+01
        Reference state                gsolv [1 M gas/solution]
        Free energy shift                  1.0808E-03 Eh       6.7819E-01 kcal/mol
        Temperature                        2.9815E+02 K
        Density                            1.0000E+00 kg/L
        Solvent mass                       1.8000E+01 g/mol
        Interaction kernel             P16
        Born radius scaling (c1)           1.4744E+00
        Born radii integrator          GBOBC
        Born offset                        0.0000E+00 a0       0.0000E+00 AA
        H-bond correction              true
        Ion screening                  false
        Surface tension                    1.0000E-05 Eh       1.5569E+01 dyn/cm
        Grid points                               974 per atom

          ...................................................
          :                      SETUP                      :
          :.................................................:
          :  # basis functions                  30          :
          :  # atomic orbitals                  30          :
          :  # shells                           20          :
          :  # electrons                        32          :
          :  max. iterations                   250          :
          :  Hamiltonian                  GFN2-xTB          :
          :  restarted?                      false          :
          :  GBSA solvation                   true          :
          :  PC potential                    false          :
          :  electronic temp.          300.0000000     K    :
          :  accuracy                    1.0000000          :
          :  -> integral cutoff          0.2500000E+02      :
          :  -> integral neglect         0.1000000E-07      :
          :  -> SCF convergence          0.1000000E-05 Eh   :
          :  -> wf. convergence          0.1000000E-03 e    :
          :  Broyden damping             0.4000000          :
          :  net charge                          0          :
          :  unpaired electrons                  0          :
          ...................................................

 iter      E             dE          RMSdq      gap      omega  full diag
   1    -17.8842627 -0.178843E+02  0.353E+00   11.34       0.0  T
   2    -17.9232086 -0.389459E-01  0.170E+00   10.92       1.0  T
   3    -17.9238556 -0.646970E-03  0.712E-01   10.98       1.0  T
   4    -17.9240104 -0.154809E-03  0.115E-01   11.00       1.0  T
   5    -17.9240264 -0.159900E-04  0.618E-02   11.02       1.0  T
   6    -17.9240276 -0.118410E-05  0.733E-03   11.03       3.5  T
   7    -17.9240277 -0.143347E-06  0.238E-03   11.03      10.9  T
   8    -17.9240277 -0.504389E-08  0.110E-03   11.03      23.4  T
   9    -17.9240277 -0.395960E-08  0.151E-04   11.03     171.1  T
  10    -17.9240277  0.673630E-10  0.110E-04   11.03     235.6  T

   *** convergence criteria satisfied after 10 iterations ***

         #    Occupation            Energy/Eh            Energy/eV
      -------------------------------------------------------------
         1        2.0000           -0.6923449             -18.8397
       ...           ...                  ...                  ...
        10        2.0000           -0.4904457             -13.3457
        11        2.0000           -0.4687931             -12.7565
        12        2.0000           -0.4602358             -12.5237
        13        2.0000           -0.4591734             -12.4947
        14        2.0000           -0.4441822             -12.0868
        15        2.0000           -0.4270701             -11.6212
        16        2.0000           -0.3998683             -10.8810 (HOMO)
        17                          0.0053346               0.1452 (LUMO)
        18                          0.0730767               1.9885
        19                          0.1144917               3.1155
        20                          0.1194447               3.2503
        21                          0.1242586               3.3812
       ...                                ...                  ...
        30                          0.2827596               7.6943
      -------------------------------------------------------------
                  HL-Gap            0.4052030 Eh           11.0261 eV
             Fermi-level           -0.1972668 Eh           -5.3679 eV

 SCC (total)                   0 d,  0 h,  0 min,  0.015 sec
 SCC setup                      ...        0 min,  0.001 sec (  4.485%)
 Dispersion                     ...        0 min,  0.000 sec (  0.357%)
 classical contributions        ...        0 min,  0.000 sec (  0.079%)
 integral evaluation            ...        0 min,  0.001 sec (  6.286%)
 iterations                     ...        0 min,  0.011 sec ( 75.510%)
 molecular gradient             ...        0 min,  0.002 sec ( 12.566%)
 printout                       ...        0 min,  0.000 sec (  0.646%)

         :::::::::::::::::::::::::::::::::::::::::::::::::::::
         ::                     SUMMARY                     ::
         :::::::::::::::::::::::::::::::::::::::::::::::::::::
         :: total energy             -17.721551418606 Eh    ::
         :: total w/o Gsasa/hb       -17.721897422384 Eh    ::
         :: gradient norm              0.025278001575 Eh/a0 ::
         :: HOMO-LUMO gap             11.026134017072 eV    ::
         ::.................................................::
         :: SCC energy               -17.924015469820 Eh    ::
         :: -> isotropic ES            0.027479973222 Eh    ::
         :: -> anisotropic ES          0.004000373745 Eh    ::
         :: -> anisotropic XC          0.006705434230 Eh    ::
         :: -> dispersion             -0.007227163563 Eh    ::
         :: -> Gsolv                  -0.003536843258 Eh    ::
         ::    -> Gelec               -0.003882847036 Eh    ::
         ::    -> Gsasa                0.000231634258 Eh    ::
         ::    -> Ghb                 -0.000966390179 Eh    ::
         ::    -> Gshift               0.001080759698 Eh    ::
         :: repulsion energy           0.202464051213 Eh    ::
         :: add. restraining           0.000000000000 Eh    ::
         :: total charge              -0.000000000000 e     ::
         :::::::::::::::::::::::::::::::::::::::::::::::::::::

metadynamics with 1 initial structures loaded
           -------------------------------------------------
          |           Optimal kpush determination           |
           -------------------------------------------------
      ----------------------------------------------------------- 
     |                   =====================                   |
     |                        A N C O P T                        |
     |                   =====================                   |
     |               Approximate Normal Coordinate               |
     |                Rational Function Optimizer                |
      ----------------------------------------------------------- 
target rmsd / Å         0.100000
unbiased initial rmsd   0.097503
 
iter. min.        max.        rmsd       kpush
final kpush:  0.000000
           -------------------------------------------------
          |            Biased Numerical Hessian             |
           -------------------------------------------------
kpush                :   0.00000
alpha                :   1.00000
step length          :   0.00500
SCC accuracy         :   0.30000
Hessian scale factor :   1.00000
frozen atoms in %    :   0.00000    0
RMS gradient         :   0.00003
estimated CPU  time      0.01 min
estimated wall time      0.01 min

writing file <hessian>.

 projected vibrational frequencies (cm⁻¹)
eigval :       -0.00    -0.00     0.00     0.00     0.00     0.00
eigval :       30.79   131.34   204.48   266.41   291.21   439.88
eigval :      474.76   807.54   816.14   865.29   936.92  1047.41
eigval :     1068.27  1081.80  1106.99  1123.83  1181.42  1251.93
eigval :     1281.15  1326.65  1326.70  1393.00  1394.25  1459.58
eigval :     1461.54  1484.09  1486.49  1492.97  1495.75  2891.05
eigval :     2893.29  2965.28  2965.77  3037.07  3037.10  3042.34
eigval :     3042.53  3053.19  3053.58
           -------------------------------------------------
          |                Property Printout                |
           -------------------------------------------------

    * Orbital Energies and Occupations

         #    Occupation            Energy/Eh            Energy/eV
      -------------------------------------------------------------
         1        2.0000           -0.6966757             -18.9575
       ...           ...                  ...                  ...
         4        2.0000           -0.5962088             -16.2237
         5        2.0000           -0.5650477             -15.3757
         6        2.0000           -0.5491775             -14.9439
         7        2.0000           -0.5456650             -14.8483
         8        2.0000           -0.5165133             -14.0550
         9        2.0000           -0.4964504             -13.5091
        10        2.0000           -0.4924797             -13.4011
        11        2.0000           -0.4680084             -12.7352
        12        2.0000           -0.4618911             -12.5687
        13        2.0000           -0.4602258             -12.5234
        14        2.0000           -0.4438419             -12.0776
        15        2.0000           -0.4261195             -11.5953
        16        2.0000           -0.3988475             -10.8532 (HOMO)
        17                          0.0232219               0.6319 (LUMO)
        18                          0.0870439               2.3686
        19                          0.1183804               3.2213
        20                          0.1225454               3.3346
        21                          0.1235033               3.3607
        22                          0.1493192               4.0632
        23                          0.1684499               4.5838
        24                          0.1958907               5.3305
        25                          0.2007522               5.4627
        26                          0.2066296               5.6227
        27                          0.2472519               6.7281
       ...                                ...                  ...
        30                          0.2985965               8.1252
      -------------------------------------------------------------
                  HL-Gap            0.4220694 Eh           11.4851 eV
             Fermi-level           -0.1878128 Eh           -5.1106 eV

     #   Z          covCN         q      C6AA      α(0)
     1   6 C        3.750    -0.125    22.972     6.836
     2   6 C        3.685     0.077    19.485     6.320
     3   8 O        1.698    -0.370    20.266     6.078
     4   6 C        3.685     0.077    19.485     6.320
     5   6 C        3.750    -0.125    22.972     6.836
     6   1 H        0.925     0.047     2.358     2.401
     7   1 H        0.925     0.051     2.302     2.373
     8   1 H        0.925     0.054     2.272     2.357
     9   1 H        0.924     0.052     2.299     2.371
    10   1 H        0.924     0.030     2.592     2.518
    11   1 H        0.924     0.052     2.299     2.371
    12   1 H        0.924     0.030     2.592     2.518
    13   1 H        0.925     0.054     2.272     2.357
    14   1 H        0.925     0.047     2.358     2.401
    15   1 H        0.925     0.051     2.302     2.373

 Mol. C6AA /au·bohr⁶  :       1459.579226
 Mol. C8AA /au·bohr⁸  :      29709.668251
 Mol. α(0) /au        :         56.429666


Wiberg/Mayer (AO) data.
largest (>0.10) Wiberg bond orders for each atom

 ---------------------------------------------------------------------------
     #   Z sym  total        # sym  WBO       # sym  WBO       # sym  WBO
 ---------------------------------------------------------------------------
     1   6 C    3.994 --     2 C    1.010     7 H    0.987     6 H    0.985
                             8 H    0.984
     2   6 C    3.948 --     1 C    1.010     3 O    0.973     9 H    0.971
                            10 H    0.969
     3   8 O    2.047 --     4 C    0.973     2 C    0.973
     4   6 C    3.948 --     5 C    1.010     3 O    0.973    11 H    0.971
                            12 H    0.969
     5   6 C    3.994 --     4 C    1.010    15 H    0.987    14 H    0.985
                            13 H    0.984
     6   1 H    0.998 --     1 C    0.985
     7   1 H    0.997 --     1 C    0.987
     8   1 H    0.997 --     1 C    0.984
     9   1 H    0.997 --     2 C    0.971
    10   1 H    0.999 --     2 C    0.969
    11   1 H    0.997 --     4 C    0.971
    12   1 H    0.999 --     4 C    0.969
    13   1 H    0.997 --     5 C    0.984
    14   1 H    0.998 --     5 C    0.985
    15   1 H    0.997 --     5 C    0.987
 ---------------------------------------------------------------------------

Topologies differ in total number of bonds
Writing topology from bond orders to xtbtopo.mol

molecular dipole:
                 x           y           z       tot (Debye)
 q only:        0.000       0.629      -0.000
   full:        0.000       0.747      -0.000       1.898
molecular quadrupole (traceless):
                xx          xy          yy          xz          yz          zz
 q only:        2.919      -0.000      -2.726      -1.134       0.000      -0.193
  q+dip:        2.158      -0.000      -2.568      -0.830       0.000       0.410
   full:        2.575      -0.000      -2.834      -1.150       0.000       0.259

           -------------------------------------------------
          |                Geometry Summary                 |
           -------------------------------------------------

      molecular mass/u    :       74.1217560
   center of mass at/Å    :       -0.0000059      -0.0028449      -0.0000306
  moments of inertia/u·Å² :        0.5486555E+02   0.1708400E+03   0.1806506E+03
rotational constants/cm⁻¹ :        0.3072535E+00   0.9867498E-01   0.9331621E-01

 * 14 selected distances

     #   Z          #   Z                                           value/Å
     1   6 C        2   6 C                                       1.5269913
     2   6 C        3   8 O                                       1.4197225
     3   8 O        4   6 C                                       1.4197223
     4   6 C        5   6 C                                       1.5269914 (max)
     1   6 C        6   1 H                                       1.0870128
     1   6 C        7   1 H                                       1.0871634
     1   6 C        8   1 H                                       1.0856281
     2   6 C        9   1 H                                       1.0927251
     2   6 C       10   1 H                                       1.0971591
     4   6 C       11   1 H                                       1.0927250
     4   6 C       12   1 H                                       1.0971594
     5   6 C       13   1 H                                       1.0856279 (min)
     5   6 C       14   1 H                                       1.0870128
     5   6 C       15   1 H                                       1.0871636

 * 3 distinct bonds (by element types)

   Z      Z             #   av. dist./Å        max./Å        min./Å
   1 H    6 C          10     1.0899377     1.0971594     1.0856279
   6 C    6 C           2     1.5269913     1.5269914     1.5269913
   6 C    8 O           2     1.4197224     1.4197225     1.4197223

           -------------------------------------------------
          |               Frequency Printout                |
           -------------------------------------------------
 projected vibrational frequencies (cm⁻¹)
eigval :       -0.00    -0.00     0.00     0.00     0.00     0.00
eigval :       30.79   131.34   204.48   266.41   291.21   439.88
eigval :      474.76   807.54   816.14   865.29   936.92  1047.41
eigval :     1068.27  1081.80  1106.99  1123.83  1181.42  1251.93
eigval :     1281.15  1326.65  1326.70  1393.00  1394.25  1459.58
eigval :     1461.54  1484.09  1486.49  1492.97  1495.75  2891.05
eigval :     2893.29  2965.28  2965.77  3037.07  3037.10  3042.34
eigval :     3042.53  3053.19  3053.58
 reduced masses (amu)
   1: 11.02   2:  9.50   3: 10.23   4: 11.39   5: 10.06   6:  9.80   7:  7.89   8:  4.91
   9:  1.37  10:  4.95  11:  8.13  12: 10.74  13:  9.03  14:  2.17  15:  5.34  16:  6.40
  17:  8.22  18:  8.06  19:  9.29  20:  6.95  21:  8.59  22:  6.63  23:  6.70  24:  2.34
  25:  2.62  26:  3.58  27:  3.09  28:  3.16  29:  3.14  30:  1.87  31:  1.78  32:  1.57
  33:  1.56  34:  1.54  35:  1.60  36:  1.76  37:  1.75  38:  1.67  39:  1.66  40:  1.92
  41:  1.92  42:  1.63  43:  1.63  44:  1.61  45:  1.60
 IR intensities (km·mol⁻¹)
   1:  1.47   2:  0.62   3:  0.41   4:  0.50   5:  0.66   6:  0.00   7:  0.10   8:  5.05
   9:  0.29  10:  3.52  11:  0.36  12: 16.34  13:  6.66  14:  9.31  15: 22.05  16:  3.80
  17: 12.12  18: 26.36  19: 39.12  20:  0.21  21:119.57  22: 54.14  23: 17.61  24:  2.26
  25:  1.98  26: 21.97  27: 24.23  28:  5.34  29: 14.29  30:  1.16  31:  0.02  32:  3.17
  33:  3.37  34:  1.72  35:  0.66  36:113.10  37: 51.86  38: 31.43  39: 66.12  40: 75.79
  41: 43.89  42:  3.22  43: 73.89  44: 15.08  45: 46.20
 Raman intensities (Ä⁴*amu⁻¹)
   1:  0.00   2:  0.00   3:  0.00   4:  0.00   5:  0.00   6:  0.00   7:  0.00   8:  0.00
   9:  0.00  10:  0.00  11:  0.00  12:  0.00  13:  0.00  14:  0.00  15:  0.00  16:  0.00
  17:  0.00  18:  0.00  19:  0.00  20:  0.00  21:  0.00  22:  0.00  23:  0.00  24:  0.00
  25:  0.00  26:  0.00  27:  0.00  28:  0.00  29:  0.00  30:  0.00  31:  0.00  32:  0.00
  33:  0.00  34:  0.00  35:  0.00  36:  0.00  37:  0.00  38:  0.00  39:  0.00  40:  0.00
  41:  0.00  42:  0.00  43:  0.00  44:  0.00  45:  0.00
 output can be read by thermo (or use thermo option).
 writing <g98.out> molden fake output.
 recommended (thermochemical) frequency scaling factor: 1.0
           -------------------------------------------------
          |             Thermodynamic Functions             |
           -------------------------------------------------

Molecule has the following symmetry elements: (C2) 
It seems to be the C2 point group
c2  symmetry found (for desy threshold:  0.10E+00) used in thermo

          ...................................................
          :                      SETUP                      :
          :.................................................:
          :  # frequencies                          39      :
          :  # imaginary freq.                       0      :
          :  linear?                             false      :
          :  only rotor calc.                    false      :
          :  symmetry                               c2      :
          :  rotational number                       2      :
          :  scaling factor                  1.0000000      :
          :  rotor cutoff                    0.0000000 cm⁻¹ :
          :  imag. cutoff                 -100.0000000 cm⁻¹ :
          :.................................................:

    mode    ω/cm⁻¹     T·S(HO)/kcal·mol⁻¹    T·S(FR)/kcal·mol⁻¹   T·S(vib)
   ------------------------------------------------------------------------
       1     30.79    -1.72259 (100.00%)    -1.19895 (  0.00%)    -1.72259
       2    131.34    -0.87247 (100.00%)    -0.77016 (  0.00%)    -0.87247
       3    204.48    -0.62384 (100.00%)    -0.63913 (  0.00%)    -0.62384
       4    266.41    -0.48282 (100.00%)    -0.56079 (  0.00%)    -0.48282
       5    291.21    -0.43737 (100.00%)    -0.53444 (  0.00%)    -0.43737
   ------------------------------------------------------------------------

   temp. (K)  partition function   enthalpy   heat capacity  entropy
                                   cal/mol     cal/K/mol   cal/K/mol   J/K/mol
 298.15  VIB   63.7                 2522.302     17.104     16.714
         ROT  0.497E+05              888.752      2.981     24.471
         INT  0.316E+07             3411.054     20.085     41.185
         TR   0.617E+27             1481.254      4.968     38.808
         TOT                        4892.3082    25.0528    79.9924   334.6880

       T/K    H(0)-H(T)+PV         H(T)/Eh          T*S/Eh         G(T)/Eh
   ------------------------------------------------------------------------
    298.15    0.779639E-02    0.141547E+00    0.380069E-01    0.103540E+00
   ------------------------------------------------------------------------

         :::::::::::::::::::::::::::::::::::::::::::::::::::::
         ::                  THERMODYNAMIC                  ::
         :::::::::::::::::::::::::::::::::::::::::::::::::::::
         :: total free energy         -17.619121337484 Eh   ::
         ::.................................................::
         :: total energy              -17.722661530688 Eh   ::
         :: zero point energy           0.133750753269 Eh   ::
         :: G(RRHO) w/o ZPVE           -0.030210560066 Eh   ::
         :: G(RRHO) contrib.            0.103540193203 Eh   ::
         :::::::::::::::::::::::::::::::::::::::::::::::::::::

optimized geometry written to: xtbopt.coord


           -------------------------------------------------
          | TOTAL ENERGY              -17.722661530688 Eh   |
          | TOTAL ENTHALPY            -17.581114388013 Eh   |
          | TOTAL FREE ENERGY         -17.619121337484 Eh   |
          | GRADIENT NORM               0.000025593834 Eh/α |
          | HOMO-LUMO GAP              11.485091970876 eV   |
           -------------------------------------------------

------------------------------------------------------------------------
 * finished run on 2025/04/07 at 02:46:00.609     
------------------------------------------------------------------------
 total:
 * wall-time:     0 d,  0 h,  0 min,  0.817 sec
 *  cpu-time:     0 d,  0 h,  0 min,  0.724 sec
 * ratio c/w:     0.886 speedup
 SCF:
 * wall-time:     0 d,  0 h,  0 min,  0.015 sec
 *  cpu-time:     0 d,  0 h,  0 min,  0.008 sec
 * ratio c/w:     0.493 speedup
 analytical hessian:
 * wall-time:     0 d,  0 h,  0 min,  0.396 sec
 *  cpu-time:     0 d,  0 h,  0 min,  0.388 sec
 * ratio c/w:     0.979 speedup

