! wb97x-v def2-tzvp def2/J RIJCOSX DEFGRID2 scfconv7 GCP(DFT/TZ) printgap
%output
    printlevel normal
end
%cpcm
    smd true
    smdsolvent "water"
end
* xyz 0 1
C -3.610985117198551 -1.4899522384119221 0.042747575598945035
C -4.733992069470805 -0.6124993367521924 0.5413461436150419
C -4.638101265692486 0.7068587262166364 0.7473541643443016
C -3.417490991507347 1.5400243004164076 0.4390463817200295
C -2.4923908305222287 0.7079750852284264 -0.42608102544951487
H -2.9357777082215595 0.6050193362271133 -1.4306716110317248
C -2.3226813062743688 -0.7002456904348549 0.14726976029486588
H -2.0475526095725973 -0.592690881948081 1.2099840946961165
C -1.0706993771085764 -1.1983905424812302 -0.5087805553922243
O -0.7086792924398644 -2.3265108037120026 -0.7423679092213445
N -0.30793394305937805 -0.023118298266626227 -0.8049863114965851
C -1.0877011290339333 1.1675668808210051 -0.689391268979915
O -0.6599686841187835 2.2866180473116873 -0.8467243879233695
S 1.3003189043433039 -0.054406248417596115 -1.370775977333001
C 2.2391936887336485 -0.01491867605648401 0.2086699651664418
Cl 3.9432891873082565 -0.08287854640857859 -0.3532824705485602
Cl 1.9612285945795527 1.4821428219633908 1.1554108064870832
Cl 1.87971744536834 -1.418448290532764 1.2672865325068259
H -3.793473074527623 -1.799279825075493 -0.9954490778029199
H -3.5612803880848474 -2.40584210525886 0.6407207122159938
H -5.673589835197177 -1.1131598537867724 0.7631760578891275
H -5.497354687090504 1.2414714613019648 1.1456590140670015
H -3.7151392423112397 2.459682762869031 -0.07523884486542913
H -2.91202963484342 1.8436724122517674 1.365907115511164
*
