 Entering Gaussian System
 *********************************************
 Gaussian 98:
 frequency output generated by the xtb code
 *********************************************
                         Standard orientation:
 --------------------------------------------------------------------
  Center     Atomic     Atomic              Coordinates (Angstroms)
  Number     Number      Type              X           Y           Z
 --------------------------------------------------------------------
    1          6             0       -2.526458    0.479492   -0.109497
    2          6             0       -2.220071   -0.864796   -0.251275
    3          6             0       -0.913604   -1.295963   -0.115986
    4          6             0        0.085108   -0.370869    0.160733
    5          6             0       -0.210069    0.974295    0.313217
    6          6             0       -1.524331    1.391265    0.173163
    7          8             0        1.374462   -0.903926    0.322391
    8          6             0        2.469879   -0.257070    0.003491
    9          8             0        2.576755    0.841208   -0.476728
   10          1             0       -3.545614    0.815321   -0.216961
   11          1             0       -2.997612   -1.579794   -0.467924
   12          1             0       -0.648652   -2.335628   -0.219984
   13          1             0        0.569591    1.685217    0.533694
   14          1             0       -1.758666    2.437551    0.289412
   15          1             0        3.332651   -0.900541    0.237927
 --------------------------------------------------------------------
     1 basis functions        1 primitive gaussians
     1 alpha electrons        1 beta electrons
 
 Harmonic frequencies (cm**-1), IR intensities (km*mol⁻¹),
 Raman scattering activities (A**4/amu), Raman depolarization ratios,
 reduced masses (AMU), force constants (mDyne/A) and normal coordinates:
                      1                      2                      3
                        a                      a                      a 
 Frequencies --    26.2060               144.1081               196.6594
 Red. masses --    13.3975                12.1825                10.4366
 Frc consts  --     0.0000                 0.0000                 0.0000
 IR Inten    --     3.4552                 6.6213                 9.1865
 Raman Activ --     0.0000                 0.0000                 0.0000
 Depolar     --     0.0000                 0.0000                 0.0000
 Atom AN      X      Y      Z        X      Y      Z        X      Y      Z
   1   6    -0.06  -0.02   0.14    -0.18  -0.13   0.27    -0.08  -0.08  -0.25
   2   6    -0.10  -0.04   0.29    -0.02  -0.06  -0.02     0.04  -0.07  -0.06
   3   6    -0.09  -0.04   0.13     0.05   0.09  -0.25     0.04   0.07   0.23
   4   6    -0.02  -0.01  -0.19    -0.03   0.16  -0.20    -0.04   0.17   0.24
   5   6     0.02   0.02  -0.34    -0.14   0.13  -0.16    -0.18   0.13   0.27
   6   6    -0.00   0.01  -0.18    -0.23  -0.02   0.13    -0.22  -0.01   0.02
   7   8    -0.03  -0.08  -0.42    -0.07   0.20   0.09    -0.03   0.12  -0.08
   8   6     0.05  -0.03  -0.00     0.11  -0.05   0.23     0.06  -0.22  -0.38
   9   8     0.23   0.20   0.55     0.49  -0.29  -0.17     0.40  -0.05   0.10
  10   1    -0.02  -0.01   0.08    -0.07  -0.07   0.17    -0.02  -0.04  -0.16
  11   1    -0.04  -0.02   0.16     0.01  -0.04   0.00     0.04  -0.04  -0.05
  12   1    -0.03  -0.02   0.07     0.04   0.04  -0.11     0.05   0.03   0.09
  13   1     0.02   0.02  -0.17    -0.05   0.06  -0.07    -0.08   0.06   0.10
  14   1     0.01   0.01  -0.09    -0.10  -0.02   0.08    -0.10  -0.01  -0.01
  15   1    -0.01  -0.06  -0.06    -0.01  -0.02   0.22    -0.03  -0.20  -0.31
                      4                      5                      6
                        a                      a                      a 
 Frequencies --   286.7019               373.1086               375.7319
 Red. masses --    11.0968                 9.5062                11.2189
 Frc consts  --     0.0000                 0.0000                 0.0000
 IR Inten    --     9.6705                 2.8234                11.4578
 Raman Activ --     0.0000                 0.0000                 0.0000
 Depolar     --     0.0000                 0.0000                 0.0000
 Atom AN      X      Y      Z        X      Y      Z        X      Y      Z
   1   6     0.02  -0.11   0.25    -0.05   0.03   0.08     0.08  -0.08  -0.18
   2   6     0.17  -0.05  -0.05    -0.13  -0.02   0.33     0.11  -0.12   0.28
   3   6     0.23   0.15  -0.21    -0.03  -0.01  -0.43     0.19   0.16  -0.04
   4   6     0.09   0.20   0.05    -0.05  -0.12   0.06     0.09   0.27  -0.15
   5   6     0.06   0.23  -0.22    -0.07  -0.16   0.32    -0.01   0.21   0.31
   6   6    -0.02   0.04  -0.10     0.07   0.04  -0.41    -0.04   0.04  -0.09
   7   8    -0.06  -0.08   0.29     0.05   0.10   0.19    -0.12  -0.19  -0.39
   8   6    -0.10  -0.26  -0.21     0.03   0.03  -0.11    -0.04  -0.07   0.23
   9   8    -0.37  -0.08   0.23     0.15   0.08   0.01    -0.23  -0.19  -0.02
  10   1    -0.02  -0.07   0.17    -0.01   0.02   0.05     0.02  -0.04  -0.11
  11   1     0.07  -0.03  -0.02    -0.06  -0.01   0.20     0.04  -0.07   0.18
  12   1     0.12   0.06  -0.10    -0.02   0.01  -0.27     0.13   0.07  -0.02
  13   1    -0.00   0.10  -0.10    -0.02  -0.08   0.21    -0.04   0.07   0.19
  14   1    -0.04   0.01  -0.05     0.06   0.04  -0.26    -0.06   0.00  -0.05
  15   1    -0.01  -0.13  -0.28    -0.00  -0.03  -0.11     0.00   0.06   0.22
                      7                      8                      9
                        a                      a                      a 
 Frequencies --   470.1299               498.3056               583.6368
 Red. masses --    12.5012                10.2439                11.2303
 Frc consts  --     0.0000                 0.0000                 0.0000
 IR Inten    --     4.4944                 2.2363                 0.0779
 Raman Activ --     0.0000                 0.0000                 0.0000
 Depolar     --     0.0000                 0.0000                 0.0000
 Atom AN      X      Y      Z        X      Y      Z        X      Y      Z
   1   6    -0.42   0.12  -0.02    -0.02  -0.09   0.33    -0.06  -0.16  -0.07
   2   6    -0.08   0.21   0.00     0.03  -0.02  -0.25    -0.43  -0.20  -0.07
   3   6    -0.02   0.26   0.03    -0.00   0.04   0.06    -0.23   0.37  -0.01
   4   6     0.27  -0.04   0.09    -0.09  -0.01   0.57     0.06   0.15   0.01
   5   6    -0.16  -0.08  -0.03     0.04   0.07   0.08     0.40   0.15   0.05
   6   6    -0.23  -0.09  -0.07     0.05   0.02  -0.25     0.23  -0.44   0.00
   7   8     0.46  -0.28  -0.01    -0.07  -0.14  -0.34    -0.00   0.01   0.09
   8   6     0.34  -0.06   0.04    -0.06   0.10   0.12    -0.01   0.04  -0.02
   9   8    -0.16  -0.04   0.00     0.08   0.00  -0.10     0.04   0.05  -0.01
  10   1    -0.12   0.03  -0.01    -0.01  -0.02   0.11     0.03   0.10   0.01
  11   1     0.03   0.00  -0.01     0.04   0.02  -0.26    -0.08  -0.10   0.00
  12   1    -0.08   0.06  -0.02     0.05   0.04  -0.14    -0.01   0.11   0.03
  13   1    -0.11   0.05  -0.03     0.03   0.05  -0.13     0.06   0.09   0.03
  14   1    -0.01  -0.01  -0.03     0.02   0.03  -0.26     0.01  -0.14   0.01
  15   1     0.15   0.06   0.01    -0.02   0.06   0.14    -0.00   0.01  -0.02
                     10                     11                     12
                        a                      a                      a 
 Frequencies --   653.1299               731.7256               759.9691
 Red. masses --     9.9033                10.8581                 5.9606
 Frc consts  --     0.0000                 0.0000                 0.0000
 IR Inten    --     1.7041                11.6191                48.2112
 Raman Activ --     0.0000                 0.0000                 0.0000
 Depolar     --     0.0000                 0.0000                 0.0000
 Atom AN      X      Y      Z        X      Y      Z        X      Y      Z
   1   6    -0.05  -0.05   0.31     0.25  -0.09   0.08    -0.17   0.03   0.14
   2   6     0.03   0.04  -0.37    -0.27  -0.23  -0.02     0.11   0.12   0.14
   3   6    -0.06  -0.04   0.31    -0.21  -0.17   0.00     0.07   0.05   0.18
   4   6     0.06   0.07  -0.45    -0.20   0.06  -0.07     0.14   0.01  -0.30
   5   6    -0.03  -0.05   0.31    -0.04   0.17   0.08     0.02  -0.17   0.15
   6   6     0.07   0.04  -0.36    -0.02   0.24   0.09     0.04  -0.23   0.08
   7   8     0.01   0.07   0.03     0.25   0.21  -0.04    -0.14   0.19   0.04
   8   6     0.05  -0.04  -0.02     0.45  -0.15   0.03    -0.10  -0.04  -0.02
   9   8    -0.05  -0.02   0.03    -0.24  -0.11   0.07    -0.03  -0.03   0.04
  10   1    -0.04  -0.03   0.25     0.10   0.02  -0.15     0.02   0.08  -0.40
  11   1    -0.00  -0.00  -0.02    -0.12   0.04  -0.16     0.13   0.04  -0.32
  12   1    -0.04  -0.03   0.25     0.01  -0.02  -0.14     0.03   0.05  -0.27
  13   1    -0.03  -0.04   0.25     0.06   0.02  -0.14     0.03   0.02  -0.28
  14   1     0.00  -0.00  -0.02    -0.07   0.07  -0.15     0.13   0.00  -0.33
  15   1     0.01  -0.01  -0.01     0.15  -0.01  -0.01    -0.05  -0.04   0.00
                     13                     14                     15
                        a                      a                      a 
 Frequencies --   814.5013               868.8113               898.1624
 Red. masses --    13.2023                 3.3487                 3.5408
 Frc consts  --     0.0000                 0.0000                 0.0000
 IR Inten    --    80.3113                 0.4576                 1.8886
 Raman Activ --     0.0000                 0.0000                 0.0000
 Depolar     --     0.0000                 0.0000                 0.0000
 Atom AN      X      Y      Z        X      Y      Z        X      Y      Z
   1   6    -0.12   0.07  -0.09    -0.01   0.01  -0.01     0.05   0.04  -0.28
   2   6     0.10   0.13   0.00     0.04   0.04  -0.18     0.01   0.01  -0.05
   3   6     0.06  -0.01  -0.04     0.04   0.03  -0.26    -0.04  -0.04   0.25
   4   6    -0.02  -0.04   0.24    -0.01  -0.00   0.01     0.01   0.01  -0.08
   5   6     0.07  -0.16  -0.08    -0.03  -0.04   0.27    -0.04  -0.02   0.24
   6   6     0.11  -0.25  -0.06    -0.02  -0.04   0.17     0.01   0.01  -0.07
   7   8    -0.13   0.62  -0.26    -0.00   0.02  -0.01     0.01  -0.03   0.04
   8   6     0.24  -0.15   0.09     0.00  -0.01  -0.00    -0.03  -0.00  -0.02
   9   8    -0.26  -0.20   0.08    -0.01  -0.00   0.00     0.01   0.01   0.00
  10   1    -0.05   0.02   0.17    -0.01   0.00   0.02    -0.07  -0.06   0.44
  11   1     0.04  -0.01   0.11    -0.05  -0.05   0.37    -0.03  -0.02   0.18
  12   1    -0.03  -0.02   0.02    -0.07  -0.07   0.49     0.07   0.07  -0.50
  13   1     0.00  -0.06   0.08     0.07   0.08  -0.51     0.06   0.08  -0.47
  14   1     0.08  -0.07   0.13     0.06   0.05  -0.34    -0.04  -0.03   0.21
  15   1     0.00  -0.12   0.00     0.00   0.00   0.00     0.00   0.02   0.01
                     16                     17                     18
                        a                      a                      a 
 Frequencies --   923.8624               927.0828               928.7754
 Red. masses --     4.1225                 5.4888                 3.3014
 Frc consts  --     0.0000                 0.0000                 0.0000
 IR Inten    --     0.1223                 6.5869                 0.0576
 Raman Activ --     0.0000                 0.0000                 0.0000
 Depolar     --     0.0000                 0.0000                 0.0000
 Atom AN      X      Y      Z        X      Y      Z        X      Y      Z
   1   6     0.00  -0.01   0.03    -0.01   0.01  -0.04     0.05   0.04  -0.30
   2   6     0.04   0.03  -0.31     0.02   0.02  -0.02    -0.03  -0.03   0.18
   3   6    -0.04  -0.02   0.22     0.01   0.00   0.03    -0.00   0.01   0.00
   4   6     0.01  -0.00  -0.00    -0.02  -0.01   0.04     0.02   0.01  -0.08
   5   6     0.02   0.02  -0.21     0.02   0.01  -0.06     0.00   0.00  -0.04
   6   6    -0.05  -0.03   0.27    -0.01  -0.02   0.08    -0.04  -0.03   0.24
   7   8     0.00  -0.02  -0.01    -0.01   0.07   0.08    -0.00  -0.02  -0.01
   8   6    -0.00   0.04   0.09    -0.01  -0.23  -0.53     0.00   0.04   0.08
   9   8     0.00  -0.01  -0.03    -0.00   0.06   0.16     0.00  -0.01  -0.03
  10   1     0.01   0.01  -0.06    -0.02  -0.01   0.09    -0.08  -0.08   0.57
  11   1    -0.08  -0.08   0.52     0.00  -0.01   0.03     0.06   0.05  -0.39
  12   1     0.05   0.05  -0.36     0.00   0.00  -0.03    -0.01  -0.01   0.11
  13   1    -0.04  -0.05   0.30    -0.01  -0.02   0.11    -0.02  -0.03   0.16
  14   1     0.06   0.06  -0.42     0.02   0.02  -0.15     0.07   0.07  -0.48
  15   1    -0.01  -0.05  -0.12     0.03   0.29   0.69    -0.01  -0.05  -0.11
                     19                     20                     21
                        a                      a                      a 
 Frequencies --   976.2055              1075.1174              1112.7143
 Red. masses --    11.1456                 6.2423                 3.9335
 Frc consts  --     0.0000                 0.0000                 0.0000
 IR Inten    --    14.0711                 2.0416                 3.6184
 Raman Activ --     0.0000                 0.0000                 0.0000
 Depolar     --     0.0000                 0.0000                 0.0000
 Atom AN      X      Y      Z        X      Y      Z        X      Y      Z
   1   6     0.37  -0.12   0.04    -0.40   0.17  -0.04     0.13   0.15   0.04
   2   6    -0.13  -0.17  -0.04    -0.18  -0.31  -0.07    -0.10  -0.00  -0.02
   3   6    -0.03   0.52   0.06     0.15  -0.08   0.01     0.12  -0.15   0.00
   4   6     0.25  -0.09   0.04    -0.02   0.02   0.00    -0.04   0.13   0.01
   5   6    -0.33  -0.42  -0.10     0.12  -0.07   0.01    -0.27  -0.08  -0.05
   6   6    -0.01   0.21   0.02     0.05   0.31   0.05     0.05  -0.26  -0.03
   7   8    -0.06   0.12  -0.04     0.03   0.01  -0.01    -0.01  -0.07   0.02
   8   6    -0.06  -0.01  -0.01    -0.03  -0.01   0.00     0.04   0.01  -0.01
   9   8    -0.01  -0.03   0.02    -0.00  -0.01   0.00     0.01   0.02  -0.01
  10   1     0.10  -0.03   0.01    -0.11   0.09  -0.00     0.14   0.38   0.08
  11   1     0.01  -0.09  -0.01     0.11  -0.27  -0.02    -0.25   0.24  -0.00
  12   1     0.02   0.15   0.03     0.44   0.07   0.07     0.48   0.06   0.07
  13   1    -0.06  -0.14  -0.05     0.20  -0.19  -0.01    -0.33   0.24  -0.00
  14   1     0.07   0.06   0.03     0.32   0.15   0.07     0.17  -0.04   0.02
  15   1    -0.05  -0.03   0.03    -0.00   0.00  -0.00     0.02   0.02   0.00
                     22                     23                     24
                        a                      a                      a 
 Frequencies --  1128.7632              1174.1662              1176.1714
 Red. masses --    10.4608                 2.4259                 8.0065
 Frc consts  --     0.0000                 0.0000                 0.0000
 IR Inten    --    94.1491                40.2606               328.2489
 Raman Activ --     0.0000                 0.0000                 0.0000
 Depolar     --     0.0000                 0.0000                 0.0000
 Atom AN      X      Y      Z        X      Y      Z        X      Y      Z
   1   6     0.06  -0.06   0.00    -0.02  -0.09  -0.02     0.05  -0.01   0.01
   2   6     0.20   0.15   0.05    -0.04   0.11   0.01     0.04   0.14   0.03
   3   6    -0.07   0.22   0.02    -0.05   0.06   0.00     0.05   0.10   0.02
   4   6    -0.48   0.11  -0.06    -0.01   0.03   0.00    -0.30   0.03  -0.04
   5   6    -0.07  -0.11  -0.03     0.11  -0.05   0.01    -0.06  -0.04  -0.02
   6   6     0.05  -0.15  -0.01    -0.02  -0.01  -0.00    -0.03  -0.12  -0.02
   7   8    -0.28  -0.24   0.11     0.18   0.07  -0.03     0.47   0.10  -0.06
   8   6     0.45   0.02  -0.02    -0.16  -0.01   0.01    -0.35  -0.03   0.03
   9   8     0.00   0.16  -0.07    -0.00  -0.06   0.03     0.01  -0.14   0.06
  10   1    -0.02  -0.14  -0.02    -0.19  -0.63  -0.12     0.10   0.25   0.05
  11   1     0.13  -0.04   0.02    -0.37   0.43   0.00     0.06  -0.01   0.01
  12   1     0.20   0.12   0.04     0.29   0.09   0.05     0.19   0.07   0.04
  13   1     0.16  -0.23  -0.02     0.06  -0.05   0.00     0.26  -0.32  -0.01
  14   1     0.05  -0.04   0.00     0.16   0.03   0.03    -0.38  -0.11  -0.07
  15   1     0.15   0.06  -0.04    -0.03  -0.00   0.00    -0.03   0.04  -0.02
                     25                     26                     27
                        a                      a                      a 
 Frequencies --  1197.1834              1269.7857              1318.3773
 Red. masses --     6.1512                 3.4733                11.7972
 Frc consts  --     0.0000                 0.0000                 0.0000
 IR Inten    --   212.7496                 0.3356                 5.7631
 Raman Activ --     0.0000                 0.0000                 0.0000
 Depolar     --     0.0000                 0.0000                 0.0000
 Atom AN      X      Y      Z        X      Y      Z        X      Y      Z
   1   6    -0.07   0.05  -0.00    -0.06  -0.15  -0.03    -0.13  -0.38  -0.07
   2   6    -0.10  -0.00  -0.02     0.05  -0.14  -0.01    -0.27   0.28  -0.00
   3   6     0.10  -0.05   0.01     0.20   0.01   0.03     0.39   0.07   0.07
   4   6     0.36  -0.13   0.04     0.06   0.27   0.04    -0.09  -0.39  -0.06
   5   6     0.16  -0.06   0.02    -0.14   0.08  -0.01    -0.27   0.31   0.00
   6   6    -0.14   0.09  -0.01    -0.11  -0.07  -0.03     0.39   0.09   0.07
   7   8    -0.35  -0.03   0.03    -0.04  -0.06   0.01    -0.03  -0.00  -0.00
   8   6     0.22   0.02  -0.02    -0.00  -0.01   0.01     0.06   0.01  -0.01
   9   8    -0.01   0.09  -0.04     0.01   0.02  -0.01    -0.02   0.02  -0.01
  10   1     0.01   0.11   0.02     0.07   0.25   0.05    -0.00   0.01   0.00
  11   1    -0.23   0.21  -0.00    -0.29   0.30  -0.00    -0.02   0.02   0.00
  12   1     0.22   0.02   0.03    -0.37  -0.10  -0.07     0.01  -0.00   0.00
  13   1     0.21  -0.19  -0.01     0.32  -0.37  -0.01     0.00   0.00   0.00
  14   1    -0.56  -0.08  -0.10     0.35   0.06   0.06     0.01   0.01   0.00
  15   1    -0.01  -0.05   0.02     0.05   0.06  -0.02    -0.08  -0.11   0.04
                     28                     29                     30
                        a                      a                      a 
 Frequencies --  1351.8888              1434.4571              1452.6016
 Red. masses --     2.7117                 9.0402                 8.7545
 Frc consts  --     0.0000                 0.0000                 0.0000
 IR Inten    --    20.1167                 1.2626                27.6266
 Raman Activ --     0.0000                 0.0000                 0.0000
 Depolar     --     0.0000                 0.0000                 0.0000
 Atom AN      X      Y      Z        X      Y      Z        X      Y      Z
   1   6    -0.02  -0.02  -0.01     0.14   0.35   0.07     0.22  -0.15   0.01
   2   6    -0.09   0.04  -0.01    -0.34   0.05  -0.04    -0.08   0.33   0.03
   3   6     0.08  -0.01   0.01     0.16  -0.23  -0.01    -0.32  -0.18  -0.07
   4   6     0.05  -0.06   0.01     0.16   0.37   0.07     0.34  -0.14   0.03
   5   6    -0.03  -0.01  -0.01    -0.32   0.00  -0.05    -0.09   0.33   0.04
   6   6     0.10   0.03   0.02     0.25  -0.21   0.01    -0.30  -0.15  -0.07
   7   8    -0.16   0.09  -0.03    -0.00  -0.06   0.00    -0.05   0.04  -0.01
   8   6    -0.14  -0.10   0.05    -0.00  -0.01   0.00    -0.03  -0.00   0.00
   9   8     0.09  -0.14   0.06     0.00   0.04  -0.02     0.00  -0.01   0.00
  10   1    -0.02  -0.05  -0.01    -0.10  -0.34  -0.06     0.09   0.02   0.02
  11   1    -0.00  -0.02  -0.00     0.09  -0.20  -0.01     0.20  -0.15   0.01
  12   1    -0.00  -0.01  -0.00    -0.08  -0.10  -0.03     0.26   0.03   0.04
  13   1    -0.04   0.04   0.01     0.09  -0.20  -0.02     0.21  -0.16   0.01
  14   1    -0.07  -0.01  -0.01    -0.13  -0.11  -0.04     0.28   0.03   0.05
  15   1     0.56   0.67  -0.32    -0.04  -0.04   0.03     0.02   0.04  -0.02
                     31                     32                     33
                        a                      a                      a 
 Frequencies --  1586.2547              1592.1688              1710.7949
 Red. masses --    11.4966                11.5954                13.4502
 Frc consts  --     0.0000                 0.0000                 0.0000
 IR Inten    --    10.6018                 2.3441               886.3119
 Raman Activ --     0.0000                 0.0000                 0.0000
 Depolar     --     0.0000                 0.0000                 0.0000
 Atom AN      X      Y      Z        X      Y      Z        X      Y      Z
   1   6     0.16  -0.21  -0.01    -0.22  -0.45  -0.10     0.00   0.01   0.00
   2   6    -0.39   0.36  -0.01     0.09   0.21   0.04     0.01  -0.01   0.00
   3   6     0.37  -0.10   0.04    -0.33  -0.20  -0.08    -0.01   0.02  -0.00
   4   6    -0.14   0.21   0.01     0.18   0.45   0.09    -0.00  -0.04  -0.00
   5   6     0.36  -0.33   0.01    -0.06  -0.24  -0.04     0.00   0.01   0.00
   6   6    -0.38   0.07  -0.05     0.35   0.23   0.09    -0.01  -0.00  -0.00
   7   8    -0.01  -0.02   0.00     0.02  -0.03   0.00     0.05   0.06  -0.02
   8   6     0.01  -0.01   0.00    -0.02  -0.01   0.01    -0.13  -0.70   0.31
   9   8    -0.00   0.02  -0.01     0.00   0.02  -0.01     0.04   0.57  -0.25
  10   1     0.06   0.01   0.01     0.01   0.11   0.02     0.00  -0.00   0.00
  11   1     0.07  -0.10  -0.00     0.05   0.02   0.01    -0.00   0.00   0.00
  12   1    -0.06  -0.06  -0.02     0.08  -0.01   0.01     0.01   0.01   0.00
  13   1    -0.06   0.09   0.00    -0.07  -0.01  -0.01    -0.01   0.01   0.01
  14   1     0.07   0.05   0.02    -0.10   0.02  -0.01    -0.00  -0.00  -0.00
  15   1    -0.00  -0.01   0.01    -0.01  -0.01   0.01     0.08  -0.06   0.02
                     34                     35                     36
                        a                      a                      a 
 Frequencies --  2843.1928              3094.9032              3099.4468
 Red. masses --     1.7080                 1.7604                 1.8086
 Frc consts  --     0.0000                 0.0000                 0.0000
 IR Inten    --   122.7603                 1.2342                21.9452
 Raman Activ --     0.0000                 0.0000                 0.0000
 Depolar     --     0.0000                 0.0000                 0.0000
 Atom AN      X      Y      Z        X      Y      Z        X      Y      Z
   1   6     0.00  -0.00   0.00    -0.17   0.06  -0.02    -0.02   0.01  -0.00
   2   6    -0.00   0.00   0.00     0.07   0.07   0.02     0.14   0.12   0.04
   3   6     0.00  -0.00   0.00     0.01  -0.02  -0.00     0.02  -0.07  -0.01
   4   6    -0.00   0.00  -0.00     0.00  -0.00   0.00    -0.00  -0.00  -0.00
   5   6     0.00  -0.00  -0.00     0.02   0.02   0.01    -0.04  -0.03  -0.01
   6   6    -0.00   0.00   0.00     0.03  -0.15  -0.02    -0.04   0.16   0.02
   7   8     0.03  -0.00  -0.00     0.00  -0.00  -0.00    -0.00   0.00   0.00
   8   6     0.19  -0.16   0.06    -0.00  -0.00   0.00     0.00  -0.00   0.00
   9   8     0.01  -0.01   0.00     0.00   0.00  -0.00    -0.00   0.00   0.00
  10   1    -0.00   0.00  -0.00     0.63  -0.21   0.07     0.09  -0.03   0.01
  11   1    -0.00  -0.00  -0.00    -0.28  -0.26  -0.08    -0.49  -0.44  -0.13
  12   1    -0.00   0.00   0.00    -0.02   0.09   0.01    -0.07   0.28   0.03
  13   1    -0.00  -0.00  -0.00    -0.08  -0.07  -0.02     0.14   0.13   0.04
  14   1    -0.00   0.00   0.00    -0.12   0.54   0.06     0.13  -0.57  -0.06
  15   1    -0.76   0.56  -0.20     0.00  -0.00   0.00    -0.00   0.00  -0.00
                     37                     38                     39
                        a                      a                      a 
 Frequencies --  3107.6060              3114.5569              3118.4540
 Red. masses --     1.8596                 1.8895                 1.8881
 Frc consts  --     0.0000                 0.0000                 0.0000
 IR Inten    --    65.1093                47.9512                12.9572
 Raman Activ --     0.0000                 0.0000                 0.0000
 Depolar     --     0.0000                 0.0000                 0.0000
 Atom AN      X      Y      Z        X      Y      Z        X      Y      Z
   1   6     0.17  -0.06   0.02    -0.07   0.03  -0.01     0.06  -0.02   0.01
   2   6     0.06   0.06   0.02    -0.10  -0.09  -0.03     0.04   0.03   0.01
   3   6     0.03  -0.13  -0.01     0.05  -0.21  -0.02    -0.01   0.06   0.01
   4   6     0.01  -0.00   0.00     0.00  -0.00   0.00    -0.01   0.00  -0.00
   5   6     0.05   0.05   0.01    -0.07  -0.06  -0.02    -0.17  -0.16  -0.05
   6   6     0.02  -0.11  -0.01     0.00   0.00   0.00     0.02  -0.10  -0.01
   7   8     0.00   0.00  -0.00    -0.00  -0.00   0.00     0.00  -0.00   0.00
   8   6    -0.00  -0.00   0.00     0.00   0.00  -0.00     0.00  -0.00   0.00
   9   8     0.00   0.00  -0.00    -0.00   0.00   0.00    -0.00   0.00   0.00
  10   1    -0.58   0.19  -0.06     0.22  -0.07   0.02    -0.19   0.06  -0.02
  11   1    -0.21  -0.20  -0.06     0.33   0.30   0.09    -0.12  -0.11  -0.03
  12   1    -0.12   0.47   0.05    -0.18   0.72   0.07     0.05  -0.19  -0.02
  13   1    -0.18  -0.17  -0.05     0.23   0.21   0.07     0.61   0.55   0.17
  14   1    -0.09   0.38   0.04     0.00  -0.01  -0.00    -0.07   0.32   0.04
  15   1     0.00  -0.00   0.00    -0.00   0.00  -0.00    -0.00   0.00  -0.00
