      -----------------------------------------------------------      
     |                   =====================                   |     
     |                           x T B                           |     
     |                   =====================                   |     
     |                         S. Grimme                         |     
     |          Mulliken Center for Theoretical Chemistry        |     
     |                    University of Bonn                     |     
      -----------------------------------------------------------      

   * xtb version 6.7.1 (edcfbbe) compiled by 'albert@albert-system' on 2024-07-22

   xtb is free software: you can redistribute it and/or modify it under
   the terms of the GNU Lesser General Public License as published by
   the Free Software Foundation, either version 3 of the License, or
   (at your option) any later version.
   
   xtb is distributed in the hope that it will be useful,
   but WITHOUT ANY WARRANTY; without even the implied warranty of
   MERCHANTABILITY or FITNESS FOR A PARTICULAR PURPOSE.  See the
   GNU Lesser General Public License for more details.
   
   Cite this work as:
   * C. Bannwarth, E. Caldeweyher, S. Ehlert, A. Hansen, P. Pracht,
     J. Seibert, S. Spicher, S. Grimme, WIREs Comput. Mol. Sci., 2020, 11,
     e01493. DOI: 10.1002/wcms.1493
   
   for GFN2-xTB:
   * C. Bannwarth, S. Ehlert and S. Grimme., J. Chem. Theory Comput., 2019,
     15, 1652-1671. DOI: 10.1021/acs.jctc.8b01176
   for GFN1-xTB:
   * S. Grimme, C. Bannwarth, P. Shushkov, J. Chem. Theory Comput., 2017,
     13, 1989-2009. DOI: 10.1021/acs.jctc.7b00118
   for GFN0-xTB:
   * P. Pracht, E. Caldeweyher, S. Ehlert, S. Grimme, ChemRxiv, 2019, preprint.
     DOI: 10.26434/chemrxiv.8326202.v1
   for GFN-FF:
   * S. Spicher and S. Grimme, Angew. Chem. Int. Ed., 2020, 59, 15665-15673.
     DOI: 10.1002/anie.202004239
   
   for ALPB and GBSA implicit solvation:
   * S. Ehlert, M. Stahn, S. Spicher, S. Grimme, J. Chem. Theory Comput.,
     2021, 17, 4250-4261. DOI: 10.1021/acs.jctc.1c00471
   
   for ddCOSMO and CPCM-X implicit solvation:
   * M. Stahn, S. Ehlert, S. Grimme, J. Phys. Chem. A,
     2023, XX, XXXX-XXXX. DOI: 10.1021/acs.jpca.3c04382
   
   for DFT-D4:
   * E. Caldeweyher, C. Bannwarth and S. Grimme, J. Chem. Phys., 2017,
     147, 034112. DOI: 10.1063/1.4993215
   * E. Caldeweyher, S. Ehlert, A. Hansen, H. Neugebauer, S. Spicher,
     C. Bannwarth and S. Grimme, J. Chem. Phys., 2019, 150, 154122.
     DOI: 10.1063/1.5090222
   * E. Caldeweyher, J.-M. Mewes, S. Ehlert and S. Grimme, Phys. Chem. Chem. Phys.
     2020, 22, 8499-8512. DOI: 10.1039/D0CP00502A
   
   for sTDA-xTB:
   * S. Grimme and C. Bannwarth, J. Chem. Phys., 2016, 145, 054103.
     DOI: 10.1063/1.4959605
   
   in the mass-spec context:
   * V. Asgeirsson, C. Bauer and S. Grimme, Chem. Sci., 2017, 8, 4879.
     DOI: 10.1039/c7sc00601b
   * J. Koopman and S. Grimme, ACS Omega 2019, 4, 12, 15120-15133.
     DOI: 10.1021/acsomega.9b02011
   
   for metadynamics refer to:
   * S. Grimme, J. Chem. Theory Comput., 2019, 155, 2847-2862
     DOI: 10.1021/acs.jctc.9b00143
   
   for SPH calculations refer to:
   * S. Spicher and S. Grimme, J. Chem. Theory Comput., 2021, 17, 1701-1714
     DOI: 10.1021/acs.jctc.0c01306
   
   for ONIOM refer to:
   * C. Plett, A. Katbashev, S. Ehlert, S. Grimme, M. Bursch,
     Phys. Chem. Chem. Phys., 2023, 25, 17860-17868. DOI: 10.1039/D3CP02178E
   
   for DIPRO refer to:
   * J. Kohn, N. Gildemeister, S. Grimme, D. Fazzi, A. Hansen,
     J. Chem. Phys., 2023, just accepted.
   
   for PTB refer to:
   * S. Grimme, M. Mueller, A. Hansen, J. Chem. Phys., 2023, 158, 124111.
     DOI: 10.1063/5.0137838
   
   with help from (in alphabetical order)
   P. Atkinson, C. Bannwarth, F. Bohle, G. Brandenburg, E. Caldeweyher
   M. Checinski, S. Dohm, S. Ehlert, S. Ehrlich, I. Gerasimov, C. Hölzer
   A. Katbashev, J. Kohn, J. Koopman, C. Lavigne, S. Lehtola, F. März, M. Müller,
   F. Musil, H. Neugebauer, J. Pisarek, C. Plett, P. Pracht, F. Pultar,
   J. Seibert, P. Shushkov, S. Spicher, M. Stahn, M. Steiner, T. Strunk,
   J. Stückrath, T. Rose, and J. Unsleber
   
 * started run on 2025/04/07 at 01:04:33.554     
   ID    Z sym.   atoms
    1    6 C      1-6, 8
    2    8 O      7, 9
    3    1 H      10-15

           -------------------------------------------------
          |                Calculation Setup                |
           -------------------------------------------------

          program call               : /srv/scratch/z5358697/.xtb/bin/xtb xtb_rrho.coord --gfn2 --ohess vtight --chrg 0 --enso --norestart -I rrho-xcontrol-inp --parallel 1 --alpb water
          hostname                   : k157
          coordinate file            : xtb_rrho.coord
          omp threads                :                     1


           -------------------------------------------------
          |                 G F N 2 - x T B                 |
           -------------------------------------------------

        Reference                      10.1021/acs.jctc.8b01176
      * Hamiltonian:
        H0-scaling (s, p, d)           1.850000    2.230000    2.230000
        zeta-weighting                 0.500000
      * Dispersion:
        s8                             2.700000
        a1                             0.520000
        a2                             5.000000
        s9                             5.000000
      * Repulsion:
        kExp                           1.500000    1.000000
        rExp                           1.000000
      * Coulomb:
        alpha                          2.000000
        third order                    shell-resolved
        anisotropic                    true
        a3                             3.000000
        a5                             4.000000
        cn-shift                       1.200000
        cn-exp                         4.000000
        max-rad                        5.000000

      * Solvation model:               ALPB
        Solvent                        water
        Parameter file                 internal GFN2-xTB/ALPB
        Dielectric constant                8.0200E+01
        Reference state                gsolv [1 M gas/solution]
        Free energy shift                  1.0808E-03 Eh       6.7819E-01 kcal/mol
        Temperature                        2.9815E+02 K
        Density                            1.0000E+00 kg/L
        Solvent mass                       1.8000E+01 g/mol
        Interaction kernel             P16
        Born radius scaling (c1)           1.4744E+00
        Born radii integrator          GBOBC
        Born offset                        0.0000E+00 a0       0.0000E+00 AA
        H-bond correction              true
        Ion screening                  false
        Surface tension                    1.0000E-05 Eh       1.5569E+01 dyn/cm
        Grid points                               974 per atom

          ...................................................
          :                      SETUP                      :
          :.................................................:
          :  # basis functions                  42          :
          :  # atomic orbitals                  42          :
          :  # shells                           24          :
          :  # electrons                        46          :
          :  max. iterations                   250          :
          :  Hamiltonian                  GFN2-xTB          :
          :  restarted?                      false          :
          :  GBSA solvation                   true          :
          :  PC potential                    false          :
          :  electronic temp.          300.0000000     K    :
          :  accuracy                    1.0000000          :
          :  -> integral cutoff          0.2500000E+02      :
          :  -> integral neglect         0.1000000E-07      :
          :  -> SCF convergence          0.1000000E-05 Eh   :
          :  -> wf. convergence          0.1000000E-03 e    :
          :  Broyden damping             0.4000000          :
          :  net charge                          0          :
          :  unpaired electrons                  0          :
          ...................................................

 iter      E             dE          RMSdq      gap      omega  full diag
   1    -26.4743962 -0.264744E+02  0.556E+00    4.62       0.0  T
   2    -26.5191607 -0.447645E-01  0.300E+00    3.83       1.0  T
   3    -26.5188309  0.329775E-03  0.138E+00    4.25       1.0  T
   4    -26.5225386 -0.370772E-02  0.269E-01    4.07       1.0  T
   5    -26.5230854 -0.546724E-03  0.840E-02    4.03       1.0  T
   6    -26.5231026 -0.172565E-04  0.374E-02    4.00       1.0  T
   7    -26.5231074 -0.478292E-05  0.144E-02    4.00       1.8  T
   8    -26.5231080 -0.589791E-06  0.550E-03    4.00       4.7  T
   9    -26.5231083 -0.272556E-06  0.201E-03    4.00      12.8  T
  10    -26.5231083 -0.243706E-08  0.114E-03    4.00      22.6  T
  11    -26.5231083 -0.103818E-07  0.406E-04    4.00      63.6  T
  12    -26.5231083 -0.134118E-08  0.151E-04    4.00     170.4  T

   *** convergence criteria satisfied after 12 iterations ***

         #    Occupation            Energy/Eh            Energy/eV
      -------------------------------------------------------------
         1        2.0000           -0.7609699             -20.7070
       ...           ...                  ...                  ...
        17        2.0000           -0.4862601             -13.2318
        18        2.0000           -0.4778731             -13.0036
        19        2.0000           -0.4533208             -12.3355
        20        2.0000           -0.4411927             -12.0055
        21        2.0000           -0.4323866             -11.7658
        22        2.0000           -0.4167967             -11.3416
        23        2.0000           -0.4139133             -11.2632 (HOMO)
        24                         -0.2668777              -7.2621 (LUMO)
        25                         -0.2388498              -6.4994
        26                         -0.2368773              -6.4458
        27                         -0.1101835              -2.9982
        28                          0.0055019               0.1497
       ...                                ...                  ...
        42                          0.6368940              17.3308
      -------------------------------------------------------------
                  HL-Gap            0.1470356 Eh            4.0010 eV
             Fermi-level           -0.3403955 Eh           -9.2626 eV

 SCC (total)                   0 d,  0 h,  0 min,  0.013 sec
 SCC setup                      ...        0 min,  0.001 sec (  6.778%)
 Dispersion                     ...        0 min,  0.000 sec (  0.772%)
 classical contributions        ...        0 min,  0.000 sec (  0.126%)
 integral evaluation            ...        0 min,  0.001 sec ( 11.586%)
 iterations                     ...        0 min,  0.006 sec ( 49.619%)
 molecular gradient             ...        0 min,  0.004 sec ( 29.731%)
 printout                       ...        0 min,  0.000 sec (  1.237%)

         :::::::::::::::::::::::::::::::::::::::::::::::::::::
         ::                     SUMMARY                     ::
         :::::::::::::::::::::::::::::::::::::::::::::::::::::
         :: total energy             -26.163866717532 Eh    ::
         :: total w/o Gsasa/hb       -26.164721627381 Eh    ::
         :: gradient norm              0.042014456988 Eh/a0 ::
         :: HOMO-LUMO gap              4.001042376997 eV    ::
         ::.................................................::
         :: SCC energy               -26.523085756027 Eh    ::
         :: -> isotropic ES            0.047901320137 Eh    ::
         :: -> anisotropic ES         -0.000023010420 Eh    ::
         :: -> anisotropic XC          0.010271710137 Eh    ::
         :: -> dispersion             -0.011693946365 Eh    ::
         :: -> Gsolv                  -0.005889033966 Eh    ::
         ::    -> Gelec               -0.006743943815 Eh    ::
         ::    -> Gsasa                0.001590616132 Eh    ::
         ::    -> Ghb                 -0.001816465981 Eh    ::
         ::    -> Gshift               0.001080759698 Eh    ::
         :: repulsion energy           0.359219038495 Eh    ::
         :: add. restraining           0.000000000000 Eh    ::
         :: total charge              -0.000000000000 e     ::
         :::::::::::::::::::::::::::::::::::::::::::::::::::::

      ----------------------------------------------------------- 
     |                   =====================                   |
     |                        A N C O P T                        |
     |                   =====================                   |
     |               Approximate Normal Coordinate               |
     |                Rational Function Optimizer                |
      ----------------------------------------------------------- 
      ----------------------------------------------------------- 
     |                   =====================                   |
     |                        A N C O P T                        |
     |                   =====================                   |
     |               Approximate Normal Coordinate               |
     |                Rational Function Optimizer                |
      ----------------------------------------------------------- 

          ...................................................
          :                      SETUP                      :
          :.................................................:
          :   optimization level         verytight          :
          :   max. optcycles                   300          :
          :   ANC micro-cycles                  20          :
          :   degrees of freedom                39          :
          :.................................................:
          :   RF solver                   davidson          :
          :   write xtbopt.log                true          :
          :   linear?                        false          :
          :   energy convergence         0.1000000E-06 Eh   :
          :   grad. convergence          0.2000000E-03 Eh/α :
          :   maxmium RF displ.          1.0000000          :
          :   Hlow (freq-cutoff)         0.1000000E-01      :
          :   Hmax (freq-cutoff)         5.0000000          :
          :   S6 in model hess.         20.0000000          :
          ...................................................

generating ANC from exact Hessian ...
Using Lindh-Hessian (1995)
 Shifting diagonal of input Hessian by   6.092555263531219E-003
 Lowest  eigenvalues of input Hessian
    0.000000    0.000000    0.000000    0.000000    0.000000    0.000000
    0.010000    0.010421    0.012924    0.020756    0.021917    0.030624
    0.037975    0.052945    0.074845    0.076996    0.095365    0.099838
 Highest eigenvalues
    1.578345    1.744451    1.867962    1.989809    2.028303    2.348260
 

........................................................................
.............................. CYCLE    1 ..............................
........................................................................

 iter      E             dE          RMSdq      gap      omega  full diag
   1    -26.5231083 -0.265231E+02  0.344E-05    4.00       0.0  T
   2    -26.5231083 -0.657252E-11  0.150E-05    4.00    1726.7  T
   3    -26.5231083 -0.962785E-12  0.974E-06    4.00    2649.9  T
     SCC iter.                  ...        0 min,  0.001 sec
     gradient                   ...        0 min,  0.004 sec
 * total energy  :   -26.1638667 Eh     change       -0.6839329E-10 Eh
   gradient norm :     0.0420145 Eh/α   predicted     0.0000000E+00 (-100.00%)
   displ. norm   :     0.0782685 α      lambda       -0.2141688E-02
   maximum displ.:     0.0447862 α      in ANC's #21, #20, #28, ...

........................................................................
.............................. CYCLE    2 ..............................
........................................................................

 iter      E             dE          RMSdq      gap      omega  full diag
   1    -26.5393753 -0.265394E+02  0.129E-01    4.20       0.0  T
   2    -26.5394184 -0.431159E-04  0.714E-02    4.19       1.0  T
   3    -26.5394208 -0.233984E-05  0.353E-02    4.20       1.0  T
   4    -26.5394221 -0.128602E-05  0.801E-03    4.19       3.2  T
   5    -26.5394223 -0.189174E-06  0.406E-03    4.19       6.4  T
   6    -26.5394223 -0.494360E-07  0.265E-03    4.19       9.8  T
   7    -26.5394223 -0.197477E-07  0.530E-04    4.19      48.7  T
   8    -26.5394223 -0.573557E-09  0.266E-04    4.19      97.2  T
     SCC iter.                  ...        0 min,  0.003 sec
     gradient                   ...        0 min,  0.004 sec
 * total energy  :   -26.1652964 Eh     change       -0.1429680E-02 Eh
   gradient norm :     0.0209405 Eh/α   predicted    -0.1077404E-02 ( -24.64%)
   displ. norm   :     0.0657922 α      lambda       -0.5693035E-03
   maximum displ.:     0.0387854 α      in ANC's #1, #2, #3, ...

........................................................................
.............................. CYCLE    3 ..............................
........................................................................

 iter      E             dE          RMSdq      gap      omega  full diag
   1    -26.5448970 -0.265449E+02  0.101E-01    4.29       0.0  T
   2    -26.5449471 -0.500822E-04  0.499E-02    4.28       1.0  T
   3    -26.5449489 -0.187052E-05  0.278E-02    4.29       1.0  T
   4    -26.5449492 -0.285697E-06  0.869E-03    4.29       3.0  T
   5    -26.5449494 -0.228335E-06  0.286E-03    4.29       9.0  T
   6    -26.5449495 -0.148415E-07  0.200E-03    4.29      12.9  T
   7    -26.5449495 -0.145133E-07  0.466E-04    4.29      55.4  T
   8    -26.5449495 -0.592550E-09  0.178E-04    4.29     144.9  T
     SCC iter.                  ...        0 min,  0.003 sec
     gradient                   ...        0 min,  0.004 sec
 * total energy  :   -26.1656270 Eh     change       -0.3306486E-03 Eh
   gradient norm :     0.0071794 Eh/α   predicted    -0.2858843E-03 ( -13.54%)
   displ. norm   :     0.0626394 α      lambda       -0.9417345E-04
   maximum displ.:     0.0470438 α      in ANC's #1, #3, #2, ...

........................................................................
.............................. CYCLE    4 ..............................
........................................................................

 iter      E             dE          RMSdq      gap      omega  full diag
   1    -26.5440935 -0.265441E+02  0.595E-02    4.29       0.0  T
   2    -26.5440996 -0.613878E-05  0.330E-02    4.30       1.0  T
   3    -26.5440997 -0.140541E-06  0.121E-02    4.30       2.1  T
   4    -26.5440998 -0.769723E-07  0.252E-03    4.30      10.2  T
   5    -26.5440999 -0.366433E-07  0.969E-04    4.30      26.7  T
   6    -26.5440999 -0.741032E-09  0.578E-04    4.30      44.7  T
     SCC iter.                  ...        0 min,  0.002 sec
     gradient                   ...        0 min,  0.004 sec
 * total energy  :   -26.1656947 Eh     change       -0.6763287E-04 Eh
   gradient norm :     0.0025548 Eh/α   predicted    -0.4727178E-04 ( -30.11%)
   displ. norm   :     0.1270948 α      lambda       -0.1099201E-03
   maximum displ.:     0.0984074 α      in ANC's #1, #2, #5, ...

........................................................................
.............................. CYCLE    5 ..............................
........................................................................

 iter      E             dE          RMSdq      gap      omega  full diag
   1    -26.5416054 -0.265416E+02  0.106E-01    4.27       0.0  T
   2    -26.5416145 -0.915489E-05  0.598E-02    4.28       1.0  T
   3    -26.5416148 -0.268982E-06  0.139E-02    4.28       1.9  T
   4    -26.5416149 -0.135067E-06  0.327E-03    4.28       7.9  T
   5    -26.5416150 -0.710211E-07  0.154E-03    4.28      16.7  T
   6    -26.5416150 -0.153251E-08  0.751E-04    4.28      34.4  T
   7    -26.5416150 -0.210035E-08  0.219E-04    4.28     118.1  T
     SCC iter.                  ...        0 min,  0.002 sec
     gradient                   ...        0 min,  0.004 sec
 * total energy  :   -26.1657202 Eh     change       -0.2554721E-04 Eh
   gradient norm :     0.0086346 Eh/α   predicted    -0.5584798E-04 ( 118.61%)
   displ. norm   :     0.0594951 α      lambda       -0.9797326E-04
   maximum displ.:     0.0399756 α      in ANC's #1, #2, #3, ...

........................................................................
.............................. CYCLE    6 ..............................
........................................................................

 iter      E             dE          RMSdq      gap      omega  full diag
   1    -26.5411122 -0.265411E+02  0.580E-02    4.28       0.0  T
   2    -26.5411131 -0.858270E-06  0.339E-02    4.27       1.0  T
   3    -26.5411131 -0.618132E-07  0.412E-03    4.27       6.3  T
   4    -26.5411132 -0.537958E-07  0.150E-03    4.27      17.3  T
   5    -26.5411132 -0.609256E-08  0.828E-04    4.27      31.2  T
   6    -26.5411132 -0.550706E-10  0.379E-04    4.27      68.2  T
     SCC iter.                  ...        0 min,  0.002 sec
     gradient                   ...        0 min,  0.004 sec
 * total energy  :   -26.1657760 Eh     change       -0.5581313E-04 Eh
   gradient norm :     0.0062401 Eh/α   predicted    -0.4915974E-04 ( -11.92%)
   displ. norm   :     0.0651905 α      lambda       -0.5165659E-04
   maximum displ.:     0.0465919 α      in ANC's #1, #2, #3, ...

........................................................................
.............................. CYCLE    7 ..............................
........................................................................

 iter      E             dE          RMSdq      gap      omega  full diag
   1    -26.5417621 -0.265418E+02  0.472E-02    4.27       0.0  T
   2    -26.5417631 -0.968356E-06  0.273E-02    4.27       1.0  T
   3    -26.5417631 -0.483610E-07  0.419E-03    4.27       6.2  T
   4    -26.5417632 -0.414524E-07  0.141E-03    4.27      18.4  T
   5    -26.5417632 -0.115010E-07  0.716E-04    4.27      36.1  T
   6    -26.5417632 -0.305157E-09  0.260E-04    4.27      99.3  T
     SCC iter.                  ...        0 min,  0.002 sec
     gradient                   ...        0 min,  0.004 sec
 * total energy  :   -26.1658225 Eh     change       -0.4645704E-04 Eh
   gradient norm :     0.0037186 Eh/α   predicted    -0.2593897E-04 ( -44.17%)
   displ. norm   :     0.4059346 α      lambda       -0.2454600E-03
   maximum displ.:     0.2798474 α      in ANC's #2, #1, #3, ...

........................................................................
.............................. CYCLE    8 ..............................
........................................................................

 iter      E             dE          RMSdq      gap      omega  full diag
   1    -26.5407895 -0.265408E+02  0.319E-01    4.16       0.0  T
   2    -26.5408050 -0.154449E-04  0.186E-01    4.16       1.0  T
   3    -26.5408053 -0.298706E-06  0.228E-02    4.15       1.1  T
   4    -26.5408090 -0.374956E-05  0.795E-03    4.16       3.2  T
   5    -26.5408091 -0.960085E-07  0.462E-03    4.16       5.6  T
   6    -26.5408092 -0.342580E-07  0.206E-03    4.16      12.5  T
   7    -26.5408092 -0.170737E-07  0.404E-04    4.16      64.0  T
   8    -26.5408092 -0.707406E-09  0.256E-04    4.16     100.8  T
     SCC iter.                  ...        0 min,  0.003 sec
     gradient                   ...        0 min,  0.004 sec
 * total energy  :   -26.1659746 Eh     change       -0.1520790E-03 Eh
   gradient norm :     0.0116651 Eh/α   predicted    -0.1429429E-03 (  -6.01%)
   displ. norm   :     0.0933130 α      lambda       -0.1765360E-03
   maximum displ.:     0.0651905 α      in ANC's #2, #1, #28, ...

........................................................................
.............................. CYCLE    9 ..............................
........................................................................

 iter      E             dE          RMSdq      gap      omega  full diag
   1    -26.5431708 -0.265432E+02  0.709E-02    4.19       0.0  T
   2    -26.5431716 -0.834137E-06  0.419E-02    4.18       1.0  T
   3    -26.5431715  0.168621E-06  0.648E-03    4.18       4.0  T
   4    -26.5431719 -0.401266E-06  0.199E-03    4.18      13.0  T
   5    -26.5431719 -0.399021E-08  0.114E-03    4.18      22.7  T
   6    -26.5431719 -0.336941E-08  0.456E-04    4.18      56.7  T
   7    -26.5431719 -0.400540E-09  0.149E-04    4.18     173.6  T
     SCC iter.                  ...        0 min,  0.003 sec
     gradient                   ...        0 min,  0.004 sec
 * total energy  :   -26.1661010 Eh     change       -0.1264004E-03 Eh
   gradient norm :     0.0069421 Eh/α   predicted    -0.8903534E-04 ( -29.56%)
   displ. norm   :     0.3844875 α      lambda       -0.2519041E-03
   maximum displ.:     0.2629010 α      in ANC's #1, #2, #3, ...

........................................................................
.............................. CYCLE   10 ..............................
........................................................................

 iter      E             dE          RMSdq      gap      omega  full diag
   1    -26.5403386 -0.265403E+02  0.326E-01    4.05       0.0  T
   2    -26.5403493 -0.107243E-04  0.191E-01    4.06       1.0  T
   3    -26.5403506 -0.129924E-05  0.163E-02    4.06       1.6  T
   4    -26.5403524 -0.182365E-05  0.718E-03    4.06       3.6  T
   5    -26.5403525 -0.937357E-07  0.408E-03    4.06       6.3  T
   6    -26.5403525 -0.151358E-07  0.173E-03    4.06      14.9  T
   7    -26.5403525 -0.144529E-07  0.294E-04    4.06      87.9  T
   8    -26.5403525 -0.394873E-09  0.174E-04    4.06     148.6  T
     SCC iter.                  ...        0 min,  0.003 sec
     gradient                   ...        0 min,  0.004 sec
 * total energy  :   -26.1661773 Eh     change       -0.7632532E-04 Eh
   gradient norm :     0.0180344 Eh/α   predicted    -0.1445645E-03 (  89.41%)
   displ. norm   :     0.0516312 α      lambda       -0.4151772E-03
   maximum displ.:     0.0370451 α      in ANC's #2, #28, #5, ...

........................................................................
.............................. CYCLE   11 ..............................
........................................................................

 iter      E             dE          RMSdq      gap      omega  full diag
   1    -26.5432044 -0.265432E+02  0.691E-02    4.19       0.0  T
   2    -26.5432262 -0.218099E-04  0.374E-02    4.17       1.0  T
   3    -26.5432281 -0.188106E-05  0.215E-02    4.18       1.2  T
   4    -26.5432285 -0.366981E-06  0.670E-03    4.17       3.9  T
   5    -26.5432286 -0.152871E-06  0.314E-03    4.17       8.2  T
   6    -26.5432287 -0.404243E-07  0.194E-03    4.17      13.3  T
   7    -26.5432287 -0.830083E-08  0.501E-04    4.17      51.5  T
   8    -26.5432287 -0.160045E-08  0.230E-04    4.17     112.2  T
     SCC iter.                  ...        0 min,  0.003 sec
     gradient                   ...        0 min,  0.004 sec
 * total energy  :   -26.1663323 Eh     change       -0.1550011E-03 Eh
   gradient norm :     0.0064844 Eh/α   predicted    -0.2081426E-03 (  34.28%)
   displ. norm   :     0.1654534 α      lambda       -0.1288690E-03
   maximum displ.:     0.1295087 α      in ANC's #1, #2, #28, ...

........................................................................
.............................. CYCLE   12 ..............................
........................................................................

 iter      E             dE          RMSdq      gap      omega  full diag
   1    -26.5418257 -0.265418E+02  0.122E-01    4.12       0.0  T
   2    -26.5418298 -0.406614E-05  0.707E-02    4.12       1.0  T
   3    -26.5418298 -0.402601E-07  0.113E-02    4.11       2.3  T
   4    -26.5418305 -0.716184E-06  0.324E-03    4.11       8.0  T
   5    -26.5418305 -0.158367E-07  0.177E-03    4.11      14.6  T
   6    -26.5418305 -0.163355E-08  0.599E-04    4.11      43.1  T
   7    -26.5418305 -0.284714E-08  0.169E-04    4.11     152.9  T
     SCC iter.                  ...        0 min,  0.002 sec
     gradient                   ...        0 min,  0.003 sec
 * total energy  :   -26.1664278 Eh     change       -0.9553434E-04 Eh
   gradient norm :     0.0045729 Eh/α   predicted    -0.6620079E-04 ( -30.70%)
   displ. norm   :     0.2491078 α      lambda       -0.1076614E-03
   maximum displ.:     0.1967035 α      in ANC's #1, #2, #3, ...

........................................................................
.............................. CYCLE   13 ..............................
........................................................................

 iter      E             dE          RMSdq      gap      omega  full diag
   1    -26.5399946 -0.265400E+02  0.210E-01    4.02       0.0  T
   2    -26.5399989 -0.433422E-05  0.123E-01    4.03       1.0  T
   3    -26.5399992 -0.302582E-06  0.127E-02    4.02       2.0  T
   4    -26.5400004 -0.125010E-05  0.475E-03    4.03       5.4  T
   5    -26.5400004 -0.909356E-09  0.190E-03    4.03      13.6  T
   6    -26.5400005 -0.224711E-07  0.412E-04    4.03      62.6  T
   7    -26.5400005 -0.595850E-09  0.190E-04    4.03     135.5  T
     SCC iter.                  ...        0 min,  0.002 sec
     gradient                   ...        0 min,  0.004 sec
 * total energy  :   -26.1664513 Eh     change       -0.2343815E-04 Eh
   gradient norm :     0.0121508 Eh/α   predicted    -0.5717204E-04 ( 143.93%)
   displ. norm   :     0.0651904 α      lambda       -0.1185248E-03
   maximum displ.:     0.0533502 α      in ANC's #2, #1, #4, ...

........................................................................
.............................. CYCLE   14 ..............................
........................................................................

 iter      E             dE          RMSdq      gap      omega  full diag
   1    -26.5426868 -0.265427E+02  0.558E-02    4.09       0.0  T
   2    -26.5426892 -0.237489E-05  0.324E-02    4.08       1.0  T
   3    -26.5426891  0.581877E-07  0.896E-03    4.08       2.9  T
   4    -26.5426894 -0.282824E-06  0.217E-03    4.08      11.9  T
   5    -26.5426894 -0.181696E-07  0.118E-03    4.08      21.9  T
   6    -26.5426894 -0.472385E-08  0.717E-04    4.08      36.0  T
   7    -26.5426894 -0.949189E-09  0.124E-04    4.08     207.7  T
     SCC iter.                  ...        0 min,  0.002 sec
     gradient                   ...        0 min,  0.003 sec
 * total energy  :   -26.1665141 Eh     change       -0.6279380E-04 Eh
   gradient norm :     0.0036083 Eh/α   predicted    -0.5951301E-04 (  -5.22%)
   displ. norm   :     0.0634622 α      lambda       -0.6033845E-04
   maximum displ.:     0.0416497 α      in ANC's #3, #1, #28, ...

........................................................................
.............................. CYCLE   15 ..............................
........................................................................

 iter      E             dE          RMSdq      gap      omega  full diag
   1    -26.5433795 -0.265434E+02  0.722E-02    4.08       0.0  T
   2    -26.5433818 -0.230809E-05  0.423E-02    4.09       1.0  T
   3    -26.5433817  0.688736E-07  0.763E-03    4.09       3.4  T
   4    -26.5433820 -0.234509E-06  0.224E-03    4.09      11.6  T
   5    -26.5433820 -0.350674E-07  0.986E-04    4.09      26.2  T
   6    -26.5433820 -0.218246E-08  0.627E-04    4.09      41.2  T
     SCC iter.                  ...        0 min,  0.002 sec
     gradient                   ...        0 min,  0.004 sec
 * total energy  :   -26.1665621 Eh     change       -0.4806600E-04 Eh
   gradient norm :     0.0029942 Eh/α   predicted    -0.3029161E-04 ( -36.98%)
   displ. norm   :     0.2712664 α      lambda       -0.1342869E-03
   maximum displ.:     0.2131434 α      in ANC's #1, #3, #2, ...

........................................................................
.............................. CYCLE   16 ..............................
........................................................................

 iter      E             dE          RMSdq      gap      omega  full diag
   1    -26.5424385 -0.265424E+02  0.267E-01    4.03       0.0  T
   2    -26.5424441 -0.559994E-05  0.156E-01    4.03       1.0  T
   3    -26.5424453 -0.126411E-05  0.927E-03    4.04       2.8  T
   4    -26.5424456 -0.302922E-06  0.540E-03    4.04       4.8  T
   5    -26.5424458 -0.130130E-06  0.299E-03    4.04       8.6  T
   6    -26.5424458 -0.717953E-08  0.851E-04    4.03      30.3  T
   7    -26.5424458 -0.542091E-08  0.171E-04    4.03     150.6  T
     SCC iter.                  ...        0 min,  0.003 sec
     gradient                   ...        0 min,  0.004 sec
 * total energy  :   -26.1666471 Eh     change       -0.8492211E-04 Eh
   gradient norm :     0.0089472 Eh/α   predicted    -0.7208122E-04 ( -15.12%)
   displ. norm   :     0.0876758 α      lambda       -0.6078672E-04
   maximum displ.:     0.0646714 α      in ANC's #1, #3, #28, ...

........................................................................
.............................. CYCLE   17 ..............................
........................................................................

 iter      E             dE          RMSdq      gap      omega  full diag
   1    -26.5427140 -0.265427E+02  0.901E-02    4.04       0.0  T
   2    -26.5427144 -0.390932E-06  0.528E-02    4.04       1.0  T
   3    -26.5427145 -0.164343E-06  0.270E-03    4.04       9.6  T
   4    -26.5427146 -0.203461E-07  0.157E-03    4.03      16.4  T
   5    -26.5427146 -0.311736E-08  0.735E-04    4.04      35.1  T
   6    -26.5427146 -0.560615E-09  0.171E-04    4.03     151.2  T
     SCC iter.                  ...        0 min,  0.002 sec
     gradient                   ...        0 min,  0.004 sec
 * total energy  :   -26.1666957 Eh     change       -0.4862185E-04 Eh
   gradient norm :     0.0061795 Eh/α   predicted    -0.3062723E-04 ( -37.01%)
   displ. norm   :     0.1781430 α      lambda       -0.8115372E-04
   maximum displ.:     0.1204263 α      in ANC's #1, #3, #2, ...

........................................................................
.............................. CYCLE   18 ..............................
........................................................................

 iter      E             dE          RMSdq      gap      omega  full diag
   1    -26.5424774 -0.265425E+02  0.194E-01    4.01       0.0  T
   2    -26.5424786 -0.121578E-05  0.114E-01    4.01       1.0  T
   3    -26.5424793 -0.724127E-06  0.531E-03    4.01       4.9  T
   4    -26.5424794 -0.653482E-07  0.333E-03    4.01       7.8  T
   5    -26.5424794 -0.130175E-07  0.995E-04    4.01      25.9  T
   6    -26.5424794 -0.512832E-08  0.263E-04    4.01      98.3  T
     SCC iter.                  ...        0 min,  0.002 sec
     gradient                   ...        0 min,  0.003 sec
 * total energy  :   -26.1667519 Eh     change       -0.5617265E-04 Eh
   gradient norm :     0.0061259 Eh/α   predicted    -0.4186569E-04 ( -25.47%)
   displ. norm   :     0.1042867 α      lambda       -0.1175589E-03
   maximum displ.:     0.0665565 α      in ANC's #3, #28, #2, ...

........................................................................
.............................. CYCLE   19 ..............................
........................................................................

 iter      E             dE          RMSdq      gap      omega  full diag
   1    -26.5453809 -0.265454E+02  0.137E-01    4.07       0.0  T
   2    -26.5453847 -0.371904E-05  0.802E-02    4.06       1.0  T
   3    -26.5453847 -0.646785E-07  0.981E-03    4.06       2.6  T
   4    -26.5453853 -0.542836E-06  0.281E-03    4.05       9.2  T
   5    -26.5453853 -0.144304E-07  0.164E-03    4.06      15.8  T
   6    -26.5453853 -0.197635E-08  0.662E-04    4.06      39.0  T
   7    -26.5453853 -0.246444E-08  0.220E-04    4.06     117.2  T
     SCC iter.                  ...        0 min,  0.002 sec
     gradient                   ...        0 min,  0.004 sec
 * total energy  :   -26.1667651 Eh     change       -0.1322058E-04 Eh
   gradient norm :     0.0085524 Eh/α   predicted    -0.5941964E-04 ( 349.45%)
   displ. norm   :     0.2711651 α      lambda       -0.1422560E-03
   maximum displ.:     0.1822736 α      in ANC's #1, #3, #2, ...

........................................................................
.............................. CYCLE   20 ..............................
........................................................................

 iter      E             dE          RMSdq      gap      omega  full diag
   1    -26.5415414 -0.265415E+02  0.288E-01    3.93       0.0  T
   2    -26.5415535 -0.121250E-04  0.170E-01    3.95       1.0  T
   3    -26.5415539 -0.436502E-06  0.171E-02    3.95       1.5  T
   4    -26.5415560 -0.205447E-05  0.599E-03    3.96       4.3  T
   5    -26.5415561 -0.663880E-07  0.354E-03    3.95       7.3  T
   6    -26.5415561 -0.107942E-07  0.169E-03    3.95      15.3  T
   7    -26.5415561 -0.128066E-07  0.299E-04    3.95      86.3  T
   8    -26.5415561 -0.297341E-09  0.175E-04    3.95     147.9  T
     SCC iter.                  ...        0 min,  0.003 sec
     gradient                   ...        0 min,  0.004 sec
 * total energy  :   -26.1667866 Eh     change       -0.2148444E-04 Eh
   gradient norm :     0.0104555 Eh/α   predicted    -0.7635863E-04 ( 255.41%)
   displ. norm   :     0.1869181 α      lambda       -0.1485979E-03
   maximum displ.:     0.1176389 α      in ANC's #1, #3, #2, ...
 * RMSD in coord.:     0.5862178 α      energy gain  -0.2919838E-02 Eh

generating ANC from exact Hessian ...
Using Lindh-Hessian (1995)
 Shifting diagonal of input Hessian by   6.050752390246486E-003
 Lowest  eigenvalues of input Hessian
    0.000000    0.000000    0.000000    0.000000    0.000000    0.000000
    0.010000    0.012079    0.014056    0.021739    0.023902    0.032739
    0.037494    0.056796    0.075313    0.078978    0.100818    0.105247
 Highest eigenvalues
    1.618543    1.837895    1.910400    2.028585    2.090365    2.477965
 

........................................................................
.............................. CYCLE   21 ..............................
........................................................................

 iter      E             dE          RMSdq      gap      omega  full diag
   1    -26.5440319 -0.265440E+02  0.208E-01    4.03       0.0  T
   2    -26.5440385 -0.654451E-05  0.122E-01    4.02       1.0  T
   3    -26.5440387 -0.187618E-06  0.121E-02    4.02       2.1  T
   4    -26.5440396 -0.920579E-06  0.461E-03    4.01       5.6  T
   5    -26.5440397 -0.800722E-07  0.259E-03    4.01      10.0  T
   6    -26.5440397 -0.119062E-07  0.141E-03    4.02      18.3  T
   7    -26.5440397 -0.447414E-08  0.196E-04    4.02     131.4  T
   8    -26.5440397 -0.233584E-09  0.940E-05    4.02     274.6  T
     SCC iter.                  ...        0 min,  0.003 sec
     gradient                   ...        0 min,  0.003 sec
 * total energy  :   -26.1668167 Eh     change       -0.3010929E-04 Eh
   gradient norm :     0.0023218 Eh/α   predicted     0.0000000E+00 (-100.00%)
   displ. norm   :     0.0204605 α      lambda       -0.1068411E-04
   maximum displ.:     0.0188766 α      in ANC's #2, #5, #8, ...

........................................................................
.............................. CYCLE   22 ..............................
........................................................................

 iter      E             dE          RMSdq      gap      omega  full diag
   1    -26.5436685 -0.265437E+02  0.255E-02    4.01       0.0  T
   2    -26.5436686 -0.157222E-06  0.151E-02    4.01       1.7  T
   3    -26.5436686 -0.240591E-08  0.156E-03    4.01      16.6  T
   4    -26.5436686 -0.108128E-07  0.573E-04    4.01      45.1  T
   5    -26.5436686 -0.222002E-08  0.282E-04    4.01      91.5  T
     SCC iter.                  ...        0 min,  0.002 sec
     gradient                   ...        0 min,  0.004 sec
 * total energy  :   -26.1668241 Eh     change       -0.7450710E-05 Eh
   gradient norm :     0.0006555 Eh/α   predicted    -0.5343565E-05 ( -28.28%)
   displ. norm   :     0.0547584 α      lambda       -0.1053731E-04
   maximum displ.:     0.0489775 α      in ANC's #2, #3, #5, ...

........................................................................
.............................. CYCLE   23 ..............................
........................................................................

 iter      E             dE          RMSdq      gap      omega  full diag
   1    -26.5430248 -0.265430E+02  0.738E-02    3.99       0.0  T
   2    -26.5430254 -0.612858E-06  0.436E-02    4.00       1.0  T
   3    -26.5430254 -0.329397E-07  0.314E-03    4.00       8.2  T
   4    -26.5430255 -0.593362E-07  0.146E-03    4.00      17.7  T
   5    -26.5430255 -0.131494E-07  0.764E-04    4.00      33.8  T
   6    -26.5430255 -0.360998E-09  0.350E-04    4.00      73.8  T
     SCC iter.                  ...        0 min,  0.002 sec
     gradient                   ...        0 min,  0.004 sec
 * total energy  :   -26.1668239 Eh     change        0.2085520E-06 Eh
   gradient norm :     0.0031206 Eh/α   predicted    -0.5277745E-05 (*******%)
   displ. norm   :     0.0113275 α      lambda       -0.1132318E-04
   maximum displ.:     0.0061597 α      in ANC's #2, #1, #7, ...

........................................................................
.............................. CYCLE   24 ..............................
........................................................................

 iter      E             dE          RMSdq      gap      omega  full diag
   1    -26.5432491 -0.265432E+02  0.132E-02    4.00       0.0  T
   2    -26.5432491 -0.257788E-07  0.783E-03    4.00       3.3  T
   3    -26.5432491  0.364800E-09  0.834E-04    4.00      31.0  T
   4    -26.5432491 -0.466784E-08  0.339E-04    4.00      76.1  T
     SCC iter.                  ...        0 min,  0.002 sec
     gradient                   ...        0 min,  0.004 sec
 * total energy  :   -26.1668317 Eh     change       -0.7838674E-05 Eh
   gradient norm :     0.0019548 Eh/α   predicted    -0.5663044E-05 ( -27.76%)
   displ. norm   :     0.0222889 α      lambda       -0.5792869E-05
   maximum displ.:     0.0160093 α      in ANC's #1, #2, #7, ...

........................................................................
.............................. CYCLE   25 ..............................
........................................................................

 iter      E             dE          RMSdq      gap      omega  full diag
   1    -26.5437290 -0.265437E+02  0.221E-02    4.01       0.0  T
   2    -26.5437292 -0.170174E-06  0.129E-02    4.00       2.0  T
   3    -26.5437292 -0.870448E-08  0.164E-03    4.00      15.7  T
   4    -26.5437292 -0.728829E-08  0.561E-04    4.00      46.1  T
   5    -26.5437292 -0.220588E-08  0.305E-04    4.00      84.6  T
     SCC iter.                  ...        0 min,  0.002 sec
     gradient                   ...        0 min,  0.004 sec
 * total energy  :   -26.1668361 Eh     change       -0.4352557E-05 Eh
   gradient norm :     0.0007429 Eh/α   predicted    -0.2896890E-05 ( -33.44%)
   displ. norm   :     0.0294673 α      lambda       -0.2550346E-05
   maximum displ.:     0.0223336 α      in ANC's #2, #1, #3, ...

........................................................................
.............................. CYCLE   26 ..............................
........................................................................

 iter      E             dE          RMSdq      gap      omega  full diag
   1    -26.5436558 -0.265437E+02  0.337E-02    4.00       0.0  T
   2    -26.5436558 -0.469699E-07  0.198E-02    4.00       1.3  T
   3    -26.5436559 -0.207480E-07  0.105E-03    4.00      24.6  T
   4    -26.5436559 -0.475635E-08  0.613E-04    4.00      42.1  T
   5    -26.5436559 -0.536311E-09  0.272E-04    4.00      95.0  T
     SCC iter.                  ...        0 min,  0.002 sec
     gradient                   ...        0 min,  0.004 sec
 * total energy  :   -26.1668397 Eh     change       -0.3565232E-05 Eh
   gradient norm :     0.0005653 Eh/α   predicted    -0.1277170E-05 ( -64.18%)
   displ. norm   :     0.1400861 α      lambda       -0.1128272E-04
   maximum displ.:     0.0965755 α      in ANC's #2, #1, #3, ...

........................................................................
.............................. CYCLE   27 ..............................
........................................................................

 iter      E             dE          RMSdq      gap      omega  full diag
   1    -26.5430868 -0.265431E+02  0.150E-01    3.97       0.0  T
   2    -26.5430879 -0.113497E-05  0.882E-02    3.97       1.0  T
   3    -26.5430883 -0.389696E-06  0.534E-03    3.97       4.8  T
   4    -26.5430884 -0.159126E-06  0.289E-03    3.97       8.9  T
   5    -26.5430884 -0.119803E-07  0.145E-03    3.97      17.9  T
   6    -26.5430885 -0.335963E-08  0.458E-04    3.97      56.4  T
   7    -26.5430885 -0.122304E-08  0.905E-05    3.97     285.5  T
     SCC iter.                  ...        0 min,  0.003 sec
     gradient                   ...        0 min,  0.003 sec
 * total energy  :   -26.1668485 Eh     change       -0.8838226E-05 Eh
   gradient norm :     0.0022340 Eh/α   predicted    -0.5691317E-05 ( -35.61%)
   displ. norm   :     0.0105991 α      lambda       -0.3856905E-05
   maximum displ.:     0.0099770 α      in ANC's #1, #2, #10, ...

........................................................................
.............................. CYCLE   28 ..............................
........................................................................

 iter      E             dE          RMSdq      gap      omega  full diag
   1    -26.5433291 -0.265433E+02  0.752E-03    3.98       0.0  T
   2    -26.5433291 -0.290680E-07  0.443E-03    3.98       5.8  T
   3    -26.5433291  0.343357E-08  0.108E-03    3.98      23.8  T
   4    -26.5433291 -0.635396E-08  0.296E-04    3.98      87.2  T
   5    -26.5433291 -0.470205E-09  0.120E-04    3.98     215.6  T
     SCC iter.                  ...        0 min,  0.002 sec
     gradient                   ...        0 min,  0.004 sec
 * total energy  :   -26.1668515 Eh     change       -0.2974364E-05 Eh
   gradient norm :     0.0011836 Eh/α   predicted    -0.1928998E-05 ( -35.15%)
   displ. norm   :     0.0478357 α      lambda       -0.5218055E-05
   maximum displ.:     0.0446147 α      in ANC's #1, #2, #7, ...

........................................................................
.............................. CYCLE   29 ..............................
........................................................................

 iter      E             dE          RMSdq      gap      omega  full diag
   1    -26.5437034 -0.265437E+02  0.348E-02    3.98       0.0  T
   2    -26.5437035 -0.114434E-06  0.204E-02    3.98       1.3  T
   3    -26.5437035  0.227275E-07  0.280E-03    3.98       9.2  T
   4    -26.5437036 -0.704664E-07  0.910E-04    3.98      28.4  T
   5    -26.5437036 -0.140813E-08  0.536E-04    3.98      48.2  T
     SCC iter.                  ...        0 min,  0.002 sec
     gradient                   ...        0 min,  0.003 sec
 * total energy  :   -26.1668563 Eh     change       -0.4815160E-05 Eh
   gradient norm :     0.0007165 Eh/α   predicted    -0.2609786E-05 ( -45.80%)
   displ. norm   :     0.0439660 α      lambda       -0.1988633E-05
   maximum displ.:     0.0342239 α      in ANC's #1, #2, #3, ...

........................................................................
.............................. CYCLE   30 ..............................
........................................................................

 iter      E             dE          RMSdq      gap      omega  full diag
   1    -26.5435365 -0.265435E+02  0.407E-02    3.97       0.0  T
   2    -26.5435366 -0.131849E-06  0.239E-02    3.97       1.1  T
   3    -26.5435366 -0.256099E-07  0.180E-03    3.97      14.3  T
   4    -26.5435366 -0.205817E-07  0.922E-04    3.97      28.0  T
   5    -26.5435366 -0.285247E-08  0.493E-04    3.97      52.3  T
     SCC iter.                  ...        0 min,  0.002 sec
     gradient                   ...        0 min,  0.004 sec
 * total energy  :   -26.1668589 Eh     change       -0.2589076E-05 Eh
   gradient norm :     0.0001961 Eh/α   predicted    -0.9961781E-06 ( -61.52%)
   displ. norm   :     0.0527849 α      lambda       -0.1603923E-05
   maximum displ.:     0.0419907 α      in ANC's #1, #2, #3, ...

........................................................................
.............................. CYCLE   31 ..............................
........................................................................

 iter      E             dE          RMSdq      gap      omega  full diag
   1    -26.5433784 -0.265434E+02  0.479E-02    3.96       0.0  T
   2    -26.5433785 -0.146470E-06  0.282E-02    3.96       1.0  T
   3    -26.5433786 -0.374594E-07  0.204E-03    3.96      12.7  T
   4    -26.5433786 -0.280483E-07  0.104E-03    3.96      24.8  T
   5    -26.5433786 -0.232637E-08  0.544E-04    3.96      47.5  T
   6    -26.5433786 -0.270351E-09  0.196E-04    3.96     131.7  T
     SCC iter.                  ...        0 min,  0.002 sec
     gradient                   ...        0 min,  0.004 sec
 * total energy  :   -26.1668607 Eh     change       -0.1827595E-05 Eh
   gradient norm :     0.0007381 Eh/α   predicted    -0.8017531E-06 ( -56.13%)
   displ. norm   :     0.0470393 α      lambda       -0.9540242E-06
   maximum displ.:     0.0395181 α      in ANC's #1, #2, #3, ...

........................................................................
.............................. CYCLE   32 ..............................
........................................................................

 iter      E             dE          RMSdq      gap      omega  full diag
   1    -26.5433133 -0.265433E+02  0.402E-02    3.96       0.0  T
   2    -26.5433134 -0.939166E-07  0.236E-02    3.96       1.1  T
   3    -26.5433135 -0.263725E-07  0.172E-03    3.96      15.0  T
   4    -26.5433135 -0.195072E-07  0.889E-04    3.96      29.0  T
   5    -26.5433135 -0.165532E-08  0.443E-04    3.96      58.3  T
     SCC iter.                  ...        0 min,  0.002 sec
     gradient                   ...        0 min,  0.003 sec
 * total energy  :   -26.1668617 Eh     change       -0.9614481E-06 Eh
   gradient norm :     0.0009732 Eh/α   predicted    -0.4780808E-06 ( -50.27%)
   displ. norm   :     0.0190484 α      lambda       -0.5600227E-06
   maximum displ.:     0.0172735 α      in ANC's #1, #2, #3, ...

........................................................................
.............................. CYCLE   33 ..............................
........................................................................

 iter      E             dE          RMSdq      gap      omega  full diag
   1    -26.5434511 -0.265435E+02  0.146E-02    3.96       0.0  T
   2    -26.5434511 -0.151757E-07  0.856E-03    3.96       3.0  T
   3    -26.5434511 -0.226321E-08  0.795E-04    3.96      32.5  T
   4    -26.5434511 -0.503738E-08  0.344E-04    3.96      75.0  T
     SCC iter.                  ...        0 min,  0.002 sec
     gradient                   ...        0 min,  0.004 sec
 * total energy  :   -26.1668622 Eh     change       -0.5602363E-06 Eh
   gradient norm :     0.0003542 Eh/α   predicted    -0.2789737E-06 ( -50.20%)
   displ. norm   :     0.0260826 α      lambda       -0.3165545E-06
   maximum displ.:     0.0201062 α      in ANC's #1, #2, #3, ...

........................................................................
.............................. CYCLE   34 ..............................
........................................................................

 iter      E             dE          RMSdq      gap      omega  full diag
   1    -26.5434741 -0.265435E+02  0.241E-02    3.96       0.0  T
   2    -26.5434741 -0.291632E-07  0.142E-02    3.96       1.8  T
   3    -26.5434741 -0.113434E-07  0.945E-04    3.96      27.3  T
   4    -26.5434741 -0.516086E-08  0.529E-04    3.96      48.8  T
     SCC iter.                  ...        0 min,  0.002 sec
     gradient                   ...        0 min,  0.004 sec
 * total energy  :   -26.1668626 Eh     change       -0.3621838E-06 Eh
   gradient norm :     0.0002716 Eh/α   predicted    -0.1594135E-06 ( -55.99%)
   displ. norm   :     0.0173538 α      lambda       -0.2080890E-06
   maximum displ.:     0.0120615 α      in ANC's #2, #1, #3, ...

........................................................................
.............................. CYCLE   35 ..............................
........................................................................

 iter      E             dE          RMSdq      gap      omega  full diag
   1    -26.5434938 -0.265435E+02  0.182E-02    3.96       0.0  T
   2    -26.5434938 -0.141560E-07  0.107E-02    3.95       2.4  T
   3    -26.5434938 -0.704405E-08  0.663E-04    3.95      38.9  T
   4    -26.5434938 -0.220733E-08  0.392E-04    3.95      65.9  T
     SCC iter.                  ...        0 min,  0.002 sec
     gradient                   ...        0 min,  0.004 sec
 * total energy  :   -26.1668629 Eh     change       -0.2816618E-06 Eh
   gradient norm :     0.0001439 Eh/α   predicted    -0.1034582E-06 ( -63.27%)
   displ. norm   :     0.0102238 α      lambda       -0.1424239E-06
   maximum displ.:     0.0089060 α      in ANC's #2, #3, #1, ...

........................................................................
.............................. CYCLE   36 ..............................
........................................................................

 iter      E             dE          RMSdq      gap      omega  full diag
   1    -26.5435171 -0.265435E+02  0.124E-02    3.95       0.0  T
   2    -26.5435171 -0.490238E-08  0.731E-03    3.95       3.5  T
   3    -26.5435171 -0.284689E-08  0.369E-04    3.95      70.0  T
   4    -26.5435171 -0.523396E-09  0.233E-04    3.95     110.7  T
     SCC iter.                  ...        0 min,  0.002 sec
     gradient                   ...        0 min,  0.003 sec
 * total energy  :   -26.1668630 Eh     change       -0.1454042E-06 Eh
   gradient norm :     0.0000694 Eh/α   predicted    -0.7130938E-07 ( -50.96%)
   displ. norm   :     0.0055491 α      lambda       -0.1892760E-07
   maximum displ.:     0.0043884 α      in ANC's #2, #1, #3, ...

........................................................................
.............................. CYCLE   37 ..............................
........................................................................

 iter      E             dE          RMSdq      gap      omega  full diag
   1    -26.5434977 -0.265435E+02  0.622E-03    3.95       0.0  T
   2    -26.5434977 -0.180543E-08  0.366E-03    3.95       7.1  T
   3    -26.5434977 -0.522377E-09  0.262E-04    3.95      98.7  T
   4    -26.5434977 -0.476174E-09  0.127E-04    3.95     204.0  T
     SCC iter.                  ...        0 min,  0.002 sec
     gradient                   ...        0 min,  0.004 sec
 * total energy  :   -26.1668630 Eh     change       -0.2494249E-07 Eh
   gradient norm :     0.0000385 Eh/α   predicted    -0.1067112E-07 ( -57.22%)
   displ. norm   :     0.0038477 α      lambda       -0.3407786E-08
   maximum displ.:     0.0025808 α      in ANC's #2, #1, #3, ...

   *** GEOMETRY OPTIMIZATION CONVERGED AFTER 37 ITERATIONS ***

------------------------------------------------------------------------
 total energy gain   :        -0.0029963 Eh       -1.8802 kcal/mol
 total RMSD          :         0.7073620 a0        0.3743 Å
 total power (kW/mol):        -0.2126177 (step)  -24.6135 (real)
------------------------------------------------------------------------

 ANCopt (total)                0 d,  0 h,  0 min,  0.320 sec
 optimizer setup                ...        0 min,  0.000 sec (  0.095%)
 model hessian                  ...        0 min,  0.004 sec (  1.213%)
 ANC generation                 ...        0 min,  0.001 sec (  0.177%)
 coordinate transformation      ...        0 min,  0.000 sec (  0.083%)
 single point calculation       ...        0 min,  0.301 sec ( 94.070%)
 optimization log               ...        0 min,  0.008 sec (  2.438%)
 hessian update                 ...        0 min,  0.000 sec (  0.091%)
 rational function              ...        0 min,  0.004 sec (  1.339%)

================
 final structure:
================
$coord
       -4.77431804498892        0.90608424112878       -0.20693352619611      C
       -4.19531523664608       -1.63424833956811       -0.47485776868634      C
       -1.72644694486436       -2.44902430543626       -0.21919219641364      C
        0.16083324985458       -0.70084110544854        0.30374021317023      C
       -0.39698502585122        1.84114713889963        0.59189650402707      C
       -2.88058334906240        2.62909418534386        0.32722520836260      C
        2.59736392351523       -1.70815974764961        0.60923763954076      O
        4.66739660451630       -0.48576700746973        0.00661266820052      C
        4.86935495404544        1.58968009390414       -0.90086498645564      O
       -6.70024541896245        1.54069869337346       -0.41001680842200      H
       -5.66464738521513       -2.98540526367418       -0.88427238149874      H
       -1.22575033099220       -4.41370249683566       -0.41572055497331      H
        1.07635106949734        3.18460215620213        1.00854464702235      H
       -3.32342214913743        4.60628412208795        0.54690512866161      H
        6.29780421193128       -1.70174297048584        0.44963669081125      H
$end
 
 Bond Distances (Angstroems)
 ---------------------------
C1-C2=1.3860         C1-C6=1.3840         C1-H10=1.0784        C2-C1=1.3860         C2-C3=1.3824         C2-H11=1.0783        
C3-C2=1.3824         C3-C4=1.3892         C3-H12=1.0779        C4-C3=1.3892         C4-C5=1.3856         C4-O7=1.4045         
C5-C4=1.3856         C5-C6=1.3859         C5-H13=1.0779        C6-C1=1.3840         C6-C5=1.3859         C6-H14=1.0785        
O7-C4=1.4045         O7-C8=1.3115         C8-O7=1.3115         C8-O9=1.2034         C8-H15=1.1015        O9-C8=1.2034         
H10-C1=1.0784        H11-C2=1.0783        H12-C3=1.0779        H13-C5=1.0779        H14-C6=1.0785        H15-C8=1.1015        
 C  H  Rav=1.0821 sigma=0.0087  Rmin=1.0779  Rmax=1.1015     6
 C  C  Rav=1.3855 sigma=0.0021  Rmin=1.3824  Rmax=1.3892     6
 O  C  Rav=1.3065 sigma=0.0822  Rmin=1.2034  Rmax=1.4045     3
 
 selected bond angles (degree)
 --------------------
C6-C1-C2=119.99                H10-C1-C2=120.05               H10-C1-C6=119.97               C3-C2-C1=120.09                
H11-C2-C1=120.28               H11-C2-C3=119.62               C4-C3-C2=119.42                H12-C3-C2=121.58               
H12-C3-C4=119.00               C5-C4-C3=121.02                O7-C4-C3=115.48                O7-C4-C5=123.46                
C6-C5-C4=118.88                H13-C5-C4=120.58               H13-C5-C6=120.54               C5-C6-C1=120.60                
H14-C6-C1=120.25               H14-C6-C5=119.15               C8-O7-C4=123.47                O9-C8-O7=128.41                
H15-C8-O7=108.32               H15-C8-O9=123.26               
 
 selected dihedral angles (degree)
 ---------------------------------
C3-C2-C1-C6=359.74            C3-C2-C1-H10=179.89           H11-C2-C1-C6=179.78           H11-C2-C1-H10=359.92          
C4-C3-C2-C1=359.92            C4-C3-C2-H11=179.88           H12-C3-C2-C1=179.91           H12-C3-C2-H11=359.88          
C5-C4-C3-C2=  0.51            C5-C4-C3-H12=180.51           O7-C4-C3-C2=178.10            O7-C4-C3-H12=358.10           
C6-C5-C4-C3=359.42            C6-C5-C4-O7=182.03            H13-C5-C4-C3=179.63           H13-C5-C4-O7=  2.24           
C5-C6-C1-C2=  0.18            C5-C6-C1-H10=180.04           H14-C6-C1-C2=180.32           H14-C6-C1-H10=  0.17          
C1-C6-C5-C4=  0.23            C1-C6-C5-H13=180.02           H14-C6-C5-C4=180.10           H14-C6-C5-H13=359.89          
C8-O7-C4-C3=148.67            C8-O7-C4-C5=326.19            O9-C8-O7-C4=358.90            H15-C8-O7-C4=179.63           
           -------------------------------------------------
          |                Final Singlepoint                |
           -------------------------------------------------

          ...................................................
          :                      SETUP                      :
          :.................................................:
          :  # basis functions                  42          :
          :  # atomic orbitals                  42          :
          :  # shells                           24          :
          :  # electrons                        46          :
          :  max. iterations                   250          :
          :  Hamiltonian                  GFN2-xTB          :
          :  restarted?                      false          :
          :  GBSA solvation                   true          :
          :  PC potential                    false          :
          :  electronic temp.          300.0000000     K    :
          :  accuracy                    1.0000000          :
          :  -> integral cutoff          0.2500000E+02      :
          :  -> integral neglect         0.1000000E-07      :
          :  -> SCF convergence          0.1000000E-05 Eh   :
          :  -> wf. convergence          0.1000000E-03 e    :
          :  Broyden damping             0.4000000          :
          :  net charge                          0          :
          :  unpaired electrons                  0          :
          ...................................................

 iter      E             dE          RMSdq      gap      omega  full diag
   1    -26.5434977 -0.265435E+02  0.656E-05    3.95       0.0  T
   2    -26.5434977 -0.100648E-10  0.434E-05    3.95     595.2  T
   3    -26.5434977 -0.498446E-11  0.281E-05    3.95     919.9  T

   *** convergence criteria satisfied after 3 iterations ***

         #    Occupation            Energy/Eh            Energy/eV
      -------------------------------------------------------------
         1        2.0000           -0.7680728             -20.9003
       ...           ...                  ...                  ...
        17        2.0000           -0.4869863             -13.2516
        18        2.0000           -0.4791998             -13.0397
        19        2.0000           -0.4549665             -12.3803
        20        2.0000           -0.4375668             -11.9068
        21        2.0000           -0.4277721             -11.6403
        22        2.0000           -0.4172385             -11.3536
        23        2.0000           -0.4113695             -11.1939 (HOMO)
        24                         -0.2660691              -7.2401 (LUMO)
        25                         -0.2360301              -6.4227
        26                         -0.2229255              -6.0661
        27                         -0.1027552              -2.7961
        28                          0.0040244               0.1095
       ...                                ...                  ...
        42                          0.6654460              18.1077
      -------------------------------------------------------------
                  HL-Gap            0.1453004 Eh            3.9538 eV
             Fermi-level           -0.3387193 Eh           -9.2170 eV

 SCC (total)                   0 d,  0 h,  0 min,  0.008 sec
 SCC setup                      ...        0 min,  0.001 sec ( 10.800%)
 Dispersion                     ...        0 min,  0.000 sec (  0.825%)
 classical contributions        ...        0 min,  0.000 sec (  0.200%)
 integral evaluation            ...        0 min,  0.001 sec ( 18.457%)
 iterations                     ...        0 min,  0.001 sec ( 18.162%)
 molecular gradient             ...        0 min,  0.004 sec ( 49.717%)
 printout                       ...        0 min,  0.000 sec (  1.610%)

         :::::::::::::::::::::::::::::::::::::::::::::::::::::
         ::                     SUMMARY                     ::
         :::::::::::::::::::::::::::::::::::::::::::::::::::::
         :: total energy             -26.166863043932 Eh    ::
         :: total w/o Gsasa/hb       -26.167390982393 Eh    ::
         :: gradient norm              0.000038583479 Eh/a0 ::
         :: HOMO-LUMO gap              3.953825635839 eV    ::
         ::.................................................::
         :: SCC energy               -26.543484650778 Eh    ::
         :: -> isotropic ES            0.047326000249 Eh    ::
         :: -> anisotropic ES         -0.000560581315 Eh    ::
         :: -> anisotropic XC          0.009116442273 Eh    ::
         :: -> dispersion             -0.011571053560 Eh    ::
         :: -> Gsolv                  -0.006205643883 Eh    ::
         ::    -> Gelec               -0.006733582344 Eh    ::
         ::    -> Gsasa                0.001162188812 Eh    ::
         ::    -> Ghb                 -0.001715010050 Eh    ::
         ::    -> Gshift               0.001080759698 Eh    ::
         :: repulsion energy           0.376621606846 Eh    ::
         :: add. restraining           0.000000000000 Eh    ::
         :: total charge               0.000000000000 e     ::
         :::::::::::::::::::::::::::::::::::::::::::::::::::::

           ------------------------------------------------- 
          |                Numerical Hessian                |
           ------------------------------------------------- 
step length          :   0.00500
SCC accuracy         :   0.30000
Hessian scale factor :   1.00000
frozen atoms in %    :   0.00000    0
RMS gradient         :   0.00004
estimated CPU  time      0.01 min
estimated wall time      0.01 min

writing file <hessian>.

 projected vibrational frequencies (cm⁻¹)
eigval :       -0.00    -0.00    -0.00     0.00     0.00     0.00
eigval :       26.21   144.11   196.66   286.70   373.11   375.73
eigval :      470.13   498.31   583.64   653.13   731.73   759.97
eigval :      814.50   868.81   898.16   923.86   927.08   928.78
eigval :      976.21  1075.12  1112.71  1128.76  1174.17  1176.17
eigval :     1197.18  1269.79  1318.38  1351.89  1434.46  1452.60
eigval :     1586.25  1592.17  1710.79  2843.19  3094.90  3099.45
eigval :     3107.61  3114.56  3118.45
           -------------------------------------------------
          |                Property Printout                |
           -------------------------------------------------

    * Orbital Energies and Occupations

         #    Occupation            Energy/Eh            Energy/eV
      -------------------------------------------------------------
         1        2.0000           -0.7680728             -20.9003
       ...           ...                  ...                  ...
        11        2.0000           -0.5667878             -15.4231
        12        2.0000           -0.5318110             -14.4713
        13        2.0000           -0.5245244             -14.2730
        14        2.0000           -0.5195467             -14.1376
        15        2.0000           -0.4971844             -13.5291
        16        2.0000           -0.4907225             -13.3532
        17        2.0000           -0.4869863             -13.2516
        18        2.0000           -0.4791997             -13.0397
        19        2.0000           -0.4549664             -12.3803
        20        2.0000           -0.4375668             -11.9068
        21        2.0000           -0.4277721             -11.6403
        22        2.0000           -0.4172385             -11.3536
        23        2.0000           -0.4113695             -11.1939 (HOMO)
        24                         -0.2660690              -7.2401 (LUMO)
        25                         -0.2360301              -6.4227
        26                         -0.2229255              -6.0661
        27                         -0.1027552              -2.7961
        28                          0.0040244               0.1095
        29                          0.1218270               3.3151
        30                          0.1426266               3.8811
        31                          0.1590461               4.3279
        32                          0.1708276               4.6485
        33                          0.1855863               5.0501
        34                          0.1934032               5.2628
       ...                                ...                  ...
        42                          0.6654460              18.1077
      -------------------------------------------------------------
                  HL-Gap            0.1453005 Eh            3.9538 eV
             Fermi-level           -0.3387193 Eh           -9.2170 eV

     #   Z          covCN         q      C6AA      α(0)
     1   6 C        2.919    -0.035    28.867     8.811
     2   6 C        2.922    -0.031    28.770     8.796
     3   6 C        2.918    -0.048    29.189     8.860
     4   6 C        2.867     0.135    25.043     8.203
     5   6 C        2.916    -0.045    29.130     8.850
     6   6 C        2.923    -0.031    28.785     8.798
     7   8 O        1.706    -0.233    17.855     5.705
     8   6 C        2.651     0.346    21.122     7.519
     9   8 O        0.856    -0.438    22.449     6.352
    10   1 H        0.926     0.065     2.146     2.291
    11   1 H        0.926     0.068     2.110     2.272
    12   1 H        0.926     0.070     2.080     2.255
    13   1 H        0.926     0.059     2.206     2.322
    14   1 H        0.926     0.062     2.172     2.304
    15   1 H        0.923     0.055     2.264     2.353

 Mol. C6AA /au·bohr⁶  :       2933.780318
 Mol. C8AA /au·bohr⁸  :      71124.848406
 Mol. α(0) /au        :         85.691729


Wiberg/Mayer (AO) data.
largest (>0.10) Wiberg bond orders for each atom

 ---------------------------------------------------------------------------
     #   Z sym  total        # sym  WBO       # sym  WBO       # sym  WBO
 ---------------------------------------------------------------------------
     1   6 C    3.990 --     6 C    1.445     2 C    1.432    10 H    0.968
                             4 C    0.102
     2   6 C    3.988 --     3 C    1.451     1 C    1.432    11 H    0.967
                             5 C    0.110
     3   6 C    3.986 --     2 C    1.451     4 C    1.385    12 H    0.965
                             6 C    0.112
     4   6 C    3.896 --     5 C    1.404     3 C    1.385     7 O    0.937
                             1 C    0.102
     5   6 C    3.989 --     6 C    1.434     4 C    1.404    13 H    0.966
                             2 C    0.110
     6   6 C    3.989 --     1 C    1.445     5 C    1.434    14 H    0.968
                             3 C    0.112
     7   8 O    2.396 --     8 C    1.196     4 C    0.937     9 O    0.186
     8   6 C    3.911 --     9 O    1.749     7 O    1.196    15 H    0.914
     9   8 O    2.020 --     8 C    1.749     7 O    0.186
    10   1 H    0.996 --     1 C    0.968
    11   1 H    0.995 --     2 C    0.967
    12   1 H    0.995 --     3 C    0.965
    13   1 H    0.996 --     5 C    0.966
    14   1 H    0.996 --     6 C    0.968
    15   1 H    0.996 --     8 C    0.914
 ---------------------------------------------------------------------------

Topologies differ in total number of bonds
Writing topology from bond orders to xtbtopo.mol

molecular dipole:
                 x           y           z       tot (Debye)
 q only:       -1.313      -0.622       0.294
   full:       -1.090      -0.714       0.350       3.430
molecular quadrupole (traceless):
                xx          xy          yy          xz          yz          zz
 q only:        1.198      -5.436       0.976       3.231       1.939      -2.175
  q+dip:        1.962      -6.782       2.621       4.624       3.273      -4.583
   full:        0.856      -6.663       0.862       4.024       3.062      -1.718

           -------------------------------------------------
          |                Geometry Summary                 |
           -------------------------------------------------

      molecular mass/u    :      122.1216056
   center of mass at/Å    :        0.0000181      -0.0016664      -0.0018330
  moments of inertia/u·Å² :        0.1206989E+03   0.4298818E+03   0.5327070E+03
rotational constants/cm⁻¹ :        0.1396668E+00   0.3921458E-01   0.3164523E-01

 * 14 selected distances

     #   Z          #   Z                                           value/Å
     1   6 C        2   6 C                                       1.3860321
     2   6 C        3   6 C                                       1.3824127
     3   6 C        4   6 C                                       1.3891714 (max)
     4   6 C        5   6 C                                       1.3855857
     1   6 C        6   6 C                                       1.3840105
     5   6 C        6   6 C                                       1.3859164
     7   8 O        8   6 C                                       1.3115097
     8   6 C        9   8 O                                       1.2034314
     1   6 C       10   1 H                                       1.0784283
     2   6 C       11   1 H                                       1.0782994
     3   6 C       12   1 H                                       1.0779226
     5   6 C       13   1 H                                       1.0779103 (min)
     6   6 C       14   1 H                                       1.0784894
     8   6 C       15   1 H                                       1.1015402

 * 3 distinct bonds (by element types)

   Z      Z             #   av. dist./Å        max./Å        min./Å
   1 H    6 C           6     1.0820984     1.1015402     1.0779103
   6 C    6 C           6     1.3855214     1.3891714     1.3824127
   6 C    8 O           2     1.2574705     1.3115097     1.2034314

           -------------------------------------------------
          |               Frequency Printout                |
           -------------------------------------------------
 projected vibrational frequencies (cm⁻¹)
eigval :       -0.00    -0.00    -0.00     0.00     0.00     0.00
eigval :       26.21   144.11   196.66   286.70   373.11   375.73
eigval :      470.13   498.31   583.64   653.13   731.73   759.97
eigval :      814.50   868.81   898.16   923.86   927.08   928.78
eigval :      976.21  1075.12  1112.71  1128.76  1174.17  1176.17
eigval :     1197.18  1269.79  1318.38  1351.89  1434.46  1452.60
eigval :     1586.25  1592.17  1710.79  2843.19  3094.90  3099.45
eigval :     3107.61  3114.56  3118.45
 reduced masses (amu)
   1: 13.09   2: 11.29   3: 11.59   4: 11.61   5: 12.26   6: 13.38   7: 13.40   8: 12.18
   9: 10.44  10: 11.10  11:  9.51  12: 11.22  13: 12.50  14: 10.24  15: 11.23  16:  9.90
  17: 10.86  18:  5.96  19: 13.20  20:  3.35  21:  3.54  22:  4.12  23:  5.49  24:  3.30
  25: 11.15  26:  6.24  27:  3.93  28: 10.46  29:  2.43  30:  8.01  31:  6.15  32:  3.47
  33: 11.80  34:  2.71  35:  9.04  36:  8.75  37: 11.50  38: 11.60  39: 13.45  40:  1.71
  41:  1.76  42:  1.81  43:  1.86  44:  1.89  45:  1.89
 IR intensities (km·mol⁻¹)
   1:  0.10   2:  0.81   3:  0.64   4:  0.87   5:  0.41   6:  0.27   7:  3.46   8:  6.62
   9:  9.19  10:  9.67  11:  2.82  12: 11.46  13:  4.49  14:  2.24  15:  0.08  16:  1.70
  17: 11.62  18: 48.21  19: 80.31  20:  0.46  21:  1.89  22:  0.12  23:  6.59  24:  0.06
  25: 14.07  26:  2.04  27:  3.62  28: 94.15  29: 40.26  30:328.25  31:212.75  32:  0.34
  33:  5.76  34: 20.12  35:  1.26  36: 27.63  37: 10.60  38:  2.34  39:886.31  40:122.76
  41:  1.23  42: 21.95  43: 65.11  44: 47.95  45: 12.96
 Raman intensities (Ä⁴*amu⁻¹)
   1:  0.00   2:  0.00   3:  0.00   4:  0.00   5:  0.00   6:  0.00   7:  0.00   8:  0.00
   9:  0.00  10:  0.00  11:  0.00  12:  0.00  13:  0.00  14:  0.00  15:  0.00  16:  0.00
  17:  0.00  18:  0.00  19:  0.00  20:  0.00  21:  0.00  22:  0.00  23:  0.00  24:  0.00
  25:  0.00  26:  0.00  27:  0.00  28:  0.00  29:  0.00  30:  0.00  31:  0.00  32:  0.00
  33:  0.00  34:  0.00  35:  0.00  36:  0.00  37:  0.00  38:  0.00  39:  0.00  40:  0.00
  41:  0.00  42:  0.00  43:  0.00  44:  0.00  45:  0.00
 output can be read by thermo (or use thermo option).
 writing <g98.out> molden fake output.
 recommended (thermochemical) frequency scaling factor: 1.0
           -------------------------------------------------
          |             Thermodynamic Functions             |
           -------------------------------------------------

Molecule has no symmetry elements
It seems to be the C1 point group
c1  symmetry found (for desy threshold:  0.10E+00) used in thermo

          ...................................................
          :                      SETUP                      :
          :.................................................:
          :  # frequencies                          39      :
          :  # imaginary freq.                       0      :
          :  linear?                             false      :
          :  only rotor calc.                    false      :
          :  symmetry                               c1      :
          :  rotational number                       1      :
          :  scaling factor                  1.0000000      :
          :  rotor cutoff                    0.0000000 cm⁻¹ :
          :  imag. cutoff                 -100.0000000 cm⁻¹ :
          :.................................................:

    mode    ω/cm⁻¹     T·S(HO)/kcal·mol⁻¹    T·S(FR)/kcal·mol⁻¹   T·S(vib)
   ------------------------------------------------------------------------
       1     26.21    -1.81803 (100.00%)    -1.24741 (  0.00%)    -1.81803
       2    144.11    -0.81949 (100.00%)    -0.74287 (  0.00%)    -0.81949
       3    196.66    -0.64523 (100.00%)    -0.65079 (  0.00%)    -0.64523
       4    286.70    -0.44524 (100.00%)    -0.53914 (  0.00%)    -0.44524
   ------------------------------------------------------------------------

   temp. (K)  partition function   enthalpy   heat capacity  entropy
                                   cal/mol     cal/K/mol   cal/K/mol   J/K/mol
 298.15  VIB   85.4                 2971.732     22.238     18.806
         ROT  0.402E+06              888.752      2.981     28.623
         INT  0.343E+08             3860.485     25.219     47.429
         TR   0.131E+28             1481.254      4.968     40.295
         TOT                        5341.7385    30.1872    87.7246   367.0395

       T/K    H(0)-H(T)+PV         H(T)/Eh          T*S/Eh         G(T)/Eh
   ------------------------------------------------------------------------
    298.15    0.851260E-02    0.118765E+00    0.416808E-01    0.770847E-01
   ------------------------------------------------------------------------

         :::::::::::::::::::::::::::::::::::::::::::::::::::::
         ::                  THERMODYNAMIC                  ::
         :::::::::::::::::::::::::::::::::::::::::::::::::::::
         :: total free energy         -26.089778331794 Eh   ::
         ::.................................................::
         :: total energy              -26.166863043983 Eh   ::
         :: zero point energy           0.110252876859 Eh   ::
         :: G(RRHO) w/o ZPVE           -0.033168164670 Eh   ::
         :: G(RRHO) contrib.            0.077084712189 Eh   ::
         :::::::::::::::::::::::::::::::::::::::::::::::::::::

optimized geometry written to: xtbopt.coord


           -------------------------------------------------
          | TOTAL ENERGY              -26.166863043983 Eh   |
          | TOTAL ENTHALPY            -26.048097564935 Eh   |
          | TOTAL FREE ENERGY         -26.089778331794 Eh   |
          | GRADIENT NORM               0.000038614937 Eh/α |
          | HOMO-LUMO GAP               3.953826936258 eV   |
           -------------------------------------------------

------------------------------------------------------------------------
 * finished run on 2025/04/07 at 01:04:34.694     
------------------------------------------------------------------------
 total:
 * wall-time:     0 d,  0 h,  0 min,  1.139 sec
 *  cpu-time:     0 d,  0 h,  0 min,  1.069 sec
 * ratio c/w:     0.939 speedup
 SCF:
 * wall-time:     0 d,  0 h,  0 min,  0.013 sec
 *  cpu-time:     0 d,  0 h,  0 min,  0.013 sec
 * ratio c/w:     0.989 speedup
 ANC optimizer:
 * wall-time:     0 d,  0 h,  0 min,  0.338 sec
 *  cpu-time:     0 d,  0 h,  0 min,  0.322 sec
 * ratio c/w:     0.952 speedup
 analytical hessian:
 * wall-time:     0 d,  0 h,  0 min,  0.735 sec
 *  cpu-time:     0 d,  0 h,  0 min,  0.722 sec
 * ratio c/w:     0.983 speedup

