! wb97x-v def2-tzvp def2/J RIJCOSX DEFGRID2 scfconv7 GCP(DFT/TZ) printgap
%output
    printlevel normal
end
%cpcm
    smd true
    smdsolvent "water"
end
* xyz 0 1
C -3.100790858838765 0.40245769497370076 0.0787313047427836
C -1.637896648292363 0.054869446883092234 0.04028277383336562
C -1.204791650478935 -1.2690372100009037 -0.03153205104415527
C 0.15382025655838186 -1.576045415376687 -0.08801327987179891
C 1.0952262844827023 -0.5526985371883765 -0.07294745728858598
C 0.7004836172457842 0.7908727129564694 0.004035995078235058
C -0.6656597398205797 1.0622615454769229 0.05907030593920373
C 1.7286523109495797 1.8825844403831744 0.026609900444757435
O 2.4521072671014568 -0.8055306680765157 -0.13130156656818007
H -3.7133101733170153 -0.4880987017022822 0.24217769977898476
H -3.3187613796020616 1.1200277357355473 0.8764595606003976
H -3.4234046701638627 0.8615522666314396 -0.8632051455440775
H -1.932599776503916 -2.0757126283497724 -0.04389537018494861
H 0.4851115872330665 -2.6100809705520853 -0.14350271743944928
H -0.9821405400933314 2.101586653819894 0.11877673267448248
H 1.2478683462956786 2.861367285797557 0.09961616444031693
H 2.4118710649621344 1.7697493019242558 0.8766788022991384
H 2.34590649751668 1.868502807617245 -0.8794928549899438
H 2.5878783549279007 -1.7611015804314967 -0.19582460589048903
*
