 Entering Gaussian System
 *********************************************
 Gaussian 98:
 frequency output generated by the xtb code
 *********************************************
                         Standard orientation:
 --------------------------------------------------------------------
  Center     Atomic     Atomic              Coordinates (Angstroms)
  Number     Number      Type              X           Y           Z
 --------------------------------------------------------------------
    1          6             0        2.380366    0.406287    0.000042
    2          6             0        1.183198   -0.530073   -0.000145
    3          8             0        0.000006    0.244786    0.000033
    4          6             0       -1.183192   -0.530063   -0.000015
    5          6             0       -2.380353    0.406306    0.000022
    6          1             0        2.351084    1.039284    0.882100
    7          1             0        3.298915   -0.171839   -0.000183
    8          1             0        2.350962    1.039778   -0.881658
    9          1             0        1.198429   -1.178200    0.890334
   10          1             0        1.198405   -1.177817   -0.890905
   11          1             0       -1.198411   -1.177954   -0.890668
   12          1             0       -1.198422   -1.178044    0.890571
   13          1             0       -2.350996    1.039526    0.881918
   14          1             0       -2.351014    1.039574   -0.881841
   15          1             0       -3.298906   -0.171813    0.000015
 --------------------------------------------------------------------
     1 basis functions        1 primitive gaussians
     1 alpha electrons        1 beta electrons
 
 Harmonic frequencies (cm**-1), IR intensities (km*mol⁻¹),
 Raman scattering activities (A**4/amu), Raman depolarization ratios,
 reduced masses (AMU), force constants (mDyne/A) and normal coordinates:
                      1                      2                      3
                        a                      a                      a 
 Frequencies --    93.7995                96.0320               181.8864
 Red. masses --     5.2935                10.9282                 9.2940
 Frc consts  --     0.0000                 0.0000                 0.0000
 IR Inten    --     0.0000                 8.7723                 2.1473
 Raman Activ --     0.0000                 0.0000                 0.0000
 Depolar     --     0.0000                 0.0000                 0.0000
 Atom AN      X      Y      Z        X      Y      Z        X      Y      Z
   1   6    -0.00   0.00   0.19    -0.00   0.00  -0.33     0.29  -0.34  -0.00
   2   6     0.00   0.00  -0.40    -0.00  -0.00   0.04    -0.11   0.18  -0.00
   3   8     0.00  -0.00   0.00     0.00  -0.00   0.71     0.00   0.44   0.00
   4   6    -0.00  -0.00   0.40    -0.00  -0.00   0.04     0.11   0.18   0.00
   5   6     0.00   0.00  -0.19     0.00   0.00  -0.33    -0.29  -0.34  -0.00
   6   1     0.03  -0.19   0.20     0.13  -0.06  -0.05     0.18  -0.10   0.00
   7   1    -0.00   0.00  -0.10    -0.00   0.00  -0.26    -0.00  -0.24   0.00
   8   1    -0.03   0.19   0.20    -0.13   0.06  -0.05     0.18  -0.10  -0.00
   9   1    -0.01  -0.15  -0.22     0.10  -0.04  -0.02    -0.09   0.05  -0.00
  10   1     0.01   0.15  -0.22    -0.10   0.04  -0.02    -0.09   0.05   0.00
  11   1     0.01  -0.15   0.22     0.10   0.04  -0.02     0.09   0.05   0.00
  12   1    -0.01   0.15   0.22    -0.10  -0.04  -0.02     0.09   0.05  -0.00
  13   1     0.03   0.19  -0.20    -0.13  -0.06  -0.05    -0.18  -0.10   0.00
  14   1    -0.03  -0.19  -0.20     0.13   0.06  -0.05    -0.18  -0.10  -0.00
  15   1     0.00   0.00   0.10    -0.00   0.00  -0.26     0.00  -0.24  -0.00
                      4                      5                      6
                        a                      a                      a 
 Frequencies --   201.0383               208.6911               405.5872
 Red. masses --     2.5238                 3.6594                 9.3122
 Frc consts  --     0.0000                 0.0000                 0.0000
 IR Inten    --     0.0000                 2.4606                 2.9994
 Raman Activ --     0.0000                 0.0000                 0.0000
 Depolar     --     0.0000                 0.0000                 0.0000
 Atom AN      X      Y      Z        X      Y      Z        X      Y      Z
   1   6    -0.00   0.00   0.03     0.00  -0.00   0.03    -0.27   0.04   0.00
   2   6     0.00  -0.00  -0.26    -0.00   0.00   0.14     0.12  -0.40  -0.00
   3   8    -0.00  -0.00  -0.00     0.00   0.00  -0.38     0.43  -0.00   0.00
   4   6    -0.00  -0.00   0.26     0.00   0.00   0.14     0.12   0.40   0.00
   5   6     0.00   0.00  -0.03    -0.00  -0.00   0.03    -0.27  -0.04   0.00
   6   1    -0.25   0.20  -0.14     0.22  -0.21   0.17    -0.21   0.01  -0.00
   7   1     0.00   0.00   0.39    -0.00  -0.00  -0.36     0.04   0.20   0.00
   8   1     0.25  -0.20  -0.14    -0.22   0.21   0.17    -0.21   0.01   0.00
   9   1     0.00  -0.07  -0.12    -0.04   0.08   0.10     0.02  -0.11   0.00
  10   1    -0.00   0.07  -0.12     0.04  -0.08   0.10     0.02  -0.11  -0.00
  11   1    -0.00  -0.07   0.12    -0.04  -0.08   0.10     0.02   0.11   0.00
  12   1     0.00   0.07   0.12     0.04   0.08   0.10     0.02   0.11  -0.00
  13   1    -0.25  -0.20   0.14    -0.22  -0.21   0.17    -0.21  -0.01   0.00
  14   1     0.25   0.20   0.14     0.22   0.21   0.17    -0.21  -0.01  -0.00
  15   1    -0.00   0.00  -0.39     0.00  -0.00  -0.36     0.04  -0.20  -0.00
                      7                      8                      9
                        a                      a                      a 
 Frequencies --   427.3381               832.9626               844.0162
 Red. masses --     9.9974                 1.8764                 2.0438
 Frc consts  --     0.0000                 0.0000                 0.0000
 IR Inten    --     0.0112                 0.0000                 5.0479
 Raman Activ --     0.0000                 0.0000                 0.0000
 Depolar     --     0.0000                 0.0000                 0.0000
 Atom AN      X      Y      Z        X      Y      Z        X      Y      Z
   1   6    -0.43  -0.13  -0.00     0.00   0.00  -0.09     0.00  -0.00   0.10
   2   6    -0.36  -0.04   0.00    -0.00   0.00  -0.18     0.00  -0.00   0.16
   3   8     0.00   0.34   0.00    -0.00  -0.00  -0.00    -0.00   0.00  -0.13
   4   6     0.36  -0.04  -0.00     0.00  -0.00   0.18     0.00  -0.00   0.16
   5   6     0.43  -0.13  -0.00    -0.00   0.00   0.09     0.00  -0.00   0.10
   6   1    -0.16  -0.03  -0.00    -0.21  -0.20   0.12     0.22   0.21  -0.12
   7   1    -0.10   0.00   0.00     0.00  -0.00   0.11    -0.00   0.00  -0.11
   8   1    -0.16  -0.03   0.00     0.21   0.20   0.12    -0.22  -0.21  -0.12
   9   1    -0.16  -0.02  -0.00     0.13   0.28   0.16    -0.15  -0.26  -0.15
  10   1    -0.16  -0.02   0.00    -0.13  -0.28   0.16     0.15   0.26  -0.15
  11   1     0.16  -0.02   0.00    -0.13   0.28  -0.16    -0.15   0.26  -0.15
  12   1     0.16  -0.02  -0.00     0.13  -0.28  -0.16     0.15  -0.26  -0.15
  13   1     0.16  -0.03  -0.00    -0.21   0.20  -0.12    -0.22   0.21  -0.12
  14   1     0.16  -0.03   0.00     0.21  -0.20  -0.12     0.22  -0.21  -0.12
  15   1     0.10   0.00  -0.00    -0.00   0.00  -0.11    -0.00   0.00  -0.11
                     10                     11                     12
                        a                      a                      a 
 Frequencies --   884.1855               965.5834              1083.8524
 Red. masses --     7.4165                 8.1140                 8.6289
 Frc consts  --     0.0000                 0.0000                 0.0000
 IR Inten    --    11.9861                20.1326                 3.9748
 Raman Activ --     0.0000                 0.0000                 0.0000
 Depolar     --     0.0000                 0.0000                 0.0000
 Atom AN      X      Y      Z        X      Y      Z        X      Y      Z
   1   6     0.21  -0.09  -0.00     0.34  -0.00  -0.00    -0.14  -0.36  -0.00
   2   6     0.18  -0.24  -0.00     0.00  -0.19  -0.00     0.28   0.33   0.00
   3   8     0.00   0.47   0.00    -0.50   0.00   0.00    -0.12  -0.00   0.00
   4   6    -0.18  -0.24  -0.00     0.00   0.19   0.00     0.28  -0.33  -0.00
   5   6    -0.21  -0.09  -0.00     0.34   0.00  -0.00    -0.14   0.36   0.00
   6   1    -0.18  -0.01  -0.02    -0.11   0.02  -0.02    -0.22  -0.08  -0.01
   7   1     0.26   0.31   0.00     0.28   0.31   0.00     0.08   0.10   0.00
   8   1    -0.18  -0.01   0.02    -0.11   0.02   0.02    -0.22  -0.08   0.01
   9   1    -0.07  -0.05   0.00    -0.11  -0.04  -0.00     0.06   0.09   0.00
  10   1    -0.07  -0.05  -0.00    -0.11  -0.04   0.00     0.06   0.09  -0.00
  11   1     0.07  -0.05  -0.00    -0.11   0.04  -0.00     0.06  -0.09   0.00
  12   1     0.07  -0.05   0.00    -0.11   0.04   0.00     0.06  -0.09  -0.00
  13   1     0.18  -0.01  -0.02    -0.11  -0.02   0.02    -0.22   0.08   0.01
  14   1     0.18  -0.01   0.02    -0.11  -0.02  -0.02    -0.22   0.08  -0.01
  15   1    -0.26   0.31   0.00     0.28  -0.31  -0.00     0.08  -0.10  -0.00
                     13                     14                     15
                        a                      a                      a 
 Frequencies --  1086.4298              1106.1015              1137.2380
 Red. masses --     9.4960                10.8731                 4.5987
 Frc consts  --     0.0000                 0.0000                 0.0000
 IR Inten    --    22.6336               162.9688                 0.0000
 Raman Activ --     0.0000                 0.0000                 0.0000
 Depolar     --     0.0000                 0.0000                 0.0000
 Atom AN      X      Y      Z        X      Y      Z        X      Y      Z
   1   6     0.29   0.20   0.00    -0.15   0.05  -0.00     0.00  -0.00  -0.21
   2   6    -0.46  -0.09  -0.00     0.37  -0.26  -0.00    -0.00   0.00   0.34
   3   8     0.00  -0.25  -0.00    -0.56   0.00  -0.00    -0.00  -0.00   0.00
   4   6     0.46  -0.09  -0.00     0.37   0.26   0.00     0.00   0.00  -0.34
   5   6    -0.29   0.20   0.00    -0.15  -0.05  -0.00    -0.00  -0.00   0.21
   6   1     0.06   0.07  -0.01     0.10  -0.01   0.02    -0.16  -0.16   0.06
   7   1     0.12   0.12   0.00    -0.14  -0.16  -0.00     0.00   0.00   0.10
   8   1     0.06   0.07   0.01     0.10  -0.01  -0.02     0.16   0.16   0.06
   9   1    -0.19  -0.06  -0.01     0.14  -0.03   0.01     0.20  -0.24  -0.10
  10   1    -0.19  -0.06   0.01     0.14  -0.03  -0.01    -0.20   0.24  -0.10
  11   1     0.19  -0.06   0.01     0.14   0.03   0.01    -0.20  -0.24   0.10
  12   1     0.19  -0.06  -0.01     0.14   0.03  -0.01     0.20   0.24   0.10
  13   1    -0.06   0.07  -0.01     0.10   0.01  -0.02    -0.16   0.16  -0.06
  14   1    -0.06   0.07   0.01     0.10   0.01   0.02     0.16  -0.16  -0.06
  15   1    -0.12   0.12   0.00    -0.14   0.16   0.00    -0.00   0.00  -0.10
                     16                     17                     18
                        a                      a                      a 
 Frequencies --  1156.1363              1162.3389              1247.9816
 Red. masses --     9.0221                 5.6335                 2.0501
 Frc consts  --     0.0000                 0.0000                 0.0000
 IR Inten    --    66.7540                38.8807                 0.0000
 Raman Activ --     0.0000                 0.0000                 0.0000
 Depolar     --     0.0000                 0.0000                 0.0000
 Atom AN      X      Y      Z        X      Y      Z        X      Y      Z
   1   6     0.06  -0.27   0.00    -0.00   0.00   0.22    -0.00   0.00  -0.21
   2   6    -0.07   0.42  -0.00     0.00  -0.00  -0.35    -0.00  -0.00   0.07
   3   8    -0.00  -0.39  -0.00    -0.00   0.00   0.24    -0.00  -0.00  -0.00
   4   6     0.07   0.42   0.00     0.00  -0.00  -0.35     0.00   0.00  -0.07
   5   6    -0.06  -0.27  -0.00    -0.00   0.00   0.22    -0.00  -0.00   0.21
   6   1    -0.21  -0.04  -0.02     0.16   0.16  -0.06    -0.12  -0.13   0.04
   7   1     0.16   0.18   0.00    -0.00  -0.00  -0.10     0.00  -0.00   0.07
   8   1    -0.21  -0.04   0.02    -0.16  -0.16  -0.06     0.12   0.13   0.04
   9   1     0.01   0.08  -0.01    -0.14   0.24   0.10    -0.44  -0.03  -0.00
  10   1     0.01   0.08   0.01     0.14  -0.25   0.10     0.44   0.03  -0.00
  11   1    -0.01   0.08   0.01    -0.14  -0.24   0.10     0.44  -0.03   0.00
  12   1    -0.01   0.08  -0.01     0.14   0.24   0.10    -0.44   0.03   0.00
  13   1     0.21  -0.04  -0.02    -0.16   0.16  -0.06    -0.12   0.13  -0.04
  14   1     0.21  -0.04   0.02     0.16  -0.16  -0.06     0.12  -0.13  -0.04
  15   1    -0.16   0.18   0.00     0.00  -0.00  -0.10    -0.00   0.00  -0.07
                     19                     20                     21
                        a                      a                      a 
 Frequencies --  1257.0422              1324.7641              1347.1762
 Red. masses --     2.2817                 3.1774                 3.8672
 Frc consts  --     0.0000                 0.0000                 0.0000
 IR Inten    --     7.2222                33.6616                 5.1667
 Raman Activ --     0.0000                 0.0000                 0.0000
 Depolar     --     0.0000                 0.0000                 0.0000
 Atom AN      X      Y      Z        X      Y      Z        X      Y      Z
   1   6     0.00  -0.00   0.19    -0.03   0.10   0.00    -0.04  -0.12  -0.00
   2   6    -0.00   0.00  -0.04     0.29   0.05   0.00    -0.30  -0.09  -0.00
   3   8     0.00   0.00  -0.17     0.05   0.00  -0.00     0.00   0.15   0.00
   4   6    -0.00  -0.00  -0.04     0.29  -0.05   0.00     0.30  -0.09  -0.00
   5   6     0.00  -0.00   0.19    -0.03  -0.10  -0.00     0.04  -0.12  -0.00
   6   1     0.11   0.12  -0.04    -0.01  -0.04   0.04     0.11   0.07  -0.06
   7   1    -0.00   0.00  -0.06    -0.09  -0.11  -0.00     0.13   0.18   0.00
   8   1    -0.11  -0.12  -0.04    -0.01  -0.04  -0.04     0.11   0.07   0.06
   9   1     0.44   0.01  -0.01    -0.43  -0.01  -0.01     0.38   0.05   0.03
  10   1    -0.44  -0.01  -0.01    -0.43  -0.01   0.01     0.38   0.05  -0.03
  11   1     0.44  -0.01  -0.01    -0.43   0.01  -0.01    -0.38   0.05  -0.03
  12   1    -0.44   0.01  -0.01    -0.43   0.01   0.01    -0.38   0.05   0.03
  13   1    -0.11   0.12  -0.04    -0.01   0.04  -0.04    -0.11   0.07  -0.06
  14   1     0.11  -0.12  -0.04    -0.01   0.04   0.04    -0.11   0.07   0.06
  15   1    -0.00   0.00  -0.06    -0.09   0.11   0.00    -0.13   0.18   0.00
                     22                     23                     24
                        a                      a                      a 
 Frequencies --  1392.6542              1399.2566              1465.0182
 Red. masses --     3.2894                 3.6846                 1.5279
 Frc consts  --     0.0000                 0.0000                 0.0000
 IR Inten    --    14.6736                 2.5337                 0.0000
 Raman Activ --     0.0000                 0.0000                 0.0000
 Depolar     --     0.0000                 0.0000                 0.0000
 Atom AN      X      Y      Z        X      Y      Z        X      Y      Z
   1   6     0.27   0.16   0.00    -0.27  -0.15  -0.00    -0.00  -0.00  -0.15
   2   6    -0.06  -0.01  -0.00     0.15   0.05   0.00     0.00  -0.00  -0.03
   3   8    -0.03  -0.00   0.00     0.00  -0.09  -0.00    -0.00  -0.00  -0.00
   4   6    -0.06   0.01   0.00    -0.15   0.05   0.00    -0.00  -0.00   0.03
   5   6     0.27  -0.16  -0.00     0.27  -0.15  -0.00     0.00  -0.00   0.15
   6   1    -0.32  -0.11   0.08     0.30   0.09  -0.07     0.31  -0.08   0.06
   7   1    -0.18  -0.33  -0.00     0.16   0.30   0.00     0.00  -0.00   0.51
   8   1    -0.32  -0.11  -0.08     0.30   0.09   0.07    -0.31   0.08   0.06
   9   1     0.08  -0.03  -0.02    -0.17   0.01   0.00     0.01   0.01   0.00
  10   1     0.08  -0.03   0.02    -0.17   0.01  -0.00    -0.01  -0.01   0.00
  11   1     0.08   0.03  -0.02     0.17   0.01  -0.00    -0.01   0.01  -0.00
  12   1     0.08   0.03   0.02     0.17   0.01   0.00     0.01  -0.01  -0.00
  13   1    -0.32   0.11  -0.08    -0.30   0.09  -0.07     0.31   0.08  -0.06
  14   1    -0.32   0.11   0.08    -0.30   0.09   0.07    -0.31  -0.08  -0.06
  15   1    -0.18   0.33   0.00    -0.16   0.30   0.00    -0.00   0.00  -0.51
                     25                     26                     27
                        a                      a                      a 
 Frequencies --  1465.6282              1487.3610              1488.4273
 Red. masses --     1.5259                 1.6026                 1.5926
 Frc consts  --     0.0000                 0.0000                 0.0000
 IR Inten    --     4.6655                 2.8163                 1.8319
 Raman Activ --     0.0000                 0.0000                 0.0000
 Depolar     --     0.0000                 0.0000                 0.0000
 Atom AN      X      Y      Z        X      Y      Z        X      Y      Z
   1   6     0.00   0.00   0.15     0.03  -0.12   0.00    -0.06   0.13  -0.00
   2   6    -0.00   0.00   0.03     0.05   0.10   0.00    -0.04   0.05   0.00
   3   8     0.00  -0.00  -0.00    -0.04   0.00   0.00     0.00   0.01   0.00
   4   6     0.00   0.00   0.03     0.05  -0.10  -0.00     0.04   0.05  -0.00
   5   6     0.00  -0.00   0.15     0.03   0.12   0.00     0.06   0.13   0.00
   6   1    -0.31   0.08  -0.06    -0.06   0.30  -0.22     0.09  -0.36   0.27
   7   1    -0.00   0.00  -0.51    -0.07  -0.12  -0.00     0.10   0.17   0.00
   8   1     0.31  -0.08  -0.06    -0.06   0.30   0.22     0.09  -0.36  -0.27
   9   1    -0.01  -0.01  -0.00    -0.01  -0.24  -0.17     0.04  -0.06  -0.05
  10   1     0.01   0.01  -0.00    -0.01  -0.24   0.17     0.04  -0.06   0.05
  11   1    -0.01   0.01  -0.00    -0.01   0.24  -0.17    -0.04  -0.06   0.05
  12   1     0.01  -0.01  -0.00    -0.01   0.24   0.17    -0.04  -0.06  -0.05
  13   1     0.31   0.08  -0.06    -0.06  -0.30   0.22    -0.09  -0.36   0.27
  14   1    -0.31  -0.08  -0.06    -0.06  -0.30  -0.22    -0.09  -0.36  -0.27
  15   1    -0.00   0.00  -0.51    -0.07   0.12   0.00    -0.10   0.17   0.00
                     28                     29                     30
                        a                      a                      a 
 Frequencies --  1488.9155              1494.1334              2819.3298
 Red. masses --     1.8170                 1.7515                 1.9443
 Frc consts  --     0.0000                 0.0000                 0.0000
 IR Inten    --     0.4570                 9.9943               263.1999
 Raman Activ --     0.0000                 0.0000                 0.0000
 Depolar     --     0.0000                 0.0000                 0.0000
 Atom AN      X      Y      Z        X      Y      Z        X      Y      Z
   1   6    -0.06   0.08  -0.00     0.01   0.03   0.00    -0.00   0.00   0.00
   2   6    -0.00   0.16   0.00    -0.01  -0.17  -0.00    -0.00   0.00  -0.21
   3   8    -0.04   0.00   0.00     0.00  -0.08  -0.00     0.00   0.00  -0.01
   4   6    -0.00  -0.16  -0.00     0.01  -0.17  -0.00    -0.00   0.00  -0.21
   5   6    -0.06  -0.08  -0.00    -0.01   0.03  -0.00    -0.00  -0.00   0.00
   6   1     0.08  -0.21   0.16    -0.00  -0.07   0.05    -0.00  -0.01  -0.01
   7   1     0.07   0.12   0.00     0.01   0.01   0.00     0.00  -0.00   0.00
   8   1     0.08  -0.21  -0.16    -0.00  -0.07  -0.05     0.00   0.01  -0.01
   9   1     0.03  -0.31  -0.22    -0.06   0.38   0.27     0.01  -0.29   0.38
  10   1     0.03  -0.31   0.22    -0.06   0.38  -0.27    -0.01   0.29   0.38
  11   1     0.03   0.31  -0.22     0.06   0.38  -0.27     0.01   0.29   0.38
  12   1     0.03   0.31   0.22     0.06   0.38   0.27    -0.01  -0.29   0.38
  13   1     0.08   0.21  -0.16     0.00  -0.07   0.05     0.00  -0.01  -0.01
  14   1     0.08   0.21   0.16     0.00  -0.07  -0.05    -0.00   0.01  -0.01
  15   1     0.07  -0.12  -0.00    -0.01   0.01   0.00     0.00   0.00   0.00
                     31                     32                     33
                        a                      a                      a 
 Frequencies --  2823.6405              2858.6613              2865.4217
 Red. masses --     1.9804                 1.4174                 1.4052
 Frc consts  --     0.0000                 0.0000                 0.0000
 IR Inten    --     0.0000                14.5982               179.9099
 Raman Activ --     0.0000                 0.0000                 0.0000
 Depolar     --     0.0000                 0.0000                 0.0000
 Atom AN      X      Y      Z        X      Y      Z        X      Y      Z
   1   6     0.00  -0.00  -0.00    -0.00   0.00  -0.00     0.00  -0.00  -0.00
   2   6     0.00  -0.00   0.21    -0.01  -0.13  -0.00     0.01   0.13   0.00
   3   8     0.00   0.00   0.00     0.03   0.00   0.00    -0.00   0.03   0.00
   4   6     0.00   0.00  -0.21    -0.01   0.13   0.00    -0.01   0.13   0.00
   5   6    -0.00  -0.00   0.00    -0.00  -0.00  -0.00    -0.00  -0.00  -0.00
   6   1     0.00   0.01   0.01    -0.00  -0.01  -0.01     0.00   0.01   0.01
   7   1    -0.00   0.00  -0.00     0.01  -0.00  -0.00    -0.01   0.01   0.00
   8   1    -0.00  -0.01   0.01    -0.00  -0.01   0.01     0.00   0.01  -0.01
   9   1    -0.00   0.29  -0.38    -0.01   0.26  -0.41     0.01  -0.26   0.42
  10   1     0.00  -0.29  -0.38    -0.01   0.26   0.41     0.01  -0.26  -0.42
  11   1     0.00   0.29   0.38    -0.01  -0.26  -0.42    -0.01  -0.26  -0.42
  12   1    -0.00  -0.29   0.38    -0.01  -0.26   0.41    -0.01  -0.26   0.42
  13   1     0.00  -0.01  -0.01    -0.00   0.01   0.01    -0.00   0.01   0.01
  14   1    -0.00   0.01  -0.01    -0.00   0.01  -0.01    -0.00   0.01  -0.01
  15   1     0.00   0.00   0.00     0.01   0.00  -0.00     0.01   0.01  -0.00
                     34                     35                     36
                        a                      a                      a 
 Frequencies --  3049.6207              3049.7068              3053.2774
 Red. masses --     1.9576                 1.9566                 1.2845
 Frc consts  --     0.0000                 0.0000                 0.0000
 IR Inten    --     0.0002                84.0483                37.8423
 Raman Activ --     0.0000                 0.0000                 0.0000
 Depolar     --     0.0000                 0.0000                 0.0000
 Atom AN      X      Y      Z        X      Y      Z        X      Y      Z
   1   6    -0.00  -0.00  -0.21    -0.00   0.00   0.21     0.11   0.02  -0.00
   2   6    -0.00  -0.00  -0.01     0.00   0.00   0.01     0.00   0.00  -0.00
   3   8     0.00  -0.00  -0.00    -0.00   0.00  -0.00     0.00  -0.00  -0.00
   4   6     0.00  -0.00   0.01     0.00  -0.00   0.01     0.00  -0.00  -0.00
   5   6     0.00  -0.00   0.21    -0.00  -0.00   0.21     0.11  -0.02  -0.00
   6   1    -0.02   0.29   0.38     0.02  -0.29  -0.38     0.02  -0.18  -0.26
   7   1    -0.00   0.00  -0.03     0.00  -0.00   0.03    -0.44   0.29   0.00
   8   1     0.02  -0.29   0.38    -0.02   0.29  -0.38     0.02  -0.18   0.26
   9   1     0.00  -0.01   0.01    -0.00   0.01  -0.01     0.00  -0.00   0.00
  10   1    -0.00   0.01   0.01     0.00  -0.01  -0.01     0.00  -0.00  -0.00
  11   1    -0.00  -0.01  -0.01    -0.00  -0.01  -0.01     0.00   0.00   0.00
  12   1     0.00   0.01  -0.01     0.00   0.01  -0.01     0.00   0.00  -0.00
  13   1    -0.02  -0.29  -0.38    -0.02  -0.29  -0.38     0.02   0.18   0.26
  14   1     0.02   0.29  -0.38     0.02   0.29  -0.38     0.02   0.18  -0.26
  15   1    -0.00  -0.00   0.03     0.00  -0.00   0.03    -0.44  -0.29  -0.00
                     37                     38                     39
                        a                      a                      a 
 Frequencies --  3053.4456              3054.9386              3055.7764
 Red. masses --     1.3081                 1.9229                 1.8952
 Frc consts  --     0.0000                 0.0000                 0.0000
 IR Inten    --     1.8317                16.9069                69.2077
 Raman Activ --     0.0000                 0.0000                 0.0000
 Depolar     --     0.0000                 0.0000                 0.0000
 Atom AN      X      Y      Z        X      Y      Z        X      Y      Z
   1   6     0.12   0.01  -0.00     0.11  -0.17   0.00    -0.10   0.18  -0.00
   2   6     0.00  -0.00  -0.00     0.00  -0.01   0.00    -0.00   0.01  -0.00
   3   8     0.00   0.00   0.00    -0.00  -0.00   0.00     0.00  -0.00  -0.00
   4   6    -0.00  -0.00   0.00     0.00   0.01   0.00     0.00   0.01   0.00
   5   6    -0.12   0.01   0.00     0.11   0.17   0.00     0.10   0.17   0.00
   6   1     0.02  -0.17  -0.24    -0.00   0.20   0.31     0.00  -0.21  -0.33
   7   1    -0.46   0.31   0.00    -0.37   0.22   0.00     0.34  -0.21  -0.00
   8   1     0.02  -0.17   0.24    -0.00   0.20  -0.31     0.00  -0.21   0.33
   9   1     0.00   0.00  -0.00    -0.00   0.00  -0.01     0.00  -0.01   0.01
  10   1     0.00   0.00   0.00    -0.00   0.00   0.01     0.00  -0.01  -0.01
  11   1    -0.00   0.00   0.00    -0.00  -0.00  -0.01    -0.00  -0.01  -0.01
  12   1    -0.00   0.00  -0.00    -0.00  -0.00   0.01    -0.00  -0.01   0.01
  13   1    -0.02  -0.17  -0.24    -0.00  -0.20  -0.31    -0.00  -0.21  -0.33
  14   1    -0.02  -0.17   0.24    -0.00  -0.20   0.31    -0.00  -0.21   0.33
  15   1     0.46   0.31   0.00    -0.37  -0.22   0.00    -0.34  -0.21   0.00
