      -----------------------------------------------------------      
     |                   =====================                   |     
     |                           x T B                           |     
     |                   =====================                   |     
     |                         S. Grimme                         |     
     |          Mulliken Center for Theoretical Chemistry        |     
     |                    University of Bonn                     |     
      -----------------------------------------------------------      

   * xtb version 6.7.1 (edcfbbe) compiled by 'albert@albert-system' on 2024-07-22

   xtb is free software: you can redistribute it and/or modify it under
   the terms of the GNU Lesser General Public License as published by
   the Free Software Foundation, either version 3 of the License, or
   (at your option) any later version.
   
   xtb is distributed in the hope that it will be useful,
   but WITHOUT ANY WARRANTY; without even the implied warranty of
   MERCHANTABILITY or FITNESS FOR A PARTICULAR PURPOSE.  See the
   GNU Lesser General Public License for more details.
   
   Cite this work as:
   * C. Bannwarth, E. Caldeweyher, S. Ehlert, A. Hansen, P. Pracht,
     J. Seibert, S. Spicher, S. Grimme, WIREs Comput. Mol. Sci., 2020, 11,
     e01493. DOI: 10.1002/wcms.1493
   
   for GFN2-xTB:
   * C. Bannwarth, S. Ehlert and S. Grimme., J. Chem. Theory Comput., 2019,
     15, 1652-1671. DOI: 10.1021/acs.jctc.8b01176
   for GFN1-xTB:
   * S. Grimme, C. Bannwarth, P. Shushkov, J. Chem. Theory Comput., 2017,
     13, 1989-2009. DOI: 10.1021/acs.jctc.7b00118
   for GFN0-xTB:
   * P. Pracht, E. Caldeweyher, S. Ehlert, S. Grimme, ChemRxiv, 2019, preprint.
     DOI: 10.26434/chemrxiv.8326202.v1
   for GFN-FF:
   * S. Spicher and S. Grimme, Angew. Chem. Int. Ed., 2020, 59, 15665-15673.
     DOI: 10.1002/anie.202004239
   
   for ALPB and GBSA implicit solvation:
   * S. Ehlert, M. Stahn, S. Spicher, S. Grimme, J. Chem. Theory Comput.,
     2021, 17, 4250-4261. DOI: 10.1021/acs.jctc.1c00471
   
   for ddCOSMO and CPCM-X implicit solvation:
   * M. Stahn, S. Ehlert, S. Grimme, J. Phys. Chem. A,
     2023, XX, XXXX-XXXX. DOI: 10.1021/acs.jpca.3c04382
   
   for DFT-D4:
   * E. Caldeweyher, C. Bannwarth and S. Grimme, J. Chem. Phys., 2017,
     147, 034112. DOI: 10.1063/1.4993215
   * E. Caldeweyher, S. Ehlert, A. Hansen, H. Neugebauer, S. Spicher,
     C. Bannwarth and S. Grimme, J. Chem. Phys., 2019, 150, 154122.
     DOI: 10.1063/1.5090222
   * E. Caldeweyher, J.-M. Mewes, S. Ehlert and S. Grimme, Phys. Chem. Chem. Phys.
     2020, 22, 8499-8512. DOI: 10.1039/D0CP00502A
   
   for sTDA-xTB:
   * S. Grimme and C. Bannwarth, J. Chem. Phys., 2016, 145, 054103.
     DOI: 10.1063/1.4959605
   
   in the mass-spec context:
   * V. Asgeirsson, C. Bauer and S. Grimme, Chem. Sci., 2017, 8, 4879.
     DOI: 10.1039/c7sc00601b
   * J. Koopman and S. Grimme, ACS Omega 2019, 4, 12, 15120-15133.
     DOI: 10.1021/acsomega.9b02011
   
   for metadynamics refer to:
   * S. Grimme, J. Chem. Theory Comput., 2019, 155, 2847-2862
     DOI: 10.1021/acs.jctc.9b00143
   
   for SPH calculations refer to:
   * S. Spicher and S. Grimme, J. Chem. Theory Comput., 2021, 17, 1701-1714
     DOI: 10.1021/acs.jctc.0c01306
   
   for ONIOM refer to:
   * C. Plett, A. Katbashev, S. Ehlert, S. Grimme, M. Bursch,
     Phys. Chem. Chem. Phys., 2023, 25, 17860-17868. DOI: 10.1039/D3CP02178E
   
   for DIPRO refer to:
   * J. Kohn, N. Gildemeister, S. Grimme, D. Fazzi, A. Hansen,
     J. Chem. Phys., 2023, just accepted.
   
   for PTB refer to:
   * S. Grimme, M. Mueller, A. Hansen, J. Chem. Phys., 2023, 158, 124111.
     DOI: 10.1063/5.0137838
   
   with help from (in alphabetical order)
   P. Atkinson, C. Bannwarth, F. Bohle, G. Brandenburg, E. Caldeweyher
   M. Checinski, S. Dohm, S. Ehlert, S. Ehrlich, I. Gerasimov, C. Hölzer
   A. Katbashev, J. Kohn, J. Koopman, C. Lavigne, S. Lehtola, F. März, M. Müller,
   F. Musil, H. Neugebauer, J. Pisarek, C. Plett, P. Pracht, F. Pultar,
   J. Seibert, P. Shushkov, S. Spicher, M. Stahn, M. Steiner, T. Strunk,
   J. Stückrath, T. Rose, and J. Unsleber
   
 * started run on 2025/04/07 at 02:52:02.462     
   ID    Z sym.   atoms
    1    6 C      1, 2, 4, 5
    2    8 O      3
    3    1 H      6-15

           -------------------------------------------------
          |                Calculation Setup                |
           -------------------------------------------------

          program call               : /srv/scratch/z5358697/.xtb/bin/xtb xtb_rrho.coord --gfn2 --ohess vtight --chrg 0 --enso --norestart -I rrho-xcontrol-inp --parallel 1 --alpb water
          hostname                   : k140
          coordinate file            : xtb_rrho.coord
          omp threads                :                     1


           -------------------------------------------------
          |                 G F N 2 - x T B                 |
           -------------------------------------------------

        Reference                      10.1021/acs.jctc.8b01176
      * Hamiltonian:
        H0-scaling (s, p, d)           1.850000    2.230000    2.230000
        zeta-weighting                 0.500000
      * Dispersion:
        s8                             2.700000
        a1                             0.520000
        a2                             5.000000
        s9                             5.000000
      * Repulsion:
        kExp                           1.500000    1.000000
        rExp                           1.000000
      * Coulomb:
        alpha                          2.000000
        third order                    shell-resolved
        anisotropic                    true
        a3                             3.000000
        a5                             4.000000
        cn-shift                       1.200000
        cn-exp                         4.000000
        max-rad                        5.000000

      * Solvation model:               ALPB
        Solvent                        water
        Parameter file                 internal GFN2-xTB/ALPB
        Dielectric constant                8.0200E+01
        Reference state                gsolv [1 M gas/solution]
        Free energy shift                  1.0808E-03 Eh       6.7819E-01 kcal/mol
        Temperature                        2.9815E+02 K
        Density                            1.0000E+00 kg/L
        Solvent mass                       1.8000E+01 g/mol
        Interaction kernel             P16
        Born radius scaling (c1)           1.4744E+00
        Born radii integrator          GBOBC
        Born offset                        0.0000E+00 a0       0.0000E+00 AA
        H-bond correction              true
        Ion screening                  false
        Surface tension                    1.0000E-05 Eh       1.5569E+01 dyn/cm
        Grid points                               974 per atom

          ...................................................
          :                      SETUP                      :
          :.................................................:
          :  # basis functions                  30          :
          :  # atomic orbitals                  30          :
          :  # shells                           20          :
          :  # electrons                        32          :
          :  max. iterations                   250          :
          :  Hamiltonian                  GFN2-xTB          :
          :  restarted?                      false          :
          :  GBSA solvation                   true          :
          :  PC potential                    false          :
          :  electronic temp.          300.0000000     K    :
          :  accuracy                    1.0000000          :
          :  -> integral cutoff          0.2500000E+02      :
          :  -> integral neglect         0.1000000E-07      :
          :  -> SCF convergence          0.1000000E-05 Eh   :
          :  -> wf. convergence          0.1000000E-03 e    :
          :  Broyden damping             0.4000000          :
          :  net charge                          0          :
          :  unpaired electrons                  0          :
          ...................................................

 iter      E             dE          RMSdq      gap      omega  full diag
   1    -17.8826313 -0.178826E+02  0.391E+00   11.33       0.0  T
   2    -17.9231498 -0.405186E-01  0.198E+00   10.85       1.0  T
   3    -17.9240156 -0.865754E-03  0.765E-01   10.90       1.0  T
   4    -17.9242529 -0.237306E-03  0.139E-01   10.95       1.0  T
   5    -17.9242817 -0.287525E-04  0.778E-02   10.98       1.0  T
   6    -17.9242846 -0.299679E-05  0.106E-02   10.99       2.4  T
   7    -17.9242849 -0.214471E-06  0.422E-03   10.99       6.1  T
   8    -17.9242849 -0.143374E-07  0.191E-03   10.99      13.5  T
   9    -17.9242849 -0.271516E-07  0.266E-04   10.99      97.1  T
  10    -17.9242849  0.634159E-10  0.159E-04   10.99     162.5  T

   *** convergence criteria satisfied after 10 iterations ***

         #    Occupation            Energy/Eh            Energy/eV
      -------------------------------------------------------------
         1        2.0000           -0.6950320             -18.9128
       ...           ...                  ...                  ...
        10        2.0000           -0.4761050             -12.9555
        11        2.0000           -0.4619917             -12.5714
        12        2.0000           -0.4617875             -12.5659
        13        2.0000           -0.4533066             -12.3351
        14        2.0000           -0.4496314             -12.2351
        15        2.0000           -0.4404255             -11.9846
        16        2.0000           -0.4005947             -10.9007 (HOMO)
        17                          0.0032520               0.0885 (LUMO)
        18                          0.0871440               2.3713
        19                          0.1053289               2.8661
        20                          0.1374544               3.7403
        21                          0.1471637               4.0045
       ...                                ...                  ...
        30                          0.2661245               7.2416
      -------------------------------------------------------------
                  HL-Gap            0.4038468 Eh           10.9892 eV
             Fermi-level           -0.1986714 Eh           -5.4061 eV

 SCC (total)                   0 d,  0 h,  0 min,  0.021 sec
 SCC setup                      ...        0 min,  0.001 sec (  3.368%)
 Dispersion                     ...        0 min,  0.000 sec (  0.268%)
 classical contributions        ...        0 min,  0.000 sec (  0.085%)
 integral evaluation            ...        0 min,  0.001 sec (  4.653%)
 iterations                     ...        0 min,  0.018 sec ( 82.917%)
 molecular gradient             ...        0 min,  0.002 sec (  8.200%)
 printout                       ...        0 min,  0.000 sec (  0.457%)

         :::::::::::::::::::::::::::::::::::::::::::::::::::::
         ::                     SUMMARY                     ::
         :::::::::::::::::::::::::::::::::::::::::::::::::::::
         :: total energy             -17.722184470381 Eh    ::
         :: total w/o Gsasa/hb       -17.722156679807 Eh    ::
         :: gradient norm              0.030170786811 Eh/a0 ::
         :: HOMO-LUMO gap             10.989230237919 eV    ::
         ::.................................................::
         :: SCC energy               -17.924279902809 Eh    ::
         :: -> isotropic ES            0.026336655983 Eh    ::
         :: -> anisotropic ES          0.003810018994 Eh    ::
         :: -> anisotropic XC          0.006430503867 Eh    ::
         :: -> dispersion             -0.006541367384 Eh    ::
         :: -> Gsolv                  -0.003604305922 Eh    ::
         ::    -> Gelec               -0.003576515348 Eh    ::
         ::    -> Gsasa               -0.000137436830 Eh    ::
         ::    -> Ghb                 -0.000971113442 Eh    ::
         ::    -> Gshift               0.001080759698 Eh    ::
         :: repulsion energy           0.202095432428 Eh    ::
         :: add. restraining           0.000000000000 Eh    ::
         :: total charge               0.000000000000 e     ::
         :::::::::::::::::::::::::::::::::::::::::::::::::::::

      ----------------------------------------------------------- 
     |                   =====================                   |
     |                        A N C O P T                        |
     |                   =====================                   |
     |               Approximate Normal Coordinate               |
     |                Rational Function Optimizer                |
      ----------------------------------------------------------- 
      ----------------------------------------------------------- 
     |                   =====================                   |
     |                        A N C O P T                        |
     |                   =====================                   |
     |               Approximate Normal Coordinate               |
     |                Rational Function Optimizer                |
      ----------------------------------------------------------- 

          ...................................................
          :                      SETUP                      :
          :.................................................:
          :   optimization level         verytight          :
          :   max. optcycles                   300          :
          :   ANC micro-cycles                  20          :
          :   degrees of freedom                39          :
          :.................................................:
          :   RF solver                   davidson          :
          :   write xtbopt.log                true          :
          :   linear?                        false          :
          :   energy convergence         0.1000000E-06 Eh   :
          :   grad. convergence          0.2000000E-03 Eh/α :
          :   maxmium RF displ.          1.0000000          :
          :   Hlow (freq-cutoff)         0.1000000E-01      :
          :   Hmax (freq-cutoff)         5.0000000          :
          :   S6 in model hess.         20.0000000          :
          ...................................................

generating ANC from exact Hessian ...
Using Lindh-Hessian (1995)
 Shifting diagonal of input Hessian by   7.273303443762960E-003
 Lowest  eigenvalues of input Hessian
    0.000000    0.000000    0.000000    0.000000    0.000000    0.000000
    0.010000    0.011885    0.013165    0.019143    0.026951    0.029759
    0.032403    0.048501    0.053135    0.061467    0.062553    0.074707
 Highest eigenvalues
    1.152664    1.155118    1.234808    1.242108    1.288704    1.467366
 

........................................................................
.............................. CYCLE    1 ..............................
........................................................................

 iter      E             dE          RMSdq      gap      omega  full diag
   1    -17.9242849 -0.179243E+02  0.699E-06   10.99       0.0  T
   2    -17.9242849 -0.710543E-14  0.426E-06   10.99    6055.9  T
   3    -17.9242849 -0.355271E-14  0.662E-07   10.99   39031.7  T
     SCC iter.                  ...        0 min,  0.001 sec
     gradient                   ...        0 min,  0.002 sec
 * total energy  :   -17.7221845 Eh     change       -0.2295408E-09 Eh
   gradient norm :     0.0301694 Eh/α   predicted     0.0000000E+00 (-100.00%)
   displ. norm   :     0.0677376 α      lambda       -0.1206610E-02
   maximum displ.:     0.0390260 α      in ANC's #3, #27, #18, ...

........................................................................
.............................. CYCLE    2 ..............................
........................................................................

 iter      E             dE          RMSdq      gap      omega  full diag
   1    -17.9304056 -0.179304E+02  0.958E-02   11.10       0.0  T
   2    -17.9304105 -0.490557E-05  0.561E-02   11.10       1.0  T
   3    -17.9304110 -0.477039E-06  0.104E-02   11.11       2.5  T
   4    -17.9304112 -0.177568E-06  0.292E-03   11.11       8.8  T
   5    -17.9304112 -0.115480E-07  0.166E-03   11.11      15.5  T
   6    -17.9304112 -0.178383E-08  0.529E-04   11.11      48.8  T
   7    -17.9304112 -0.268830E-09  0.941E-05   11.11     274.2  T
     SCC iter.                  ...        0 min,  0.001 sec
     gradient                   ...        0 min,  0.002 sec
 * total energy  :   -17.7229578 Eh     change       -0.7733063E-03 Eh
   gradient norm :     0.0123656 Eh/α   predicted    -0.6060722E-03 ( -21.63%)
   displ. norm   :     0.0704234 α      lambda       -0.2769768E-03
   maximum displ.:     0.0584330 α      in ANC's #3, #6, #11, ...

........................................................................
.............................. CYCLE    3 ..............................
........................................................................

 iter      E             dE          RMSdq      gap      omega  full diag
   1    -17.9328826 -0.179329E+02  0.452E-02   11.31       0.0  T
   2    -17.9328857 -0.309133E-05  0.267E-02   11.31       1.0  T
   3    -17.9328860 -0.274372E-06  0.810E-03   11.32       3.2  T
   4    -17.9328860 -0.390357E-07  0.198E-03   11.32      13.1  T
   5    -17.9328861 -0.113513E-07  0.913E-04   11.32      28.3  T
   6    -17.9328861 -0.799727E-09  0.467E-04   11.32      55.3  T
     SCC iter.                  ...        0 min,  0.001 sec
     gradient                   ...        0 min,  0.002 sec
 * total energy  :   -17.7231198 Eh     change       -0.1620730E-03 Eh
   gradient norm :     0.0032352 Eh/α   predicted    -0.1391747E-03 ( -14.13%)
   displ. norm   :     0.0398286 α      lambda       -0.3357172E-04
   maximum displ.:     0.0390620 α      in ANC's #3, #36, #11, ...

........................................................................
.............................. CYCLE    4 ..............................
........................................................................

 iter      E             dE          RMSdq      gap      omega  full diag
   1    -17.9326130 -0.179326E+02  0.214E-02   11.38       0.0  T
   2    -17.9326132 -0.210684E-06  0.127E-02   11.38       2.0  T
   3    -17.9326132 -0.264287E-07  0.184E-03   11.38      14.0  T
   4    -17.9326132 -0.689783E-08  0.557E-04   11.38      46.3  T
   5    -17.9326132 -0.832571E-09  0.264E-04   11.38      97.8  T
     SCC iter.                  ...        0 min,  0.001 sec
     gradient                   ...        0 min,  0.002 sec
 * total energy  :   -17.7231422 Eh     change       -0.2231045E-04 Eh
   gradient norm :     0.0011317 Eh/α   predicted    -0.1681251E-04 ( -24.64%)
   displ. norm   :     0.0450996 α      lambda       -0.9795262E-05
   maximum displ.:     0.0444007 α      in ANC's #3, #6, #18, ...

........................................................................
.............................. CYCLE    5 ..............................
........................................................................

 iter      E             dE          RMSdq      gap      omega  full diag
   1    -17.9319453 -0.179319E+02  0.202E-02   11.41       0.0  T
   2    -17.9319454 -0.502779E-07  0.119E-02   11.41       2.2  T
   3    -17.9319454 -0.810532E-08  0.827E-04   11.41      31.2  T
   4    -17.9319454 -0.178652E-08  0.335E-04   11.41      77.1  T
     SCC iter.                  ...        0 min,  0.001 sec
     gradient                   ...        0 min,  0.002 sec
 * total energy  :   -17.7231488 Eh     change       -0.6674521E-05 Eh
   gradient norm :     0.0010788 Eh/α   predicted    -0.4901869E-05 ( -26.56%)
   displ. norm   :     0.0055926 α      lambda       -0.1455130E-05
   maximum displ.:     0.0050912 α      in ANC's #3, #36, #27, ...

........................................................................
.............................. CYCLE    6 ..............................
........................................................................

 iter      E             dE          RMSdq      gap      omega  full diag
   1    -17.9320918 -0.179321E+02  0.411E-03   11.40       0.0  T
   2    -17.9320918 -0.165008E-07  0.243E-03   11.40      10.6  T
   3    -17.9320918 -0.186024E-08  0.544E-04   11.39      47.4  T
   4    -17.9320918 -0.256989E-09  0.101E-04   11.39     256.4  T
     SCC iter.                  ...        0 min,  0.001 sec
     gradient                   ...        0 min,  0.002 sec
 * total energy  :   -17.7231503 Eh     change       -0.1423102E-05 Eh
   gradient norm :     0.0003117 Eh/α   predicted    -0.7266673E-06 ( -48.94%)
   displ. norm   :     0.0067485 α      lambda       -0.3450305E-06
   maximum displ.:     0.0066217 α      in ANC's #3, #13, #6, ...

........................................................................
.............................. CYCLE    7 ..............................
........................................................................

 iter      E             dE          RMSdq      gap      omega  full diag
   1    -17.9322049 -0.179322E+02  0.245E-03   11.39       0.0  T
   2    -17.9322050 -0.266438E-08  0.146E-03   11.39      17.7  T
   3    -17.9322050 -0.284889E-09  0.225E-04   11.39     114.9  T
   4    -17.9322050 -0.897771E-10  0.686E-05   11.39     376.1  T
     SCC iter.                  ...        0 min,  0.001 sec
     gradient                   ...        0 min,  0.002 sec
 * total energy  :   -17.7231506 Eh     change       -0.3132898E-06 Eh
   gradient norm :     0.0000681 Eh/α   predicted    -0.1737531E-06 ( -44.54%)
   displ. norm   :     0.0027459 α      lambda       -0.3854754E-07
   maximum displ.:     0.0027306 α      in ANC's #3, #11, #13, ...

........................................................................
.............................. CYCLE    8 ..............................
........................................................................

 iter      E             dE          RMSdq      gap      omega  full diag
   1    -17.9321989 -0.179322E+02  0.852E-04   11.39       0.0  T
   2    -17.9321989 -0.139611E-09  0.506E-04   11.39      51.1  T
   3    -17.9321989 -0.869349E-11  0.500E-05   11.39     515.9  T
     SCC iter.                  ...        0 min,  0.001 sec
     gradient                   ...        0 min,  0.002 sec
 * total energy  :   -17.7231506 Eh     change       -0.3792907E-07 Eh
   gradient norm :     0.0000317 Eh/α   predicted    -0.1821408E-07 ( -51.98%)
   displ. norm   :     0.0012370 α      lambda       -0.6029168E-08
   maximum displ.:     0.0012268 α      in ANC's #3, #1, #13, ...

   *** GEOMETRY OPTIMIZATION CONVERGED AFTER 8 ITERATIONS ***

------------------------------------------------------------------------
 total energy gain   :        -0.0009661 Eh       -0.6063 kcal/mol
 total RMSD          :         0.0546570 a0        0.0289 Å
 total power (kW/mol):        -0.3170746 (step)  -65.1780 (real)
------------------------------------------------------------------------

 ANCopt (total)                0 d,  0 h,  0 min,  0.039 sec
 optimizer setup                ...        0 min,  0.001 sec (  1.546%)
 model hessian                  ...        0 min,  0.001 sec (  3.622%)
 ANC generation                 ...        0 min,  0.000 sec (  0.519%)
 coordinate transformation      ...        0 min,  0.000 sec (  0.082%)
 single point calculation       ...        0 min,  0.031 sec ( 79.227%)
 optimization log               ...        0 min,  0.005 sec ( 12.594%)
 hessian update                 ...        0 min,  0.000 sec (  0.076%)
 rational function              ...        0 min,  0.001 sec (  1.620%)

================
 final structure:
================
$coord
        4.49823578937386        0.76779518613278        0.00009557129249      C
        2.23592461360590       -1.00168024629555       -0.00026838555488      C
        0.00000855512998        0.46257927009692        0.00006251964313      O
       -2.23590382864348       -1.00168589273592       -0.00003880365963      C
       -4.49821945666640        0.76778388751623        0.00002700106800      C
        4.44288873859418        1.96398254611531        1.66694681206343      H
        6.23404615738817       -0.32469625776048       -0.00032545361346      H
        4.44266928588210        1.96492145948418       -1.66607374060575      H
        2.26470731994049       -2.22646642973059        1.68249143542893      H
        2.26467480047716       -2.22573608457849       -1.68356192170047      H
       -2.26465112801305       -2.22601876201879       -1.68312936194539      H
       -2.26468327170079       -2.22619524649123        1.68292406736452      H
       -4.44275443609014        1.96439299803863        1.66657130080708      H
       -4.44277694254641        1.96448878450363       -1.66644938375772      H
       -6.23402708548506       -0.32471198233781        0.00000642655671      H
$end
 
 Bond Distances (Angstroems)
 ---------------------------
C1-C2=1.5199         C1-H6=1.0861         C1-H7=1.0853         C1-H8=1.0861         C2-C1=1.5199         C2-O3=1.4143         
C2-H9=1.1015         C2-H10=1.1015        O3-C2=1.4143         O3-C4=1.4143         C4-O3=1.4143         C4-C5=1.5199         
C4-H11=1.1015        C4-H12=1.1015        C5-C4=1.5199         C5-H13=1.0861        C5-H14=1.0861        C5-H15=1.0853        
H6-C1=1.0861         H7-C1=1.0853         H8-C1=1.0861         H9-C2=1.1015         H10-C2=1.1015        H11-C4=1.1015        
H12-C4=1.1015        H13-C5=1.0861        H14-C5=1.0861        H15-C5=1.0853        
 C  H  Rav=1.0921 sigma=0.0077  Rmin=1.0853  Rmax=1.1015    10
 C  C  Rav=1.5199 sigma=0.0000  Rmin=1.5199  Rmax=1.5199     2
 O  C  Rav=1.4143 sigma=0.0000  Rmin=1.4143  Rmax=1.4143     2
 
 selected bond angles (degree)
 --------------------
H6-C1-C2=109.75                H7-C1-C2=109.78                H7-C1-H6=109.48                H8-C1-C2=109.75                
H8-C1-H6=108.58                H8-C1-H7=109.48                O3-C2-C1=108.75                H9-C2-C1=110.58                
H9-C2-O3=109.50                H10-C2-C1=110.58               H10-C2-O3=109.50               H10-C2-H9=107.91               
C4-O3-C2=113.56                C5-C4-O3=108.75                H11-C4-O3=109.50               H11-C4-C5=110.58               
H12-C4-O3=109.50               H12-C4-C5=110.58               H12-C4-H11=107.91              H13-C5-C4=109.75               
H14-C5-C4=109.75               H14-C5-H13=108.58              H15-C5-C4=109.78               H15-C5-H13=109.48              
H15-C5-H14=109.48              
 
 selected dihedral angles (degree)
 ---------------------------------
O3-C2-C1-H6= 59.63            O3-C2-C1-H7=180.01            O3-C2-C1-H8=300.38            H9-C2-C1-H6=299.36            
H9-C2-C1-H7= 59.74            H9-C2-C1-H8=180.11            H10-C2-C1-H6=179.90           H10-C2-C1-H7=300.27           
H10-C2-C1-H8= 60.65           C4-O3-C2-C1=180.00            C4-O3-C2-H9=300.94            C4-O3-C2-H10= 59.07           
C5-C4-O3-C2=180.01            H11-C4-O3-C2=300.94           H12-C4-O3-C2= 59.07           H13-C5-C4-O3=300.38           
H13-C5-C4-H11=180.11          H13-C5-C4-H12= 60.64          H14-C5-C4-O3= 59.63           H14-C5-C4-H11=299.36          
H14-C5-C4-H12=179.89          H15-C5-C4-O3=180.00           H15-C5-C4-H11= 59.73          H15-C5-C4-H12=300.27          
           -------------------------------------------------
          |                Final Singlepoint                |
           -------------------------------------------------

          ...................................................
          :                      SETUP                      :
          :.................................................:
          :  # basis functions                  30          :
          :  # atomic orbitals                  30          :
          :  # shells                           20          :
          :  # electrons                        32          :
          :  max. iterations                   250          :
          :  Hamiltonian                  GFN2-xTB          :
          :  restarted?                      false          :
          :  GBSA solvation                   true          :
          :  PC potential                    false          :
          :  electronic temp.          300.0000000     K    :
          :  accuracy                    1.0000000          :
          :  -> integral cutoff          0.2500000E+02      :
          :  -> integral neglect         0.1000000E-07      :
          :  -> SCF convergence          0.1000000E-05 Eh   :
          :  -> wf. convergence          0.1000000E-03 e    :
          :  Broyden damping             0.4000000          :
          :  net charge                          0          :
          :  unpaired electrons                  0          :
          ...................................................

 iter      E             dE          RMSdq      gap      omega  full diag
   1    -17.9321989 -0.179322E+02  0.167E-05   11.39       0.0  T
   2    -17.9321989 -0.508038E-12  0.771E-06   11.39    3347.4  T
   3    -17.9321989 -0.106581E-12  0.204E-06   11.39   12652.2  T

   *** convergence criteria satisfied after 3 iterations ***

         #    Occupation            Energy/Eh            Energy/eV
      -------------------------------------------------------------
         1        2.0000           -0.6992048             -19.0263
       ...           ...                  ...                  ...
        10        2.0000           -0.4759299             -12.9507
        11        2.0000           -0.4625714             -12.5872
        12        2.0000           -0.4615775             -12.5602
        13        2.0000           -0.4545794             -12.3697
        14        2.0000           -0.4480037             -12.1908
        15        2.0000           -0.4410791             -12.0024
        16        2.0000           -0.3993761             -10.8676 (HOMO)
        17                          0.0191952               0.5223 (LUMO)
        18                          0.1022129               2.7814
        19                          0.1080236               2.9395
        20                          0.1462446               3.9795
        21                          0.1471641               4.0045
       ...                                ...                  ...
        30                          0.2744527               7.4682
      -------------------------------------------------------------
                  HL-Gap            0.4185713 Eh           11.3899 eV
             Fermi-level           -0.1900904 Eh           -5.1726 eV

 SCC (total)                   0 d,  0 h,  0 min,  0.004 sec
 SCC setup                      ...        0 min,  0.001 sec ( 16.047%)
 Dispersion                     ...        0 min,  0.000 sec (  0.754%)
 classical contributions        ...        0 min,  0.000 sec (  0.262%)
 integral evaluation            ...        0 min,  0.001 sec ( 16.495%)
 iterations                     ...        0 min,  0.001 sec ( 15.791%)
 molecular gradient             ...        0 min,  0.002 sec ( 48.352%)
 printout                       ...        0 min,  0.000 sec (  2.038%)

         :::::::::::::::::::::::::::::::::::::::::::::::::::::
         ::                     SUMMARY                     ::
         :::::::::::::::::::::::::::::::::::::::::::::::::::::
         :: total energy             -17.723150609212 Eh    ::
         :: total w/o Gsasa/hb       -17.723051129455 Eh    ::
         :: gradient norm              0.000031386490 Eh/a0 ::
         :: HOMO-LUMO gap             11.389905408181 eV    ::
         ::.................................................::
         :: SCC energy               -17.932193317679 Eh    ::
         :: -> isotropic ES            0.025272336306 Eh    ::
         :: -> anisotropic ES          0.003205605485 Eh    ::
         :: -> anisotropic XC          0.005834619200 Eh    ::
         :: -> dispersion             -0.006574940414 Eh    ::
         :: -> Gsolv                  -0.003368335539 Eh    ::
         ::    -> Gelec               -0.003268855781 Eh    ::
         ::    -> Gsasa               -0.000202591207 Eh    ::
         ::    -> Ghb                 -0.000977648248 Eh    ::
         ::    -> Gshift               0.001080759698 Eh    ::
         :: repulsion energy           0.209042708467 Eh    ::
         :: add. restraining           0.000000000000 Eh    ::
         :: total charge              -0.000000000000 e     ::
         :::::::::::::::::::::::::::::::::::::::::::::::::::::

           ------------------------------------------------- 
          |                Numerical Hessian                |
           ------------------------------------------------- 
step length          :   0.00500
SCC accuracy         :   0.30000
Hessian scale factor :   1.00000
frozen atoms in %    :   0.00000    0
RMS gradient         :   0.00003
estimated CPU  time      0.01 min
estimated wall time      0.01 min

writing file <hessian>.

 projected vibrational frequencies (cm⁻¹)
eigval :       -0.00    -0.00    -0.00    -0.00     0.00     0.00
eigval :       93.80    96.03   181.89   201.04   208.69   405.59
eigval :      427.34   832.96   844.02   884.19   965.58  1083.85
eigval :     1086.43  1106.10  1137.24  1156.14  1162.34  1247.98
eigval :     1257.04  1324.76  1347.18  1392.65  1399.26  1465.02
eigval :     1465.63  1487.36  1488.43  1488.92  1494.13  2819.33
eigval :     2823.64  2858.66  2865.42  3049.62  3049.71  3053.28
eigval :     3053.45  3054.94  3055.78
           -------------------------------------------------
          |                Property Printout                |
           -------------------------------------------------

    * Orbital Energies and Occupations

         #    Occupation            Energy/Eh            Energy/eV
      -------------------------------------------------------------
         1        2.0000           -0.6992048             -19.0263
       ...           ...                  ...                  ...
         4        2.0000           -0.5914203             -16.0934
         5        2.0000           -0.5782755             -15.7357
         6        2.0000           -0.5525190             -15.0348
         7        2.0000           -0.5481820             -14.9168
         8        2.0000           -0.5148550             -14.0099
         9        2.0000           -0.5062325             -13.7753
        10        2.0000           -0.4759299             -12.9507
        11        2.0000           -0.4625714             -12.5872
        12        2.0000           -0.4615775             -12.5602
        13        2.0000           -0.4545794             -12.3697
        14        2.0000           -0.4480037             -12.1908
        15        2.0000           -0.4410791             -12.0024
        16        2.0000           -0.3993761             -10.8676 (HOMO)
        17                          0.0191952               0.5223 (LUMO)
        18                          0.1022129               2.7814
        19                          0.1080236               2.9395
        20                          0.1462446               3.9795
        21                          0.1471641               4.0045
        22                          0.1563089               4.2534
        23                          0.1656628               4.5079
        24                          0.1775873               4.8324
        25                          0.1818579               4.9486
        26                          0.1934972               5.2653
        27                          0.2517122               6.8494
       ...                                ...                  ...
        30                          0.2744527               7.4682
      -------------------------------------------------------------
                  HL-Gap            0.4185713 Eh           11.3899 eV
             Fermi-level           -0.1900904 Eh           -5.1726 eV

     #   Z          covCN         q      C6AA      α(0)
     1   6 C        3.751    -0.126    22.983     6.837
     2   6 C        3.697     0.088    19.272     6.280
     3   8 O        1.701    -0.360    20.074     6.049
     4   6 C        3.697     0.088    19.272     6.280
     5   6 C        3.751    -0.126    22.983     6.837
     6   1 H        0.925     0.060     2.199     2.319
     7   1 H        0.925     0.060     2.198     2.318
     8   1 H        0.925     0.060     2.199     2.319
     9   1 H        0.923     0.019     2.752     2.594
    10   1 H        0.923     0.019     2.752     2.594
    11   1 H        0.923     0.019     2.752     2.594
    12   1 H        0.923     0.019     2.752     2.594
    13   1 H        0.925     0.060     2.199     2.319
    14   1 H        0.925     0.060     2.199     2.319
    15   1 H        0.925     0.060     2.198     2.318

 Mol. C6AA /au·bohr⁶  :       1466.546243
 Mol. C8AA /au·bohr⁸  :      29781.005018
 Mol. α(0) /au        :         56.571810


Wiberg/Mayer (AO) data.
largest (>0.10) Wiberg bond orders for each atom

 ---------------------------------------------------------------------------
     #   Z sym  total        # sym  WBO       # sym  WBO       # sym  WBO
 ---------------------------------------------------------------------------
     1   6 C    3.990 --     2 C    1.016     6 H    0.985     8 H    0.985
                             7 H    0.984
     2   6 C    3.950 --     1 C    1.016     3 O    0.974     9 H    0.969
                            10 H    0.969
     3   8 O    2.043 --     2 C    0.974     4 C    0.974
     4   6 C    3.950 --     5 C    1.016     3 O    0.974    11 H    0.969
                            12 H    0.969
     5   6 C    3.990 --     4 C    1.016    14 H    0.985    13 H    0.985
                            15 H    0.984
     6   1 H    0.996 --     1 C    0.985
     7   1 H    0.996 --     1 C    0.984
     8   1 H    0.996 --     1 C    0.985
     9   1 H    1.000 --     2 C    0.969
    10   1 H    1.000 --     2 C    0.969
    11   1 H    1.000 --     4 C    0.969
    12   1 H    1.000 --     4 C    0.969
    13   1 H    0.996 --     5 C    0.985
    14   1 H    0.996 --     5 C    0.985
    15   1 H    0.996 --     5 C    0.984
 ---------------------------------------------------------------------------

Topologies differ in total number of bonds
Writing topology from bond orders to xtbtopo.mol

molecular dipole:
                 x           y           z       tot (Debye)
 q only:       -0.000      -0.273      -0.000
   full:       -0.000      -0.495      -0.000       1.257
molecular quadrupole (traceless):
                xx          xy          yy          xz          yz          zz
 q only:        4.501      -0.000      -1.963      -0.000       0.000      -2.538
  q+dip:        1.776      -0.000      -1.627      -0.000      -0.000      -0.150
   full:        2.806      -0.000      -1.620      -0.000      -0.000      -1.186

           -------------------------------------------------
          |                Geometry Summary                 |
           -------------------------------------------------

      molecular mass/u    :       74.1217560
   center of mass at/Å    :        0.0000048       0.0005213      -0.0000130
  moments of inertia/u·Å² :        0.2801825E+02   0.2260843E+03   0.2414354E+03
rotational constants/cm⁻¹ :        0.6016662E+00   0.7456348E-01   0.6982253E-01

 * 14 selected distances

     #   Z          #   Z                                           value/Å
     1   6 C        2   6 C                                       1.5198626
     2   6 C        3   8 O                                       1.4143371
     3   8 O        4   6 C                                       1.4143371
     4   6 C        5   6 C                                       1.5198626 (max)
     1   6 C        6   1 H                                       1.0860802
     1   6 C        7   1 H                                       1.0853393
     1   6 C        8   1 H                                       1.0860800
     2   6 C        9   1 H                                       1.1014784
     2   6 C       10   1 H                                       1.1014792
     4   6 C       11   1 H                                       1.1014785
     4   6 C       12   1 H                                       1.1014791
     5   6 C       13   1 H                                       1.0860800
     5   6 C       14   1 H                                       1.0860801
     5   6 C       15   1 H                                       1.0853393 (min)

 * 3 distinct bonds (by element types)

   Z      Z             #   av. dist./Å        max./Å        min./Å
   1 H    6 C          10     1.0920914     1.1014792     1.0853393
   6 C    6 C           2     1.5198626     1.5198626     1.5198626
   6 C    8 O           2     1.4143371     1.4143371     1.4143371

           -------------------------------------------------
          |               Frequency Printout                |
           -------------------------------------------------
 projected vibrational frequencies (cm⁻¹)
eigval :       -0.00    -0.00    -0.00    -0.00     0.00     0.00
eigval :       93.80    96.03   181.89   201.04   208.69   405.59
eigval :      427.34   832.96   844.02   884.19   965.58  1083.85
eigval :     1086.43  1106.10  1137.24  1156.14  1162.34  1247.98
eigval :     1257.04  1324.76  1347.18  1392.65  1399.26  1465.02
eigval :     1465.63  1487.36  1488.43  1488.92  1494.13  2819.33
eigval :     2823.64  2858.66  2865.42  3049.62  3049.71  3053.28
eigval :     3053.45  3054.94  3055.78
 reduced masses (amu)
   1:  8.75   2:  9.98   3: 10.94   4: 10.31   5:  9.11   6:  9.33   7:  5.29   8: 10.93
   9:  9.29  10:  2.52  11:  3.66  12:  9.31  13: 10.00  14:  1.88  15:  2.04  16:  7.42
  17:  8.11  18:  8.63  19:  9.50  20: 10.87  21:  4.60  22:  9.02  23:  5.63  24:  2.05
  25:  2.28  26:  3.18  27:  3.87  28:  3.29  29:  3.68  30:  1.53  31:  1.53  32:  1.60
  33:  1.59  34:  1.82  35:  1.75  36:  1.94  37:  1.98  38:  1.42  39:  1.41  40:  1.96
  41:  1.96  42:  1.28  43:  1.31  44:  1.92  45:  1.90
 IR intensities (km·mol⁻¹)
   1:  0.83   2:  0.26   3:  0.09   4:  0.04   5:  0.72   6:  0.69   7:  0.00   8:  8.77
   9:  2.15  10:  0.00  11:  2.46  12:  3.00  13:  0.01  14:  0.00  15:  5.05  16: 11.99
  17: 20.13  18:  3.97  19: 22.63  20:162.97  21:  0.00  22: 66.75  23: 38.88  24:  0.00
  25:  7.22  26: 33.66  27:  5.17  28: 14.67  29:  2.53  30:  0.00  31:  4.67  32:  2.82
  33:  1.83  34:  0.46  35:  9.99  36:263.20  37:  0.00  38: 14.60  39:179.91  40:  0.00
  41: 84.05  42: 37.84  43:  1.83  44: 16.91  45: 69.21
 Raman intensities (Ä⁴*amu⁻¹)
   1:  0.00   2:  0.00   3:  0.00   4:  0.00   5:  0.00   6:  0.00   7:  0.00   8:  0.00
   9:  0.00  10:  0.00  11:  0.00  12:  0.00  13:  0.00  14:  0.00  15:  0.00  16:  0.00
  17:  0.00  18:  0.00  19:  0.00  20:  0.00  21:  0.00  22:  0.00  23:  0.00  24:  0.00
  25:  0.00  26:  0.00  27:  0.00  28:  0.00  29:  0.00  30:  0.00  31:  0.00  32:  0.00
  33:  0.00  34:  0.00  35:  0.00  36:  0.00  37:  0.00  38:  0.00  39:  0.00  40:  0.00
  41:  0.00  42:  0.00  43:  0.00  44:  0.00  45:  0.00
 output can be read by thermo (or use thermo option).
 writing <g98.out> molden fake output.
 recommended (thermochemical) frequency scaling factor: 1.0
           -------------------------------------------------
          |             Thermodynamic Functions             |
           -------------------------------------------------

Molecule has the following symmetry elements: (C2) 2*(sigma) 
It seems to be the C2v point group
c2v symmetry found (for desy threshold:  0.10E+00) used in thermo

          ...................................................
          :                      SETUP                      :
          :.................................................:
          :  # frequencies                          39      :
          :  # imaginary freq.                       0      :
          :  linear?                             false      :
          :  only rotor calc.                    false      :
          :  symmetry                              c2v      :
          :  rotational number                       2      :
          :  scaling factor                  1.0000000      :
          :  rotor cutoff                    0.0000000 cm⁻¹ :
          :  imag. cutoff                 -100.0000000 cm⁻¹ :
          :.................................................:

    mode    ω/cm⁻¹     T·S(HO)/kcal·mol⁻¹    T·S(FR)/kcal·mol⁻¹   T·S(vib)
   ------------------------------------------------------------------------
       1     93.80    -1.06715 (100.00%)    -0.86985 (  0.00%)    -1.06715
       2     96.03    -1.05345 (100.00%)    -0.86289 (  0.00%)    -1.05345
       3    181.89    -0.68842 (100.00%)    -0.67383 (  0.00%)    -0.68842
       4    201.04    -0.63314 (100.00%)    -0.64419 (  0.00%)    -0.63314
       5    208.69    -0.61272 (100.00%)    -0.63313 (  0.00%)    -0.61272
   ------------------------------------------------------------------------

   temp. (K)  partition function   enthalpy   heat capacity  entropy
                                   cal/mol     cal/K/mol   cal/K/mol   J/K/mol
 298.15  VIB   47.5                 2660.470     17.305     16.594
         ROT  0.472E+05              888.752      2.981     24.370
         INT  0.224E+07             3549.222     20.286     40.964
         TR   0.617E+27             1481.254      4.968     38.808
         TOT                        5030.4758    25.2537    79.7717   333.7646

       T/K    H(0)-H(T)+PV         H(T)/Eh          T*S/Eh         G(T)/Eh
   ------------------------------------------------------------------------
    298.15    0.801657E-02    0.141097E+00    0.379021E-01    0.103195E+00
   ------------------------------------------------------------------------

         :::::::::::::::::::::::::::::::::::::::::::::::::::::
         ::                  THERMODYNAMIC                  ::
         :::::::::::::::::::::::::::::::::::::::::::::::::::::
         :: total free energy         -17.619956060985 Eh   ::
         ::.................................................::
         :: total energy              -17.723150609212 Eh   ::
         :: zero point energy           0.133080061146 Eh   ::
         :: G(RRHO) w/o ZPVE           -0.029885512919 Eh   ::
         :: G(RRHO) contrib.            0.103194548227 Eh   ::
         :::::::::::::::::::::::::::::::::::::::::::::::::::::

optimized geometry written to: xtbopt.coord


           -------------------------------------------------
          | TOTAL ENERGY              -17.723150609212 Eh   |
          | TOTAL ENTHALPY            -17.582053974538 Eh   |
          | TOTAL FREE ENERGY         -17.619956060985 Eh   |
          | GRADIENT NORM               0.000031391970 Eh/α |
          | HOMO-LUMO GAP              11.389905161668 eV   |
           -------------------------------------------------

------------------------------------------------------------------------
 * finished run on 2025/04/07 at 02:52:02.959     
------------------------------------------------------------------------
 total:
 * wall-time:     0 d,  0 h,  0 min,  0.496 sec
 *  cpu-time:     0 d,  0 h,  0 min,  0.407 sec
 * ratio c/w:     0.821 speedup
 SCF:
 * wall-time:     0 d,  0 h,  0 min,  0.021 sec
 *  cpu-time:     0 d,  0 h,  0 min,  0.008 sec
 * ratio c/w:     0.363 speedup
 ANC optimizer:
 * wall-time:     0 d,  0 h,  0 min,  0.055 sec
 *  cpu-time:     0 d,  0 h,  0 min,  0.039 sec
 * ratio c/w:     0.707 speedup
 analytical hessian:
 * wall-time:     0 d,  0 h,  0 min,  0.359 sec
 *  cpu-time:     0 d,  0 h,  0 min,  0.350 sec
 * ratio c/w:     0.974 speedup

