 Entering Gaussian System
 *********************************************
 Gaussian 98:
 frequency output generated by the xtb code
 *********************************************
                         Standard orientation:
 --------------------------------------------------------------------
  Center     Atomic     Atomic              Coordinates (Angstroms)
  Number     Number      Type              X           Y           Z
 --------------------------------------------------------------------
    1          6             0        1.697130    0.851725   -0.321261
    2          6             0        1.225653   -0.566588   -0.007975
    3          8             0       -0.009555   -0.645862    0.680895
    4          6             0       -1.191233   -0.539308   -0.097051
    5          6             0       -1.730181    0.883310   -0.230839
    6          1             0        2.729664    0.816421   -0.656499
    7          1             0        1.095327    1.305740   -1.103205
    8          1             0        1.635574    1.465338    0.573480
    9          1             0        1.938086   -1.044262    0.670734
   10          1             0        1.171009   -1.159085   -0.932399
   11          1             0       -1.023427   -0.980299   -1.088590
   12          1             0       -1.926101   -1.151450    0.435845
   13          1             0       -2.718101    0.847853   -0.680972
   14          1             0       -1.804702    1.338937    0.752790
   15          1             0       -1.085928    1.498099   -0.851840
 --------------------------------------------------------------------
     1 basis functions        1 primitive gaussians
     1 alpha electrons        1 beta electrons
 
 Harmonic frequencies (cm**-1), IR intensities (km*mol⁻¹),
 Raman scattering activities (A**4/amu), Raman depolarization ratios,
 reduced masses (AMU), force constants (mDyne/A) and normal coordinates:
                      1                      2                      3
                        a                      a                      a 
 Frequencies --   -30.8309               111.0002               186.3419
 Red. masses --     5.7037                 8.2102                 2.2336
 Frc consts  --     0.0000                 0.0000                 0.0000
 IR Inten    --     0.8536                 3.4657                 0.0728
 Raman Activ --     0.0000                 0.0000                 0.0000
 Depolar     --     0.0000                 0.0000                 0.0000
 Atom AN      X      Y      Z        X      Y      Z        X      Y      Z
   1   6    -0.12  -0.11  -0.28    -0.44   0.14  -0.06     0.01   0.04  -0.01
   2   6     0.11  -0.05   0.30    -0.01   0.02   0.05    -0.07   0.01  -0.20
   3   8    -0.06  -0.00   0.01    -0.01  -0.39   0.02     0.06  -0.02   0.03
   4   6     0.15   0.10  -0.30     0.01   0.00   0.04    -0.07  -0.03   0.22
   5   6    -0.09   0.06   0.28     0.44   0.16  -0.06     0.08  -0.01  -0.03
   6   1    -0.01  -0.02  -0.01    -0.07   0.14   0.15     0.09   0.04   0.26
   7   1    -0.01  -0.19  -0.19    -0.05  -0.09  -0.15     0.19  -0.04  -0.18
   8   1    -0.13   0.09  -0.17    -0.34   0.10  -0.07    -0.25   0.04  -0.04
   9   1     0.01   0.12   0.21     0.03   0.09   0.04     0.00  -0.05  -0.11
  10   1     0.14  -0.15   0.16     0.06  -0.02   0.03    -0.08   0.05  -0.08
  11   1     0.16   0.18  -0.13    -0.05  -0.04   0.02    -0.07  -0.06   0.08
  12   1     0.03  -0.09  -0.24    -0.04   0.08   0.04    -0.02   0.04   0.12
  13   1     0.03   0.03  -0.05     0.07   0.11   0.11     0.22   0.03  -0.44
  14   1    -0.17  -0.15   0.15     0.30   0.12  -0.04    -0.41  -0.09  -0.00
  15   1     0.02   0.16   0.27     0.10  -0.05  -0.14     0.29   0.06   0.33
                      4                      5                      6
                        a                      a                      a 
 Frequencies --   235.4465               348.3490               395.3897
 Red. masses --     3.1568                 8.7485                 9.6846
 Frc consts  --     0.0000                 0.0000                 0.0000
 IR Inten    --     1.0171                 2.0411                 8.0507
 Raman Activ --     0.0000                 0.0000                 0.0000
 Depolar     --     0.0000                 0.0000                 0.0000
 Atom AN      X      Y      Z        X      Y      Z        X      Y      Z
   1   6     0.23  -0.05   0.05     0.33   0.16  -0.16    -0.18  -0.07   0.03
   2   6     0.05  -0.02  -0.06    -0.15   0.33   0.13    -0.29  -0.05  -0.16
   3   8     0.00   0.17  -0.13    -0.30  -0.08  -0.08    -0.07   0.48   0.26
   4   6    -0.08  -0.02  -0.01    -0.27  -0.29  -0.07     0.20  -0.17  -0.19
   5   6    -0.21  -0.06   0.10     0.25  -0.13   0.15     0.30  -0.17   0.08
   6   1     0.21   0.02   0.46     0.08  -0.16  -0.07    -0.03   0.00   0.06
   7   1     0.36  -0.13  -0.28     0.16   0.08  -0.08    -0.01   0.02   0.00
   8   1    -0.35   0.07  -0.07     0.22   0.13  -0.10    -0.10  -0.07   0.04
   9   1    -0.03  -0.03   0.01    -0.07   0.13   0.09    -0.03  -0.12  -0.17
  10   1     0.02  -0.01  -0.02     0.03   0.06   0.05    -0.25   0.05  -0.07
  11   1    -0.05  -0.00  -0.01    -0.09  -0.10  -0.02     0.22   0.02  -0.06
  12   1     0.02  -0.03   0.03    -0.08  -0.06   0.01     0.03  -0.13  -0.19
  13   1    -0.17  -0.03   0.27     0.07   0.15   0.04     0.06   0.06   0.08
  14   1     0.18   0.04   0.02     0.15  -0.10   0.08     0.18  -0.12   0.06
  15   1    -0.19  -0.06  -0.16     0.17  -0.09   0.09     0.10  -0.04   0.04
                      7                      8                      9
                        a                      a                      a 
 Frequencies --   488.7833               805.7487               809.9697
 Red. masses --     9.4174                 4.6787                 2.9331
 Frc consts  --     0.0000                 0.0000                 0.0000
 IR Inten    --    10.4997                21.1816                10.4654
 Raman Activ --     0.0000                 0.0000                 0.0000
 Depolar     --     0.0000                 0.0000                 0.0000
 Atom AN      X      Y      Z        X      Y      Z        X      Y      Z
   1   6    -0.15  -0.08   0.12    -0.10  -0.09   0.06     0.09   0.06   0.07
   2   6     0.27  -0.18   0.03    -0.27   0.11   0.08     0.22  -0.04   0.19
   3   8     0.03   0.46  -0.40     0.00   0.01  -0.21    -0.01  -0.02   0.11
   4   6    -0.24  -0.16  -0.01     0.34   0.12  -0.09    -0.11  -0.06  -0.17
   5   6     0.12  -0.05   0.09     0.13  -0.08  -0.03    -0.05   0.06  -0.08
   6   1    -0.06   0.16  -0.04    -0.02  -0.20   0.05    -0.03   0.12  -0.14
   7   1    -0.17  -0.06   0.11     0.06   0.02  -0.02    -0.17  -0.36  -0.06
   8   1    -0.08  -0.10   0.09     0.05   0.01  -0.01    -0.00   0.30  -0.18
   9   1    -0.01   0.03   0.17    -0.08   0.06   0.06     0.06  -0.40  -0.23
  10   1     0.20  -0.15   0.07    -0.01   0.01   0.02    -0.18   0.33  -0.16
  11   1    -0.21  -0.16   0.03    -0.14  -0.32   0.09    -0.08  -0.17   0.02
  12   1     0.00   0.03   0.18     0.05   0.34   0.28    -0.05   0.11   0.07
  13   1     0.05   0.15  -0.02    -0.01  -0.22   0.11    -0.05   0.11   0.05
  14   1     0.06  -0.08   0.06    -0.03  -0.28   0.11     0.05  -0.16   0.07
  15   1     0.14  -0.05   0.10    -0.21   0.31   0.07    -0.04   0.13   0.06
                     10                     11                     12
                        a                      a                      a 
 Frequencies --   862.8390               943.0434              1054.9058
 Red. masses --     6.4063                 8.0376                 8.8651
 Frc consts  --     0.0000                 0.0000                 0.0000
 IR Inten    --     2.0655                10.6749                25.8892
 Raman Activ --     0.0000                 0.0000                 0.0000
 Depolar     --     0.0000                 0.0000                 0.0000
 Atom AN      X      Y      Z        X      Y      Z        X      Y      Z
   1   6     0.11   0.12  -0.16    -0.26  -0.21   0.12    -0.18  -0.23   0.06
   2   6     0.15  -0.11  -0.17    -0.09   0.20   0.05     0.34   0.23  -0.11
   3   8    -0.02  -0.08   0.42     0.46  -0.01   0.02     0.01   0.03   0.19
   4   6    -0.14  -0.09  -0.21    -0.07  -0.19  -0.10    -0.38   0.31  -0.14
   5   6    -0.10   0.12  -0.16    -0.26   0.20  -0.11     0.20  -0.30   0.04
   6   1     0.07   0.18   0.06    -0.07  -0.40   0.07    -0.04  -0.25   0.06
   7   1     0.06   0.24   0.06     0.11   0.02  -0.06     0.06  -0.00  -0.03
   8   1    -0.06  -0.23   0.13     0.10   0.04  -0.02     0.04  -0.05   0.01
   9   1     0.12   0.15   0.00     0.08   0.11  -0.05     0.18   0.10  -0.11
  10   1     0.00  -0.21   0.09     0.04   0.08  -0.02     0.07   0.10  -0.05
  11   1     0.01  -0.24   0.06     0.03  -0.07  -0.00    -0.10   0.13  -0.05
  12   1    -0.12   0.15   0.03     0.09  -0.11   0.04    -0.17   0.12  -0.09
  13   1    -0.09   0.19   0.09    -0.08   0.39  -0.01     0.05  -0.25   0.02
  14   1     0.08  -0.26   0.11     0.09  -0.02   0.02    -0.02  -0.08   0.01
  15   1    -0.08   0.22   0.10     0.10  -0.03   0.06    -0.04  -0.03  -0.03
                     13                     14                     15
                        a                      a                      a 
 Frequencies --  1070.5249              1081.9297              1096.3951
 Red. masses --     8.9473                 6.7057                 7.1347
 Frc consts  --     0.0000                 0.0000                 0.0000
 IR Inten    --    18.0809                31.5728                91.5898
 Raman Activ --     0.0000                 0.0000                 0.0000
 Depolar     --     0.0000                 0.0000                 0.0000
 Atom AN      X      Y      Z        X      Y      Z        X      Y      Z
   1   6    -0.07   0.41  -0.01     0.14  -0.23  -0.04    -0.10   0.07   0.17
   2   6    -0.13  -0.49   0.13    -0.10   0.28   0.02     0.23  -0.11  -0.34
   3   8     0.19   0.01  -0.00     0.00  -0.13  -0.06    -0.34   0.03  -0.01
   4   6    -0.10   0.35  -0.09     0.08   0.41   0.11     0.16   0.03   0.35
   5   6    -0.05  -0.29  -0.02    -0.15  -0.33  -0.13    -0.05  -0.02  -0.17
   6   1    -0.02  -0.14   0.01     0.03   0.25  -0.04    -0.05  -0.22  -0.03
   7   1     0.15   0.20  -0.07    -0.14  -0.13   0.08     0.04  -0.09  -0.07
   8   1     0.15   0.21  -0.06    -0.14  -0.17   0.06     0.13   0.22  -0.09
   9   1     0.02  -0.11  -0.00    -0.09   0.03   0.04    -0.09   0.04   0.11
  10   1    -0.03  -0.12   0.02    -0.05   0.04   0.02     0.29   0.00  -0.11
  11   1    -0.07   0.08  -0.02     0.08   0.06   0.05     0.27  -0.01   0.13
  12   1     0.04   0.08   0.05     0.08   0.04   0.04    -0.11  -0.03  -0.14
  13   1    -0.01   0.10  -0.01    -0.06   0.33   0.01    -0.06   0.15   0.06
  14   1     0.10  -0.11   0.02     0.21  -0.23   0.06     0.10  -0.20   0.06
  15   1     0.13  -0.18   0.04     0.19  -0.19   0.10     0.00   0.10   0.08
                     16                     17                     18
                        a                      a                      a 
 Frequencies --  1130.6761              1181.4567              1260.2992
 Red. masses --     8.1773                 6.8422                 2.3204
 Frc consts  --     0.0000                 0.0000                 0.0000
 IR Inten    --   110.0877                24.9556                 7.9421
 Raman Activ --     0.0000                 0.0000                 0.0000
 Depolar     --     0.0000                 0.0000                 0.0000
 Atom AN      X      Y      Z        X      Y      Z        X      Y      Z
   1   6     0.17   0.03   0.13    -0.10   0.01  -0.23    -0.06  -0.02  -0.18
   2   6    -0.37  -0.02  -0.11     0.09  -0.01   0.37    -0.03  -0.01   0.09
   3   8     0.44   0.00   0.03     0.04   0.01  -0.28     0.12   0.01   0.01
   4   6    -0.36  -0.01   0.06    -0.15  -0.04   0.35    -0.04   0.04  -0.11
   5   6     0.17  -0.00  -0.11     0.12   0.03  -0.22    -0.07  -0.01   0.18
   6   1     0.00   0.14  -0.10     0.03  -0.02   0.11     0.02   0.02   0.05
   7   1    -0.13  -0.23   0.03     0.09   0.26   0.01     0.03   0.16   0.01
   8   1    -0.04   0.14  -0.06    -0.02  -0.21   0.10    -0.03  -0.15   0.06
   9   1    -0.19   0.08   0.15     0.07  -0.20  -0.09    -0.29  -0.25   0.14
  10   1     0.15  -0.11   0.02    -0.17   0.15  -0.01     0.32   0.28  -0.19
  11   1     0.13   0.11   0.01     0.16   0.18   0.03     0.34  -0.31   0.18
  12   1    -0.16  -0.06  -0.16    -0.06  -0.17  -0.13    -0.27   0.24  -0.13
  13   1    -0.00  -0.14   0.07    -0.04  -0.03   0.10     0.03  -0.02  -0.06
  14   1    -0.03  -0.15   0.03     0.03  -0.24   0.06    -0.04   0.16  -0.03
  15   1    -0.13   0.21  -0.00    -0.10   0.24   0.05     0.04  -0.15  -0.04
                     19                     20                     21
                        a                      a                      a 
 Frequencies --  1294.7525              1336.2577              1338.3607
 Red. masses --     2.5672                 3.2073                 2.9981
 Frc consts  --     0.0000                 0.0000                 0.0000
 IR Inten    --    11.4233                21.4566                19.0642
 Raman Activ --     0.0000                 0.0000                 0.0000
 Depolar     --     0.0000                 0.0000                 0.0000
 Atom AN      X      Y      Z        X      Y      Z        X      Y      Z
   1   6     0.05   0.00   0.12     0.07  -0.15  -0.03     0.03  -0.04   0.01
   2   6    -0.03  -0.01   0.08    -0.26  -0.21   0.14    -0.07  -0.08   0.03
   3   8     0.02   0.01  -0.27    -0.06   0.07   0.02    -0.12  -0.03  -0.02
   4   6     0.00   0.01   0.07     0.12  -0.07   0.06    -0.25   0.22  -0.11
   5   6    -0.06  -0.02   0.11    -0.02  -0.06  -0.04     0.07   0.14   0.03
   6   1    -0.01   0.01  -0.03     0.03   0.21  -0.01     0.00   0.07  -0.02
   7   1    -0.02  -0.10   0.00     0.02   0.10   0.06     0.01   0.01   0.01
   8   1     0.01   0.09  -0.04    -0.02   0.06  -0.07     0.00   0.03  -0.02
   9   1     0.38   0.23  -0.22     0.39   0.31  -0.19     0.20   0.13  -0.12
  10   1    -0.31  -0.21   0.16     0.43   0.34  -0.24     0.14   0.07  -0.07
  11   1     0.34  -0.23   0.17    -0.17   0.15  -0.09     0.39  -0.28   0.20
  12   1    -0.36   0.23  -0.21    -0.11   0.11  -0.04     0.46  -0.36   0.22
  13   1     0.01   0.00  -0.03    -0.02   0.08   0.01     0.03  -0.20  -0.00
  14   1    -0.01   0.09  -0.02     0.01   0.01  -0.02    -0.01  -0.09   0.06
  15   1     0.04  -0.10  -0.02    -0.01   0.04   0.03     0.03  -0.06  -0.06
                     22                     23                     24
                        a                      a                      a 
 Frequencies --  1390.0697              1398.2120              1451.9325
 Red. masses --     3.1700                 3.0818                 1.8238
 Frc consts  --     0.0000                 0.0000                 0.0000
 IR Inten    --    11.5817                 8.3386                 0.1980
 Raman Activ --     0.0000                 0.0000                 0.0000
 Depolar     --     0.0000                 0.0000                 0.0000
 Atom AN      X      Y      Z        X      Y      Z        X      Y      Z
   1   6     0.13   0.28  -0.07    -0.12  -0.25   0.05     0.01   0.02  -0.01
   2   6    -0.05  -0.04   0.03     0.06   0.03  -0.04     0.06  -0.17  -0.01
   3   8    -0.05   0.00  -0.00    -0.00  -0.02  -0.01     0.07  -0.00   0.01
   4   6    -0.04   0.04  -0.02    -0.07   0.03  -0.04     0.05   0.17   0.04
   5   6     0.13  -0.26   0.03     0.15  -0.27   0.03     0.02  -0.02  -0.00
   6   1     0.01  -0.39   0.01     0.01   0.32   0.04     0.00  -0.02  -0.00
   7   1    -0.21  -0.27  -0.01     0.16   0.25   0.03    -0.01  -0.05  -0.02
   8   1    -0.19  -0.27   0.18     0.19   0.27  -0.18    -0.00  -0.04   0.03
   9   1     0.11   0.02  -0.10    -0.07  -0.02   0.06    -0.06   0.34   0.31
  10   1     0.12   0.02  -0.02    -0.12  -0.04   0.03    -0.32   0.30  -0.17
  11   1     0.09  -0.01   0.03     0.14  -0.03   0.03    -0.32  -0.36   0.10
  12   1     0.09  -0.03   0.08     0.09  -0.02   0.09    -0.01  -0.30  -0.37
  13   1    -0.02   0.34   0.05    -0.03   0.36   0.09    -0.01   0.02   0.03
  14   1    -0.17   0.26  -0.14    -0.22   0.29  -0.16    -0.03   0.05  -0.03
  15   1    -0.20   0.23   0.03    -0.22   0.25   0.03    -0.01   0.04   0.03
                     25                     26                     27
                        a                      a                      a 
 Frequencies --  1458.4165              1473.1329              1480.7118
 Red. masses --     1.8732                 1.5441                 1.5715
 Frc consts  --     0.0000                 0.0000                 0.0000
 IR Inten    --     1.3245                 0.1387                 3.8443
 Raman Activ --     0.0000                 0.0000                 0.0000
 Depolar     --     0.0000                 0.0000                 0.0000
 Atom AN      X      Y      Z        X      Y      Z        X      Y      Z
   1   6    -0.03  -0.02  -0.01    -0.01   0.02   0.12     0.14  -0.07   0.09
   2   6    -0.10   0.17   0.03    -0.01   0.01   0.02     0.04   0.01   0.01
   3   8    -0.00   0.01   0.02    -0.00   0.00   0.00    -0.00  -0.00  -0.00
   4   6     0.08   0.16   0.07     0.01  -0.01  -0.04     0.03   0.02   0.03
   5   6     0.02  -0.02  -0.01     0.05   0.02  -0.17     0.08   0.04   0.07
   6   1     0.02   0.05   0.05    -0.12   0.05  -0.37    -0.12  -0.20  -0.37
   7   1    -0.00   0.03   0.01     0.27  -0.02  -0.22     0.08   0.32   0.14
   8   1     0.06   0.04  -0.02    -0.12  -0.13   0.09    -0.55   0.15  -0.14
   9   1     0.07  -0.34  -0.32    -0.00  -0.02  -0.01    -0.02  -0.04   0.01
  10   1     0.35  -0.30   0.18     0.02   0.00   0.00    -0.01  -0.01   0.01
  11   1    -0.34  -0.32   0.09     0.02  -0.00  -0.00    -0.05  -0.02   0.01
  12   1    -0.02  -0.28  -0.36    -0.01   0.04   0.02    -0.01  -0.02  -0.04
  13   1    -0.02   0.03   0.04    -0.24  -0.11   0.53     0.04   0.19  -0.07
  14   1    -0.03   0.03  -0.02    -0.30   0.12  -0.09    -0.21  -0.22   0.09
  15   1    -0.00   0.03   0.02     0.33  -0.08   0.25    -0.16  -0.14  -0.31
                     28                     29                     30
                        a                      a                      a 
 Frequencies --  1488.9304              1496.3801              2865.4828
 Red. masses --     1.5762                 1.5483                 1.7260
 Frc consts  --     0.0000                 0.0000                 0.0000
 IR Inten    --     2.9331                 1.1045               110.9282
 Raman Activ --     0.0000                 0.0000                 0.0000
 Depolar     --     0.0000                 0.0000                 0.0000
 Atom AN      X      Y      Z        X      Y      Z        X      Y      Z
   1   6    -0.01   0.01  -0.13    -0.13   0.07   0.08     0.00   0.00  -0.00
   2   6    -0.00  -0.02  -0.03    -0.04   0.00   0.03     0.04   0.13   0.22
   3   8    -0.00   0.00   0.00     0.00   0.00  -0.00    -0.01   0.00   0.02
   4   6     0.04  -0.01  -0.01     0.02  -0.00   0.03     0.00   0.00   0.01
   5   6     0.14   0.11  -0.04     0.08   0.04   0.10    -0.00   0.00  -0.00
   6   1     0.13  -0.04   0.40    -0.06   0.23  -0.17    -0.01   0.00   0.00
   7   1    -0.29  -0.06   0.18     0.30  -0.26  -0.38     0.01  -0.01   0.01
   8   1     0.18   0.08  -0.05     0.29  -0.26   0.21    -0.00   0.02   0.02
   9   1     0.00   0.04   0.02     0.02   0.01  -0.02    -0.04   0.05  -0.01
  10   1    -0.02   0.01  -0.01     0.03   0.02  -0.01    -0.05  -0.51  -0.81
  11   1    -0.00   0.02  -0.01    -0.02   0.02  -0.01     0.00  -0.02  -0.06
  12   1    -0.02   0.05   0.01    -0.01   0.01  -0.01    -0.01  -0.00   0.01
  13   1    -0.14   0.12   0.33     0.08   0.21  -0.16     0.00  -0.00   0.00
  14   1    -0.51  -0.23   0.07    -0.17  -0.23   0.10     0.00   0.00   0.00
  15   1     0.10  -0.30  -0.22    -0.23  -0.12  -0.36    -0.00  -0.00   0.00
                     31                     32                     33
                        a                      a                      a 
 Frequencies --  2880.9280              2934.3103              2949.3442
 Red. masses --     1.7581                 1.6616                 1.6829
 Frc consts  --     0.0000                 0.0000                 0.0000
 IR Inten    --    76.7022                64.2214                56.0037
 Raman Activ --     0.0000                 0.0000                 0.0000
 Depolar     --     0.0000                 0.0000                 0.0000
 Atom AN      X      Y      Z        X      Y      Z        X      Y      Z
   1   6    -0.00   0.00  -0.00    -0.00   0.00   0.00    -0.01   0.00  -0.00
   2   6    -0.01  -0.01  -0.02     0.00  -0.00   0.00     0.16  -0.12   0.15
   3   8     0.01   0.00   0.01    -0.01   0.00  -0.00     0.01  -0.00  -0.00
   4   6    -0.07   0.08   0.24    -0.16  -0.15   0.11    -0.00   0.00   0.00
   5   6    -0.00   0.00  -0.00     0.01   0.00  -0.00     0.00   0.00  -0.00
   6   1     0.00  -0.00  -0.00     0.00  -0.00  -0.00     0.03  -0.00  -0.01
   7   1     0.00   0.00   0.00     0.00  -0.00   0.00     0.03  -0.03   0.04
   8   1    -0.00  -0.00  -0.00     0.00  -0.00  -0.00    -0.00   0.01   0.00
   9   1     0.01  -0.01   0.01    -0.00   0.00  -0.00    -0.63   0.41  -0.61
  10   1     0.01   0.03   0.05    -0.00  -0.01  -0.01     0.03   0.02   0.08
  11   1     0.15  -0.37  -0.87    -0.04   0.02   0.11     0.00  -0.01  -0.02
  12   1     0.06   0.07  -0.02     0.65   0.52  -0.48    -0.00  -0.00   0.00
  13   1     0.01   0.00   0.00    -0.02  -0.00  -0.01    -0.00  -0.00  -0.00
  14   1    -0.00   0.02   0.03     0.00   0.00   0.01    -0.00   0.00   0.00
  15   1    -0.01  -0.01   0.01    -0.02  -0.03   0.03    -0.00  -0.00   0.00
                     34                     35                     36
                        a                      a                      a 
 Frequencies --  3043.4933              3045.1396              3046.7445
 Red. masses --     1.9546                 1.7588                 1.9313
 Frc consts  --     0.0000                 0.0000                 0.0000
 IR Inten    --    91.7997                 3.1128                14.7367
 Raman Activ --     0.0000                 0.0000                 0.0000
 Depolar     --     0.0000                 0.0000                 0.0000
 Atom AN      X      Y      Z        X      Y      Z        X      Y      Z
   1   6     0.22  -0.06   0.09    -0.13  -0.01  -0.07    -0.09   0.07   0.24
   2   6     0.01  -0.01   0.01    -0.01   0.00  -0.01    -0.00   0.01   0.01
   3   8     0.00   0.00   0.00    -0.00  -0.00  -0.00     0.00  -0.00  -0.00
   4   6     0.01   0.00   0.00     0.01   0.00   0.00     0.00  -0.00  -0.01
   5   6     0.14   0.04   0.03     0.19   0.01   0.09     0.04  -0.02  -0.09
   6   1    -0.50   0.02   0.18     0.37  -0.02  -0.14     0.46  -0.01  -0.12
   7   1    -0.33   0.25  -0.45     0.12  -0.10   0.17    -0.19   0.13  -0.18
   8   1     0.04  -0.04  -0.04    -0.04   0.15   0.22     0.03  -0.38  -0.56
   9   1    -0.03   0.02  -0.03     0.02  -0.01   0.02    -0.01   0.00  -0.00
  10   1     0.00  -0.00  -0.00    -0.00   0.00   0.00    -0.00  -0.01  -0.02
  11   1     0.00  -0.00  -0.01     0.00  -0.00  -0.01    -0.00   0.00   0.01
  12   1    -0.01  -0.01   0.01    -0.01  -0.01   0.01    -0.01  -0.01   0.01
  13   1    -0.41  -0.02  -0.19    -0.73  -0.04  -0.33    -0.07  -0.01  -0.05
  14   1     0.02  -0.02  -0.06     0.03  -0.01  -0.01    -0.02   0.15   0.32
  15   1    -0.12  -0.12   0.13     0.01  -0.01   0.02    -0.07  -0.07   0.06
                     37                     38                     39
                        a                      a                      a 
 Frequencies --  3048.2168              3049.3008              3055.7242
 Red. masses --     1.8425                 1.2965                 1.5246
 Frc consts  --     0.0000                 0.0000                 0.0000
 IR Inten    --    75.5634                17.2254                46.1286
 Raman Activ --     0.0000                 0.0000                 0.0000
 Depolar     --     0.0000                 0.0000                 0.0000
 Atom AN      X      Y      Z        X      Y      Z        X      Y      Z
   1   6     0.04  -0.01  -0.11    -0.02  -0.14   0.01    -0.05   0.04  -0.02
   2   6    -0.00  -0.00  -0.01     0.00  -0.01   0.00    -0.00   0.00  -0.00
   3   8     0.00   0.00  -0.00    -0.00   0.00   0.00    -0.00  -0.00  -0.00
   4   6     0.01  -0.00  -0.01     0.00  -0.00  -0.00     0.01   0.01  -0.01
   5   6     0.06  -0.05  -0.24    -0.02   0.02  -0.08     0.11   0.16  -0.07
   6   1    -0.25   0.01   0.07     0.42  -0.04  -0.13     0.03   0.00  -0.01
   7   1     0.13  -0.09   0.14    -0.32   0.21  -0.40     0.14  -0.10   0.19
   8   1    -0.01   0.11   0.16    -0.04   0.32   0.50    -0.00  -0.05  -0.09
   9   1     0.00  -0.00   0.00    -0.01   0.00  -0.01     0.01  -0.01   0.01
  10   1     0.00   0.01   0.01     0.00   0.00   0.01    -0.00   0.00  -0.00
  11   1    -0.00   0.01   0.03    -0.00   0.00   0.00     0.00   0.00  -0.00
  12   1    -0.01  -0.01   0.01    -0.00  -0.00   0.00    -0.02  -0.02   0.02
  13   1    -0.01  -0.01  -0.04     0.23   0.01   0.10     0.10   0.02   0.03
  14   1    -0.05   0.35   0.76    -0.01   0.03   0.06     0.04  -0.10  -0.28
  15   1    -0.15  -0.15   0.12    -0.13  -0.12   0.11    -0.53  -0.48   0.51
