      -----------------------------------------------------------      
     |                   =====================                   |     
     |                           x T B                           |     
     |                   =====================                   |     
     |                         S. Grimme                         |     
     |          Mulliken Center for Theoretical Chemistry        |     
     |                    University of Bonn                     |     
      -----------------------------------------------------------      

   * xtb version 6.7.1 (edcfbbe) compiled by 'albert@albert-system' on 2024-07-22

   xtb is free software: you can redistribute it and/or modify it under
   the terms of the GNU Lesser General Public License as published by
   the Free Software Foundation, either version 3 of the License, or
   (at your option) any later version.
   
   xtb is distributed in the hope that it will be useful,
   but WITHOUT ANY WARRANTY; without even the implied warranty of
   MERCHANTABILITY or FITNESS FOR A PARTICULAR PURPOSE.  See the
   GNU Lesser General Public License for more details.
   
   Cite this work as:
   * C. Bannwarth, E. Caldeweyher, S. Ehlert, A. Hansen, P. Pracht,
     J. Seibert, S. Spicher, S. Grimme, WIREs Comput. Mol. Sci., 2020, 11,
     e01493. DOI: 10.1002/wcms.1493
   
   for GFN2-xTB:
   * C. Bannwarth, S. Ehlert and S. Grimme., J. Chem. Theory Comput., 2019,
     15, 1652-1671. DOI: 10.1021/acs.jctc.8b01176
   for GFN1-xTB:
   * S. Grimme, C. Bannwarth, P. Shushkov, J. Chem. Theory Comput., 2017,
     13, 1989-2009. DOI: 10.1021/acs.jctc.7b00118
   for GFN0-xTB:
   * P. Pracht, E. Caldeweyher, S. Ehlert, S. Grimme, ChemRxiv, 2019, preprint.
     DOI: 10.26434/chemrxiv.8326202.v1
   for GFN-FF:
   * S. Spicher and S. Grimme, Angew. Chem. Int. Ed., 2020, 59, 15665-15673.
     DOI: 10.1002/anie.202004239
   
   for ALPB and GBSA implicit solvation:
   * S. Ehlert, M. Stahn, S. Spicher, S. Grimme, J. Chem. Theory Comput.,
     2021, 17, 4250-4261. DOI: 10.1021/acs.jctc.1c00471
   
   for ddCOSMO and CPCM-X implicit solvation:
   * M. Stahn, S. Ehlert, S. Grimme, J. Phys. Chem. A,
     2023, XX, XXXX-XXXX. DOI: 10.1021/acs.jpca.3c04382
   
   for DFT-D4:
   * E. Caldeweyher, C. Bannwarth and S. Grimme, J. Chem. Phys., 2017,
     147, 034112. DOI: 10.1063/1.4993215
   * E. Caldeweyher, S. Ehlert, A. Hansen, H. Neugebauer, S. Spicher,
     C. Bannwarth and S. Grimme, J. Chem. Phys., 2019, 150, 154122.
     DOI: 10.1063/1.5090222
   * E. Caldeweyher, J.-M. Mewes, S. Ehlert and S. Grimme, Phys. Chem. Chem. Phys.
     2020, 22, 8499-8512. DOI: 10.1039/D0CP00502A
   
   for sTDA-xTB:
   * S. Grimme and C. Bannwarth, J. Chem. Phys., 2016, 145, 054103.
     DOI: 10.1063/1.4959605
   
   in the mass-spec context:
   * V. Asgeirsson, C. Bauer and S. Grimme, Chem. Sci., 2017, 8, 4879.
     DOI: 10.1039/c7sc00601b
   * J. Koopman and S. Grimme, ACS Omega 2019, 4, 12, 15120-15133.
     DOI: 10.1021/acsomega.9b02011
   
   for metadynamics refer to:
   * S. Grimme, J. Chem. Theory Comput., 2019, 155, 2847-2862
     DOI: 10.1021/acs.jctc.9b00143
   
   for SPH calculations refer to:
   * S. Spicher and S. Grimme, J. Chem. Theory Comput., 2021, 17, 1701-1714
     DOI: 10.1021/acs.jctc.0c01306
   
   for ONIOM refer to:
   * C. Plett, A. Katbashev, S. Ehlert, S. Grimme, M. Bursch,
     Phys. Chem. Chem. Phys., 2023, 25, 17860-17868. DOI: 10.1039/D3CP02178E
   
   for DIPRO refer to:
   * J. Kohn, N. Gildemeister, S. Grimme, D. Fazzi, A. Hansen,
     J. Chem. Phys., 2023, just accepted.
   
   for PTB refer to:
   * S. Grimme, M. Mueller, A. Hansen, J. Chem. Phys., 2023, 158, 124111.
     DOI: 10.1063/5.0137838
   
   with help from (in alphabetical order)
   P. Atkinson, C. Bannwarth, F. Bohle, G. Brandenburg, E. Caldeweyher
   M. Checinski, S. Dohm, S. Ehlert, S. Ehrlich, I. Gerasimov, C. Hölzer
   A. Katbashev, J. Kohn, J. Koopman, C. Lavigne, S. Lehtola, F. März, M. Müller,
   F. Musil, H. Neugebauer, J. Pisarek, C. Plett, P. Pracht, F. Pultar,
   J. Seibert, P. Shushkov, S. Spicher, M. Stahn, M. Steiner, T. Strunk,
   J. Stückrath, T. Rose, and J. Unsleber
   
 * started run on 2025/04/07 at 02:45:59.848     
   ID    Z sym.   atoms
    1    6 C      1, 2, 4, 5
    2    8 O      3
    3    1 H      6-15

           -------------------------------------------------
          |                Calculation Setup                |
           -------------------------------------------------

          program call               : /srv/scratch/z5358697/.xtb/bin/xtb xtb_rrho.coord --gfn2 --bhess vtight --chrg 0 --enso --norestart -I rrho-xcontrol-inp --parallel 1 --alpb water
          hostname                   : k140
          coordinate file            : xtb_rrho.coord
          omp threads                :                     1


           -------------------------------------------------
          |                 G F N 2 - x T B                 |
           -------------------------------------------------

        Reference                      10.1021/acs.jctc.8b01176
      * Hamiltonian:
        H0-scaling (s, p, d)           1.850000    2.230000    2.230000
        zeta-weighting                 0.500000
      * Dispersion:
        s8                             2.700000
        a1                             0.520000
        a2                             5.000000
        s9                             5.000000
      * Repulsion:
        kExp                           1.500000    1.000000
        rExp                           1.000000
      * Coulomb:
        alpha                          2.000000
        third order                    shell-resolved
        anisotropic                    true
        a3                             3.000000
        a5                             4.000000
        cn-shift                       1.200000
        cn-exp                         4.000000
        max-rad                        5.000000

      * Solvation model:               ALPB
        Solvent                        water
        Parameter file                 internal GFN2-xTB/ALPB
        Dielectric constant                8.0200E+01
        Reference state                gsolv [1 M gas/solution]
        Free energy shift                  1.0808E-03 Eh       6.7819E-01 kcal/mol
        Temperature                        2.9815E+02 K
        Density                            1.0000E+00 kg/L
        Solvent mass                       1.8000E+01 g/mol
        Interaction kernel             P16
        Born radius scaling (c1)           1.4744E+00
        Born radii integrator          GBOBC
        Born offset                        0.0000E+00 a0       0.0000E+00 AA
        H-bond correction              true
        Ion screening                  false
        Surface tension                    1.0000E-05 Eh       1.5569E+01 dyn/cm
        Grid points                               974 per atom

          ...................................................
          :                      SETUP                      :
          :.................................................:
          :  # basis functions                  30          :
          :  # atomic orbitals                  30          :
          :  # shells                           20          :
          :  # electrons                        32          :
          :  max. iterations                   250          :
          :  Hamiltonian                  GFN2-xTB          :
          :  restarted?                      false          :
          :  GBSA solvation                   true          :
          :  PC potential                    false          :
          :  electronic temp.          300.0000000     K    :
          :  accuracy                    1.0000000          :
          :  -> integral cutoff          0.2500000E+02      :
          :  -> integral neglect         0.1000000E-07      :
          :  -> SCF convergence          0.1000000E-05 Eh   :
          :  -> wf. convergence          0.1000000E-03 e    :
          :  Broyden damping             0.4000000          :
          :  net charge                          0          :
          :  unpaired electrons                  0          :
          ...................................................

 iter      E             dE          RMSdq      gap      omega  full diag
   1    -17.8828065 -0.178828E+02  0.369E+00   11.08       0.0  T
   2    -17.9217019 -0.388954E-01  0.182E+00   10.65       1.0  T
   3    -17.9224034 -0.701506E-03  0.729E-01   10.70       1.0  T
   4    -17.9225736 -0.170195E-03  0.126E-01   10.71       1.0  T
   5    -17.9225911 -0.174437E-04  0.678E-02   10.74       1.0  T
   6    -17.9225927 -0.161445E-05  0.827E-03   10.74       3.1  T
   7    -17.9225929 -0.165518E-06  0.276E-03   10.74       9.4  T
   8    -17.9225929 -0.728529E-08  0.122E-03   10.74      21.2  T
   9    -17.9225929 -0.489410E-08  0.181E-04   10.74     143.0  T
  10    -17.9225929  0.203002E-10  0.870E-05   10.74     296.7  T

   *** convergence criteria satisfied after 10 iterations ***

         #    Occupation            Energy/Eh            Energy/eV
      -------------------------------------------------------------
         1        2.0000           -0.6930982             -18.8602
       ...           ...                  ...                  ...
        10        2.0000           -0.4820417             -13.1170
        11        2.0000           -0.4764440             -12.9647
        12        2.0000           -0.4685183             -12.7490
        13        2.0000           -0.4550890             -12.3836
        14        2.0000           -0.4357662             -11.8578
        15        2.0000           -0.4308672             -11.7245
        16        2.0000           -0.4008734             -10.9083 (HOMO)
        17                         -0.0060730              -0.1653 (LUMO)
        18                          0.0801291               2.1804
        19                          0.1115109               3.0344
        20                          0.1165757               3.1722
        21                          0.1279375               3.4814
       ...                                ...                  ...
        30                          0.3134777               8.5302
      -------------------------------------------------------------
                  HL-Gap            0.3948004 Eh           10.7431 eV
             Fermi-level           -0.2034732 Eh           -5.5368 eV

 SCC (total)                   0 d,  0 h,  0 min,  0.039 sec
 SCC setup                      ...        0 min,  0.001 sec (  1.801%)
 Dispersion                     ...        0 min,  0.000 sec (  0.139%)
 classical contributions        ...        0 min,  0.000 sec (  0.034%)
 integral evaluation            ...        0 min,  0.001 sec (  1.796%)
 iterations                     ...        0 min,  0.035 sec ( 89.722%)
 molecular gradient             ...        0 min,  0.002 sec (  6.241%)
 printout                       ...        0 min,  0.000 sec (  0.239%)

         :::::::::::::::::::::::::::::::::::::::::::::::::::::
         ::                     SUMMARY                     ::
         :::::::::::::::::::::::::::::::::::::::::::::::::::::
         :: total energy             -17.720751747008 Eh    ::
         :: total w/o Gsasa/hb       -17.721045794092 Eh    ::
         :: gradient norm              0.026083178519 Eh/a0 ::
         :: HOMO-LUMO gap             10.743064967410 eV    ::
         ::.................................................::
         :: SCC energy               -17.922579066419 Eh    ::
         :: -> isotropic ES            0.027323901459 Eh    ::
         :: -> anisotropic ES          0.004173948727 Eh    ::
         :: -> anisotropic XC          0.006597600099 Eh    ::
         :: -> dispersion             -0.007147817094 Eh    ::
         :: -> Gsolv                  -0.003506637482 Eh    ::
         ::    -> Gelec               -0.003800684567 Eh    ::
         ::    -> Gsasa                0.000145732327 Eh    ::
         ::    -> Ghb                 -0.000932444941 Eh    ::
         ::    -> Gshift               0.001080759698 Eh    ::
         :: repulsion energy           0.201827319411 Eh    ::
         :: add. restraining           0.000000000000 Eh    ::
         :: total charge               0.000000000000 e     ::
         :::::::::::::::::::::::::::::::::::::::::::::::::::::

metadynamics with 1 initial structures loaded
           -------------------------------------------------
          |           Optimal kpush determination           |
           -------------------------------------------------
      ----------------------------------------------------------- 
     |                   =====================                   |
     |                        A N C O P T                        |
     |                   =====================                   |
     |               Approximate Normal Coordinate               |
     |                Rational Function Optimizer                |
      ----------------------------------------------------------- 
target rmsd / Å         0.100000
unbiased initial rmsd   0.265317
 
iter. min.        max.        rmsd       kpush
      ----------------------------------------------------------- 
     |                   =====================                   |
     |                        A N C O P T                        |
     |                   =====================                   |
     |               Approximate Normal Coordinate               |
     |                Rational Function Optimizer                |
      ----------------------------------------------------------- 
 1    0.000000    0.681818    0.010509   -0.340909
      ----------------------------------------------------------- 
     |                   =====================                   |
     |                        A N C O P T                        |
     |                   =====================                   |
     |               Approximate Normal Coordinate               |
     |                Rational Function Optimizer                |
      ----------------------------------------------------------- 
 2    0.000000    0.340909    0.012784   -0.170455
      ----------------------------------------------------------- 
     |                   =====================                   |
     |                        A N C O P T                        |
     |                   =====================                   |
     |               Approximate Normal Coordinate               |
     |                Rational Function Optimizer                |
      ----------------------------------------------------------- 
 3    0.000000    0.170455    0.015153   -0.085227
      ----------------------------------------------------------- 
     |                   =====================                   |
     |                        A N C O P T                        |
     |                   =====================                   |
     |               Approximate Normal Coordinate               |
     |                Rational Function Optimizer                |
      ----------------------------------------------------------- 
 4    0.000000    0.085227    0.018222   -0.042614
      ----------------------------------------------------------- 
     |                   =====================                   |
     |                        A N C O P T                        |
     |                   =====================                   |
     |               Approximate Normal Coordinate               |
     |                Rational Function Optimizer                |
      ----------------------------------------------------------- 
 5    0.000000    0.042614    0.023379   -0.021307
      ----------------------------------------------------------- 
     |                   =====================                   |
     |                        A N C O P T                        |
     |                   =====================                   |
     |               Approximate Normal Coordinate               |
     |                Rational Function Optimizer                |
      ----------------------------------------------------------- 
 6    0.000000    0.021307    0.031758   -0.010653
      ----------------------------------------------------------- 
     |                   =====================                   |
     |                        A N C O P T                        |
     |                   =====================                   |
     |               Approximate Normal Coordinate               |
     |                Rational Function Optimizer                |
      ----------------------------------------------------------- 
 7    0.000000    0.010653    0.043040   -0.005327
      ----------------------------------------------------------- 
     |                   =====================                   |
     |                        A N C O P T                        |
     |                   =====================                   |
     |               Approximate Normal Coordinate               |
     |                Rational Function Optimizer                |
      ----------------------------------------------------------- 
 8    0.000000    0.005327    0.060403   -0.002663
      ----------------------------------------------------------- 
     |                   =====================                   |
     |                        A N C O P T                        |
     |                   =====================                   |
     |               Approximate Normal Coordinate               |
     |                Rational Function Optimizer                |
      ----------------------------------------------------------- 
 9    0.000000    0.002663    0.139390   -0.001332
      ----------------------------------------------------------- 
     |                   =====================                   |
     |                        A N C O P T                        |
     |                   =====================                   |
     |               Approximate Normal Coordinate               |
     |                Rational Function Optimizer                |
      ----------------------------------------------------------- 
10    0.001332    0.002663    0.081441   -0.001998
final kpush: -0.001998
           -------------------------------------------------
          |            Biased Numerical Hessian             |
           -------------------------------------------------
kpush                :  -0.00200
alpha                :   1.00000
step length          :   0.00500
SCC accuracy         :   0.30000
Hessian scale factor :   1.00000
frozen atoms in %    :   0.00000    0
RMS gradient         :   0.00003
estimated CPU  time      0.01 min
estimated wall time      0.01 min

writing file <hessian>.

 projected vibrational frequencies (cm⁻¹)
eigval :       -0.00    -0.00     0.00     0.00     0.00     0.00
eigval :      -30.83   111.00   186.34   235.45   348.35   395.39
eigval :      488.78   805.75   809.97   862.84   943.04  1054.91
eigval :     1070.52  1081.93  1096.40  1130.68  1181.46  1260.30
eigval :     1294.75  1336.26  1338.36  1390.07  1398.21  1451.93
eigval :     1458.42  1473.13  1480.71  1488.93  1496.38  2865.48
eigval :     2880.93  2934.31  2949.34  3043.49  3045.14  3046.74
eigval :     3048.22  3049.30  3055.72
           -------------------------------------------------
          |                Property Printout                |
           -------------------------------------------------

    * Orbital Energies and Occupations

         #    Occupation            Energy/Eh            Energy/eV
      -------------------------------------------------------------
         1        2.0000           -0.6977175             -18.9859
       ...           ...                  ...                  ...
         4        2.0000           -0.5890582             -16.0291
         5        2.0000           -0.5802497             -15.7894
         6        2.0000           -0.5473460             -14.8940
         7        2.0000           -0.5368501             -14.6084
         8        2.0000           -0.5239037             -14.2561
         9        2.0000           -0.4936601             -13.4332
        10        2.0000           -0.4820419             -13.1170
        11        2.0000           -0.4761697             -12.9572
        12        2.0000           -0.4693618             -12.7720
        13        2.0000           -0.4553582             -12.3909
        14        2.0000           -0.4343227             -11.8185
        15        2.0000           -0.4321024             -11.7581
        16        2.0000           -0.3993565             -10.8670 (HOMO)
        17                          0.0143970               0.3918 (LUMO)
        18                          0.0933400               2.5399
        19                          0.1131882               3.0800
        20                          0.1247625               3.3950
        21                          0.1286506               3.5008
        22                          0.1544266               4.2022
        23                          0.1766093               4.8058
        24                          0.1785834               4.8595
        25                          0.1886379               5.1331
        26                          0.2198851               5.9834
        27                          0.2433396               6.6216
       ...                                ...                  ...
        30                          0.3231903               8.7945
      -------------------------------------------------------------
                  HL-Gap            0.4137535 Eh           11.2588 eV
             Fermi-level           -0.1924798 Eh           -5.2376 eV

     #   Z          covCN         q      C6AA      α(0)
     1   6 C        3.750    -0.125    22.970     6.835
     2   6 C        3.685     0.080    19.439     6.312
     3   8 O        1.699    -0.368    20.220     6.071
     4   6 C        3.684     0.080    19.444     6.313
     5   6 C        3.750    -0.126    22.980     6.837
     6   1 H        0.925     0.053     2.288     2.366
     7   1 H        0.925     0.048     2.347     2.395
     8   1 H        0.925     0.055     2.260     2.351
     9   1 H        0.924     0.051     2.314     2.379
    10   1 H        0.923     0.024     2.673     2.557
    11   1 H        0.923     0.026     2.638     2.540
    12   1 H        0.924     0.047     2.360     2.402
    13   1 H        0.925     0.052     2.292     2.367
    14   1 H        0.925     0.054     2.270     2.356
    15   1 H        0.925     0.050     2.322     2.383

 Mol. C6AA /au·bohr⁶  :       1461.138777
 Mol. C8AA /au·bohr⁸  :      29726.257959
 Mol. α(0) /au        :         56.464501


Wiberg/Mayer (AO) data.
largest (>0.10) Wiberg bond orders for each atom

 ---------------------------------------------------------------------------
     #   Z sym  total        # sym  WBO       # sym  WBO       # sym  WBO
 ---------------------------------------------------------------------------
     1   6 C    3.994 --     2 C    1.009     8 H    0.986     6 H    0.984
                             7 H    0.983
     2   6 C    3.947 --     1 C    1.009     3 O    0.975     9 H    0.971
                            10 H    0.968
     3   8 O    2.052 --     2 C    0.975     4 C    0.973
     4   6 C    3.947 --     5 C    1.010     3 O    0.973    12 H    0.971
                            11 H    0.969
     5   6 C    3.994 --     4 C    1.010    14 H    0.986    13 H    0.984
                            15 H    0.983
     6   1 H    0.997 --     1 C    0.984
     7   1 H    0.998 --     1 C    0.983
     8   1 H    0.997 --     1 C    0.986
     9   1 H    0.997 --     2 C    0.971
    10   1 H    0.999 --     2 C    0.968
    11   1 H    0.999 --     4 C    0.969
    12   1 H    0.998 --     4 C    0.971
    13   1 H    0.997 --     5 C    0.984
    14   1 H    0.997 --     5 C    0.986
    15   1 H    0.998 --     5 C    0.983
 ---------------------------------------------------------------------------

Topologies differ in total number of bonds
Writing topology from bond orders to xtbtopo.mol

molecular dipole:
                 x           y           z       tot (Debye)
 q only:        0.023       0.279      -0.528
   full:        0.029       0.243      -0.664       1.797
molecular quadrupole (traceless):
                xx          xy          yy          xz          yz          zz
 q only:        3.260      -0.081      -0.887       0.146       0.703      -2.373
  q+dip:        2.388      -0.007      -0.894       0.115       1.435      -1.494
   full:        2.968      -0.044      -0.981       0.144       1.260      -1.987

           -------------------------------------------------
          |                Geometry Summary                 |
           -------------------------------------------------

      molecular mass/u    :       74.1217560
   center of mass at/Å    :       -0.0016855       0.0024773       0.0013196
  moments of inertia/u·Å² :        0.6205871E+02   0.1499544E+03   0.1900588E+03
rotational constants/cm⁻¹ :        0.2716401E+00   0.1124184E+00   0.8869692E-01

 * 14 selected distances

     #   Z          #   Z                                           value/Å
     1   6 C        2   6 C                                       1.5271052
     2   6 C        3   8 O                                       1.4165324
     3   8 O        4   6 C                                       1.4187732
     4   6 C        5   6 C                                       1.5271568 (max)
     1   6 C        6   1 H                                       1.0861665
     1   6 C        7   1 H                                       1.0861562
     1   6 C        8   1 H                                       1.0866786
     2   6 C        9   1 H                                       1.0937912
     2   6 C       10   1 H                                       1.0993630
     4   6 C       11   1 H                                       1.0980805
     4   6 C       12   1 H                                       1.0948642
     5   6 C       13   1 H                                       1.0862144
     5   6 C       14   1 H                                       1.0865889
     5   6 C       15   1 H                                       1.0856652 (min)

 * 3 distinct bonds (by element types)

   Z      Z             #   av. dist./Å        max./Å        min./Å
   1 H    6 C          10     1.0903569     1.0993630     1.0856652
   6 C    6 C           2     1.5271310     1.5271568     1.5271052
   6 C    8 O           2     1.4176528     1.4187732     1.4165324

           -------------------------------------------------
          |               Frequency Printout                |
           -------------------------------------------------
 projected vibrational frequencies (cm⁻¹)
eigval :       -0.00    -0.00     0.00     0.00     0.00     0.00
eigval :      -30.83   111.00   186.34   235.45   348.35   395.39
eigval :      488.78   805.75   809.97   862.84   943.04  1054.91
eigval :     1070.52  1081.93  1096.40  1130.68  1181.46  1260.30
eigval :     1294.75  1336.26  1338.36  1390.07  1398.21  1451.93
eigval :     1458.42  1473.13  1480.71  1488.93  1496.38  2865.48
eigval :     2880.93  2934.31  2949.34  3043.49  3045.14  3046.74
eigval :     3048.22  3049.30  3055.72
 reduced masses (amu)
   1: 10.85   2: 11.11   3: 10.67   4: 10.45   5: 10.12   6:  8.87   7:  5.70   8:  8.21
   9:  2.23  10:  3.16  11:  8.75  12:  9.68  13:  9.42  14:  4.68  15:  2.93  16:  6.41
  17:  8.04  18:  8.87  19:  8.95  20:  6.71  21:  7.13  22:  8.18  23:  6.84  24:  2.32
  25:  2.57  26:  3.21  27:  3.00  28:  3.17  29:  3.08  30:  1.82  31:  1.87  32:  1.54
  33:  1.57  34:  1.58  35:  1.55  36:  1.73  37:  1.76  38:  1.66  39:  1.68  40:  1.95
  41:  1.76  42:  1.93  43:  1.84  44:  1.30  45:  1.52
 IR intensities (km·mol⁻¹)
   1:  1.00   2:  0.07   3:  0.20   4:  0.18   5:  0.13   6:  1.51   7:  0.85   8:  3.47
   9:  0.07  10:  1.02  11:  2.04  12:  8.05  13: 10.50  14: 21.18  15: 10.47  16:  2.07
  17: 10.67  18: 25.89  19: 18.08  20: 31.57  21: 91.59  22:110.09  23: 24.96  24:  7.94
  25: 11.42  26: 21.46  27: 19.06  28: 11.58  29:  8.34  30:  0.20  31:  1.32  32:  0.14
  33:  3.84  34:  2.93  35:  1.10  36:110.93  37: 76.70  38: 64.22  39: 56.00  40: 91.80
  41:  3.11  42: 14.74  43: 75.56  44: 17.23  45: 46.13
 Raman intensities (Ä⁴*amu⁻¹)
   1:  0.00   2:  0.00   3:  0.00   4:  0.00   5:  0.00   6:  0.00   7:  0.00   8:  0.00
   9:  0.00  10:  0.00  11:  0.00  12:  0.00  13:  0.00  14:  0.00  15:  0.00  16:  0.00
  17:  0.00  18:  0.00  19:  0.00  20:  0.00  21:  0.00  22:  0.00  23:  0.00  24:  0.00
  25:  0.00  26:  0.00  27:  0.00  28:  0.00  29:  0.00  30:  0.00  31:  0.00  32:  0.00
  33:  0.00  34:  0.00  35:  0.00  36:  0.00  37:  0.00  38:  0.00  39:  0.00  40:  0.00
  41:  0.00  42:  0.00  43:  0.00  44:  0.00  45:  0.00
 output can be read by thermo (or use thermo option).
 writing <g98.out> molden fake output.
 recommended (thermochemical) frequency scaling factor: 1.0
           -------------------------------------------------
          |             Thermodynamic Functions             |
           -------------------------------------------------

Molecule has no symmetry elements
It seems to be the C1 point group
c1  symmetry found (for desy threshold:  0.10E+00) used in thermo
 inverting freq            1   30.8308843782853     

          ...................................................
          :                      SETUP                      :
          :.................................................:
          :  # frequencies                          39      :
          :  # imaginary freq.                       0      :
          :  linear?                             false      :
          :  only rotor calc.                    false      :
          :  symmetry                               c1      :
          :  rotational number                       1      :
          :  scaling factor                  1.0000000      :
          :  rotor cutoff                    0.0000000 cm⁻¹ :
          :  imag. cutoff                 -100.0000000 cm⁻¹ :
          :.................................................:

    mode    ω/cm⁻¹     T·S(HO)/kcal·mol⁻¹    T·S(FR)/kcal·mol⁻¹   T·S(vib)
   ------------------------------------------------------------------------
       1     30.83    -1.72188 (100.00%)    -1.19858 (  0.00%)    -1.72188
       2    111.00    -0.96939 (100.00%)    -0.81996 (  0.00%)    -0.96939
       3    186.34    -0.67498 (100.00%)    -0.66663 (  0.00%)    -0.67498
       4    235.45    -0.54771 (100.00%)    -0.59738 (  0.00%)    -0.54771
   ------------------------------------------------------------------------

   temp. (K)  partition function   enthalpy   heat capacity  entropy
                                   cal/mol     cal/K/mol   cal/K/mol   J/K/mol
 298.15  VIB   77.2                 2567.103     17.144     17.247
         ROT  0.102E+06              888.752      2.981     25.891
         INT  0.784E+07             3455.855     20.124     43.139
         TR   0.617E+27             1481.254      4.968     38.808
         TOT                        4937.1089    25.0926    81.9466   342.8646

       T/K    H(0)-H(T)+PV         H(T)/Eh          T*S/Eh         G(T)/Eh
   ------------------------------------------------------------------------
    298.15    0.786778E-02    0.141413E+00    0.389355E-01    0.102478E+00
   ------------------------------------------------------------------------

         :::::::::::::::::::::::::::::::::::::::::::::::::::::
         ::                  THERMODYNAMIC                  ::
         :::::::::::::::::::::::::::::::::::::::::::::::::::::
         :: total free energy         -17.621339885826 Eh   ::
         ::.................................................::
         :: total energy              -17.723817853738 Eh   ::
         :: zero point energy           0.133545664875 Eh   ::
         :: G(RRHO) w/o ZPVE           -0.031067696963 Eh   ::
         :: G(RRHO) contrib.            0.102477967912 Eh   ::
         :::::::::::::::::::::::::::::::::::::::::::::::::::::
imag cut-off (cm-1) :    5.00
 found            1  significant imaginary frequency
 writing imag mode distorted coords to xtbhess.coord
 for further optimization.

optimized geometry written to: xtbopt.coord


           -------------------------------------------------
          | TOTAL ENERGY              -17.723817853738 Eh   |
          | TOTAL ENTHALPY            -17.582404405030 Eh   |
          | TOTAL FREE ENERGY         -17.621339885826 Eh   |
          | GRADIENT NORM               0.000025740054 Eh/α |
          | HOMO-LUMO GAP              11.258805172178 eV   |
           -------------------------------------------------

------------------------------------------------------------------------
 * finished run on 2025/04/07 at 02:46:01.916     
------------------------------------------------------------------------
 total:
 * wall-time:     0 d,  0 h,  0 min,  2.068 sec
 *  cpu-time:     0 d,  0 h,  0 min,  1.869 sec
 * ratio c/w:     0.904 speedup
 SCF:
 * wall-time:     0 d,  0 h,  0 min,  0.039 sec
 *  cpu-time:     0 d,  0 h,  0 min,  0.008 sec
 * ratio c/w:     0.194 speedup
 analytical hessian:
 * wall-time:     0 d,  0 h,  0 min,  0.366 sec
 *  cpu-time:     0 d,  0 h,  0 min,  0.360 sec
 * ratio c/w:     0.982 speedup

