      -----------------------------------------------------------      
     |                   =====================                   |     
     |                           x T B                           |     
     |                   =====================                   |     
     |                         S. Grimme                         |     
     |          Mulliken Center for Theoretical Chemistry        |     
     |                    University of Bonn                     |     
      -----------------------------------------------------------      

   * xtb version 6.7.1 (edcfbbe) compiled by 'albert@albert-system' on 2024-07-22

   xtb is free software: you can redistribute it and/or modify it under
   the terms of the GNU Lesser General Public License as published by
   the Free Software Foundation, either version 3 of the License, or
   (at your option) any later version.
   
   xtb is distributed in the hope that it will be useful,
   but WITHOUT ANY WARRANTY; without even the implied warranty of
   MERCHANTABILITY or FITNESS FOR A PARTICULAR PURPOSE.  See the
   GNU Lesser General Public License for more details.
   
   Cite this work as:
   * C. Bannwarth, E. Caldeweyher, S. Ehlert, A. Hansen, P. Pracht,
     J. Seibert, S. Spicher, S. Grimme, WIREs Comput. Mol. Sci., 2020, 11,
     e01493. DOI: 10.1002/wcms.1493
   
   for GFN2-xTB:
   * C. Bannwarth, S. Ehlert and S. Grimme., J. Chem. Theory Comput., 2019,
     15, 1652-1671. DOI: 10.1021/acs.jctc.8b01176
   for GFN1-xTB:
   * S. Grimme, C. Bannwarth, P. Shushkov, J. Chem. Theory Comput., 2017,
     13, 1989-2009. DOI: 10.1021/acs.jctc.7b00118
   for GFN0-xTB:
   * P. Pracht, E. Caldeweyher, S. Ehlert, S. Grimme, ChemRxiv, 2019, preprint.
     DOI: 10.26434/chemrxiv.8326202.v1
   for GFN-FF:
   * S. Spicher and S. Grimme, Angew. Chem. Int. Ed., 2020, 59, 15665-15673.
     DOI: 10.1002/anie.202004239
   
   for ALPB and GBSA implicit solvation:
   * S. Ehlert, M. Stahn, S. Spicher, S. Grimme, J. Chem. Theory Comput.,
     2021, 17, 4250-4261. DOI: 10.1021/acs.jctc.1c00471
   
   for ddCOSMO and CPCM-X implicit solvation:
   * M. Stahn, S. Ehlert, S. Grimme, J. Phys. Chem. A,
     2023, XX, XXXX-XXXX. DOI: 10.1021/acs.jpca.3c04382
   
   for DFT-D4:
   * E. Caldeweyher, C. Bannwarth and S. Grimme, J. Chem. Phys., 2017,
     147, 034112. DOI: 10.1063/1.4993215
   * E. Caldeweyher, S. Ehlert, A. Hansen, H. Neugebauer, S. Spicher,
     C. Bannwarth and S. Grimme, J. Chem. Phys., 2019, 150, 154122.
     DOI: 10.1063/1.5090222
   * E. Caldeweyher, J.-M. Mewes, S. Ehlert and S. Grimme, Phys. Chem. Chem. Phys.
     2020, 22, 8499-8512. DOI: 10.1039/D0CP00502A
   
   for sTDA-xTB:
   * S. Grimme and C. Bannwarth, J. Chem. Phys., 2016, 145, 054103.
     DOI: 10.1063/1.4959605
   
   in the mass-spec context:
   * V. Asgeirsson, C. Bauer and S. Grimme, Chem. Sci., 2017, 8, 4879.
     DOI: 10.1039/c7sc00601b
   * J. Koopman and S. Grimme, ACS Omega 2019, 4, 12, 15120-15133.
     DOI: 10.1021/acsomega.9b02011
   
   for metadynamics refer to:
   * S. Grimme, J. Chem. Theory Comput., 2019, 155, 2847-2862
     DOI: 10.1021/acs.jctc.9b00143
   
   for SPH calculations refer to:
   * S. Spicher and S. Grimme, J. Chem. Theory Comput., 2021, 17, 1701-1714
     DOI: 10.1021/acs.jctc.0c01306
   
   for ONIOM refer to:
   * C. Plett, A. Katbashev, S. Ehlert, S. Grimme, M. Bursch,
     Phys. Chem. Chem. Phys., 2023, 25, 17860-17868. DOI: 10.1039/D3CP02178E
   
   for DIPRO refer to:
   * J. Kohn, N. Gildemeister, S. Grimme, D. Fazzi, A. Hansen,
     J. Chem. Phys., 2023, just accepted.
   
   for PTB refer to:
   * S. Grimme, M. Mueller, A. Hansen, J. Chem. Phys., 2023, 158, 124111.
     DOI: 10.1063/5.0137838
   
   with help from (in alphabetical order)
   P. Atkinson, C. Bannwarth, F. Bohle, G. Brandenburg, E. Caldeweyher
   M. Checinski, S. Dohm, S. Ehlert, S. Ehrlich, I. Gerasimov, C. Hölzer
   A. Katbashev, J. Kohn, J. Koopman, C. Lavigne, S. Lehtola, F. März, M. Müller,
   F. Musil, H. Neugebauer, J. Pisarek, C. Plett, P. Pracht, F. Pultar,
   J. Seibert, P. Shushkov, S. Spicher, M. Stahn, M. Steiner, T. Strunk,
   J. Stückrath, T. Rose, and J. Unsleber
   
 * started run on 2025/04/06 at 22:31:19.665     
   ID    Z sym.   atoms
    1    6 C      1-4
    2    8 O      5
    3    1 H      6-15

           -------------------------------------------------
          |                Calculation Setup                |
           -------------------------------------------------

          program call               : /srv/scratch/z5358697/.xtb/bin/xtb gas.coord --gfn2 --sp --chrg 0 --norestart --parallel 1
          hostname                   : k159
          coordinate file            : gas.coord
          omp threads                :                     1


           -------------------------------------------------
          |                 G F N 2 - x T B                 |
           -------------------------------------------------

        Reference                      10.1021/acs.jctc.8b01176
      * Hamiltonian:
        H0-scaling (s, p, d)           1.850000    2.230000    2.230000
        zeta-weighting                 0.500000
      * Dispersion:
        s8                             2.700000
        a1                             0.520000
        a2                             5.000000
        s9                             5.000000
      * Repulsion:
        kExp                           1.500000    1.000000
        rExp                           1.000000
      * Coulomb:
        alpha                          2.000000
        third order                    shell-resolved
        anisotropic                    true
        a3                             3.000000
        a5                             4.000000
        cn-shift                       1.200000
        cn-exp                         4.000000
        max-rad                        5.000000


          ...................................................
          :                      SETUP                      :
          :.................................................:
          :  # basis functions                  30          :
          :  # atomic orbitals                  30          :
          :  # shells                           20          :
          :  # electrons                        32          :
          :  max. iterations                   250          :
          :  Hamiltonian                  GFN2-xTB          :
          :  restarted?                      false          :
          :  GBSA solvation                  false          :
          :  PC potential                    false          :
          :  electronic temp.          300.0000000     K    :
          :  accuracy                    1.0000000          :
          :  -> integral cutoff          0.2500000E+02      :
          :  -> integral neglect         0.1000000E-07      :
          :  -> SCF convergence          0.1000000E-05 Eh   :
          :  -> wf. convergence          0.1000000E-03 e    :
          :  Broyden damping             0.4000000          :
          :  net charge                          0          :
          :  unpaired electrons                  0          :
          ...................................................

 iter      E             dE          RMSdq      gap      omega  full diag
   1    -17.9010388 -0.179010E+02  0.317E+00   12.83       0.0  T
   2    -17.9352309 -0.341921E-01  0.166E+00   12.53       1.0  T
   3    -17.9358212 -0.590311E-03  0.737E-01   12.60       1.0  T
   4    -17.9359758 -0.154524E-03  0.104E-01   12.60       1.0  T
   5    -17.9359926 -0.168121E-04  0.583E-02   12.61       1.0  T
   6    -17.9359939 -0.129539E-05  0.876E-03   12.61       2.9  T
   7    -17.9359941 -0.171678E-06  0.432E-03   12.61       6.0  T
   8    -17.9359941 -0.156687E-07  0.110E-03   12.61      23.5  T
   9    -17.9359941 -0.104809E-08  0.329E-04   12.61      78.6  T
  10    -17.9359941 -0.218378E-09  0.679E-05   12.61     380.4  T

   *** convergence criteria satisfied after 10 iterations ***

         #    Occupation            Energy/Eh            Energy/eV
      -------------------------------------------------------------
         1        2.0000           -0.6835000             -18.5990
       ...           ...                  ...                  ...
        10        2.0000           -0.4847826             -13.1916
        11        2.0000           -0.4741448             -12.9021
        12        2.0000           -0.4533005             -12.3349
        13        2.0000           -0.4409971             -12.0001
        14        2.0000           -0.4360028             -11.8642
        15        2.0000           -0.4244200             -11.5491
        16        2.0000           -0.4070106             -11.0753 (HOMO)
        17                          0.0565469               1.5387 (LUMO)
        18                          0.0884000               2.4055
        19                          0.1023936               2.7863
        20                          0.1257460               3.4217
        21                          0.1373612               3.7378
       ...                                ...                  ...
        30                          0.3032425               8.2516
      -------------------------------------------------------------
                  HL-Gap            0.4635575 Eh           12.6140 eV
             Fermi-level           -0.1752319 Eh           -4.7683 eV

 SCC (total)                   0 d,  0 h,  0 min,  0.012 sec
 SCC setup                      ...        0 min,  0.000 sec (  0.944%)
 Dispersion                     ...        0 min,  0.000 sec (  0.422%)
 classical contributions        ...        0 min,  0.000 sec (  0.102%)
 integral evaluation            ...        0 min,  0.001 sec (  5.950%)
 iterations                     ...        0 min,  0.009 sec ( 76.641%)
 molecular gradient             ...        0 min,  0.002 sec ( 15.080%)
 printout                       ...        0 min,  0.000 sec (  0.756%)

         :::::::::::::::::::::::::::::::::::::::::::::::::::::
         ::                     SUMMARY                     ::
         :::::::::::::::::::::::::::::::::::::::::::::::::::::
         :: total energy             -17.722032915280 Eh    ::
         :: gradient norm              0.005553302967 Eh/a0 ::
         :: HOMO-LUMO gap             12.614042338824 eV    ::
         ::.................................................::
         :: SCC energy               -17.935981953208 Eh    ::
         :: -> isotropic ES            0.026519417077 Eh    ::
         :: -> anisotropic ES          0.004197100783 Eh    ::
         :: -> anisotropic XC          0.005877909402 Eh    ::
         :: -> dispersion             -0.007316641019 Eh    ::
         :: repulsion energy           0.213949037928 Eh    ::
         :: add. restraining           0.000000000000 Eh    ::
         :: total charge               0.000000000000 e     ::
         :::::::::::::::::::::::::::::::::::::::::::::::::::::

           -------------------------------------------------
          |                Property Printout                |
           -------------------------------------------------

    * Orbital Energies and Occupations

         #    Occupation            Energy/Eh            Energy/eV
      -------------------------------------------------------------
         1        2.0000           -0.6835000             -18.5990
       ...           ...                  ...                  ...
         4        2.0000           -0.5923043             -16.1174
         5        2.0000           -0.5672815             -15.4365
         6        2.0000           -0.5435423             -14.7905
         7        2.0000           -0.5272839             -14.3481
         8        2.0000           -0.5233603             -14.2414
         9        2.0000           -0.4956578             -13.4875
        10        2.0000           -0.4847826             -13.1916
        11        2.0000           -0.4741448             -12.9021
        12        2.0000           -0.4533005             -12.3349
        13        2.0000           -0.4409971             -12.0001
        14        2.0000           -0.4360028             -11.8642
        15        2.0000           -0.4244200             -11.5491
        16        2.0000           -0.4070106             -11.0753 (HOMO)
        17                          0.0565469               1.5387 (LUMO)
        18                          0.0884000               2.4055
        19                          0.1023936               2.7863
        20                          0.1257460               3.4217
        21                          0.1373612               3.7378
        22                          0.1523857               4.1466
        23                          0.1561125               4.2480
        24                          0.1774230               4.8279
        25                          0.2037576               5.5445
        26                          0.2242553               6.1023
        27                          0.2454464               6.6789
       ...                                ...                  ...
        30                          0.3032425               8.2516
      -------------------------------------------------------------
                  HL-Gap            0.4635575 Eh           12.6140 eV
             Fermi-level           -0.1752319 Eh           -4.7683 eV

     #   Z          covCN         q      C6AA      α(0)
     1   6 C        3.752    -0.104    22.545     6.771
     2   6 C        3.800    -0.054    21.540     6.608
     3   6 C        3.800    -0.069    21.819     6.651
     4   6 C        3.674     0.080    19.471     6.323
     5   8 O        1.654    -0.442    21.679     6.285
     6   1 H        0.925     0.038     2.479     2.462
     7   1 H        0.925     0.035     2.522     2.483
     8   1 H        0.925     0.032     2.559     2.502
     9   1 H        0.924     0.028     2.611     2.527
    10   1 H        0.924     0.046     2.366     2.405
    11   1 H        0.924     0.035     2.520     2.482
    12   1 H        0.924     0.028     2.609     2.526
    13   1 H        0.924     0.050     2.316     2.380
    14   1 H        0.923     0.013     2.844     2.637
    15   1 H        0.805     0.283     0.775     1.382

 Mol. C6AA /au·bohr⁶  :       1463.036437
 Mol. C8AA /au·bohr⁸  :      29856.509296
 Mol. α(0) /au        :         56.425825


Wiberg/Mayer (AO) data.
largest (>0.10) Wiberg bond orders for each atom

 ---------------------------------------------------------------------------
     #   Z sym  total        # sym  WBO       # sym  WBO       # sym  WBO
 ---------------------------------------------------------------------------
     1   6 C    3.997 --     2 C    1.021     8 H    0.988     7 H    0.987
                             6 H    0.986
     2   6 C    3.997 --     1 C    1.021     3 C    1.007     9 H    0.979
                            10 H    0.976
     3   6 C    3.997 --     2 C    1.007     4 C    0.999    12 H    0.976
                            11 H    0.975
     4   6 C    3.956 --     3 C    0.999     5 O    0.998    14 H    0.971
                            13 H    0.970
     5   8 O    1.961 --     4 C    0.998    15 H    0.905
     6   1 H    0.999 --     1 C    0.986
     7   1 H    0.999 --     1 C    0.987
     8   1 H    0.999 --     1 C    0.988
     9   1 H    0.999 --     2 C    0.979
    10   1 H    0.998 --     2 C    0.976
    11   1 H    0.999 --     3 C    0.975
    12   1 H    0.999 --     3 C    0.976
    13   1 H    0.997 --     4 C    0.970
    14   1 H    1.000 --     4 C    0.971
    15   1 H    0.920 --     5 O    0.905
 ---------------------------------------------------------------------------

Topologies differ in total number of bonds
Writing topology from bond orders to xtbtopo.mol

molecular dipole:
                 x           y           z       tot (Debye)
 q only:        0.145       0.438       0.217
   full:        0.107       0.654       0.314       1.863
molecular quadrupole (traceless):
                xx          xy          yy          xz          yz          zz
 q only:       -0.256      -3.021       0.062      -0.512      -1.382       0.194
  q+dip:       -0.322      -4.152       0.526      -1.191      -1.776      -0.204
   full:       -0.252      -4.309       0.349      -0.904      -1.842      -0.097


           -------------------------------------------------
          | TOTAL ENERGY              -17.722032915280 Eh   |
          | GRADIENT NORM               0.005553302967 Eh/α |
          | HOMO-LUMO GAP              12.614042338824 eV   |
           -------------------------------------------------

------------------------------------------------------------------------
 * finished run on 2025/04/06 at 22:31:19.701     
------------------------------------------------------------------------
 total:
 * wall-time:     0 d,  0 h,  0 min,  0.036 sec
 *  cpu-time:     0 d,  0 h,  0 min,  0.011 sec
 * ratio c/w:     0.319 speedup
 SCF:
 * wall-time:     0 d,  0 h,  0 min,  0.012 sec
 *  cpu-time:     0 d,  0 h,  0 min,  0.006 sec
 * ratio c/w:     0.495 speedup

