      -----------------------------------------------------------      
     |                   =====================                   |     
     |                           x T B                           |     
     |                   =====================                   |     
     |                         S. Grimme                         |     
     |          Mulliken Center for Theoretical Chemistry        |     
     |                    University of Bonn                     |     
      -----------------------------------------------------------      

   * xtb version 6.7.1 (edcfbbe) compiled by 'albert@albert-system' on 2024-07-22

   xtb is free software: you can redistribute it and/or modify it under
   the terms of the GNU Lesser General Public License as published by
   the Free Software Foundation, either version 3 of the License, or
   (at your option) any later version.
   
   xtb is distributed in the hope that it will be useful,
   but WITHOUT ANY WARRANTY; without even the implied warranty of
   MERCHANTABILITY or FITNESS FOR A PARTICULAR PURPOSE.  See the
   GNU Lesser General Public License for more details.
   
   Cite this work as:
   * C. Bannwarth, E. Caldeweyher, S. Ehlert, A. Hansen, P. Pracht,
     J. Seibert, S. Spicher, S. Grimme, WIREs Comput. Mol. Sci., 2020, 11,
     e01493. DOI: 10.1002/wcms.1493
   
   for GFN2-xTB:
   * C. Bannwarth, S. Ehlert and S. Grimme., J. Chem. Theory Comput., 2019,
     15, 1652-1671. DOI: 10.1021/acs.jctc.8b01176
   for GFN1-xTB:
   * S. Grimme, C. Bannwarth, P. Shushkov, J. Chem. Theory Comput., 2017,
     13, 1989-2009. DOI: 10.1021/acs.jctc.7b00118
   for GFN0-xTB:
   * P. Pracht, E. Caldeweyher, S. Ehlert, S. Grimme, ChemRxiv, 2019, preprint.
     DOI: 10.26434/chemrxiv.8326202.v1
   for GFN-FF:
   * S. Spicher and S. Grimme, Angew. Chem. Int. Ed., 2020, 59, 15665-15673.
     DOI: 10.1002/anie.202004239
   
   for ALPB and GBSA implicit solvation:
   * S. Ehlert, M. Stahn, S. Spicher, S. Grimme, J. Chem. Theory Comput.,
     2021, 17, 4250-4261. DOI: 10.1021/acs.jctc.1c00471
   
   for ddCOSMO and CPCM-X implicit solvation:
   * M. Stahn, S. Ehlert, S. Grimme, J. Phys. Chem. A,
     2023, XX, XXXX-XXXX. DOI: 10.1021/acs.jpca.3c04382
   
   for DFT-D4:
   * E. Caldeweyher, C. Bannwarth and S. Grimme, J. Chem. Phys., 2017,
     147, 034112. DOI: 10.1063/1.4993215
   * E. Caldeweyher, S. Ehlert, A. Hansen, H. Neugebauer, S. Spicher,
     C. Bannwarth and S. Grimme, J. Chem. Phys., 2019, 150, 154122.
     DOI: 10.1063/1.5090222
   * E. Caldeweyher, J.-M. Mewes, S. Ehlert and S. Grimme, Phys. Chem. Chem. Phys.
     2020, 22, 8499-8512. DOI: 10.1039/D0CP00502A
   
   for sTDA-xTB:
   * S. Grimme and C. Bannwarth, J. Chem. Phys., 2016, 145, 054103.
     DOI: 10.1063/1.4959605
   
   in the mass-spec context:
   * V. Asgeirsson, C. Bauer and S. Grimme, Chem. Sci., 2017, 8, 4879.
     DOI: 10.1039/c7sc00601b
   * J. Koopman and S. Grimme, ACS Omega 2019, 4, 12, 15120-15133.
     DOI: 10.1021/acsomega.9b02011
   
   for metadynamics refer to:
   * S. Grimme, J. Chem. Theory Comput., 2019, 155, 2847-2862
     DOI: 10.1021/acs.jctc.9b00143
   
   for SPH calculations refer to:
   * S. Spicher and S. Grimme, J. Chem. Theory Comput., 2021, 17, 1701-1714
     DOI: 10.1021/acs.jctc.0c01306
   
   for ONIOM refer to:
   * C. Plett, A. Katbashev, S. Ehlert, S. Grimme, M. Bursch,
     Phys. Chem. Chem. Phys., 2023, 25, 17860-17868. DOI: 10.1039/D3CP02178E
   
   for DIPRO refer to:
   * J. Kohn, N. Gildemeister, S. Grimme, D. Fazzi, A. Hansen,
     J. Chem. Phys., 2023, just accepted.
   
   for PTB refer to:
   * S. Grimme, M. Mueller, A. Hansen, J. Chem. Phys., 2023, 158, 124111.
     DOI: 10.1063/5.0137838
   
   with help from (in alphabetical order)
   P. Atkinson, C. Bannwarth, F. Bohle, G. Brandenburg, E. Caldeweyher
   M. Checinski, S. Dohm, S. Ehlert, S. Ehrlich, I. Gerasimov, C. Hölzer
   A. Katbashev, J. Kohn, J. Koopman, C. Lavigne, S. Lehtola, F. März, M. Müller,
   F. Musil, H. Neugebauer, J. Pisarek, C. Plett, P. Pracht, F. Pultar,
   J. Seibert, P. Shushkov, S. Spicher, M. Stahn, M. Steiner, T. Strunk,
   J. Stückrath, T. Rose, and J. Unsleber
   
 * started run on 2025/04/07 at 02:42:52.335     
   ID    Z sym.   atoms
    1    6 C      1, 2, 4, 5
    2    8 O      3
    3    1 H      6-15

           -------------------------------------------------
          |                Calculation Setup                |
           -------------------------------------------------

          program call               : /srv/scratch/z5358697/.xtb/bin/xtb gas.coord --gfn2 --sp --chrg 0 --norestart --parallel 1
          hostname                   : k140
          coordinate file            : gas.coord
          omp threads                :                     1


           -------------------------------------------------
          |                 G F N 2 - x T B                 |
           -------------------------------------------------

        Reference                      10.1021/acs.jctc.8b01176
      * Hamiltonian:
        H0-scaling (s, p, d)           1.850000    2.230000    2.230000
        zeta-weighting                 0.500000
      * Dispersion:
        s8                             2.700000
        a1                             0.520000
        a2                             5.000000
        s9                             5.000000
      * Repulsion:
        kExp                           1.500000    1.000000
        rExp                           1.000000
      * Coulomb:
        alpha                          2.000000
        third order                    shell-resolved
        anisotropic                    true
        a3                             3.000000
        a5                             4.000000
        cn-shift                       1.200000
        cn-exp                         4.000000
        max-rad                        5.000000


          ...................................................
          :                      SETUP                      :
          :.................................................:
          :  # basis functions                  30          :
          :  # atomic orbitals                  30          :
          :  # shells                           20          :
          :  # electrons                        32          :
          :  max. iterations                   250          :
          :  Hamiltonian                  GFN2-xTB          :
          :  restarted?                      false          :
          :  GBSA solvation                  false          :
          :  PC potential                    false          :
          :  electronic temp.          300.0000000     K    :
          :  accuracy                    1.0000000          :
          :  -> integral cutoff          0.2500000E+02      :
          :  -> integral neglect         0.1000000E-07      :
          :  -> SCF convergence          0.1000000E-05 Eh   :
          :  -> wf. convergence          0.1000000E-03 e    :
          :  Broyden damping             0.4000000          :
          :  net charge                          0          :
          :  unpaired electrons                  0          :
          ...................................................

 iter      E             dE          RMSdq      gap      omega  full diag
   1    -17.8814517 -0.178815E+02  0.349E+00   11.73       0.0  T
   2    -17.9290633 -0.476115E-01  0.172E+00   11.28       1.0  T
   3    -17.9296386 -0.575322E-03  0.818E-01   11.40       1.0  T
   4    -17.9298315 -0.192902E-03  0.113E-01   11.42       1.0  T
   5    -17.9298591 -0.275869E-04  0.626E-02   11.44       1.0  T
   6    -17.9298598 -0.721941E-06  0.518E-03   11.44       5.0  T
   7    -17.9298598 -0.181610E-07  0.224E-03   11.44      11.5  T
   8    -17.9298598 -0.362135E-08  0.475E-04   11.44      54.4  T
   9    -17.9298598 -0.210385E-09  0.554E-05   11.44     465.8  T

   *** convergence criteria satisfied after 9 iterations ***

         #    Occupation            Energy/Eh            Energy/eV
      -------------------------------------------------------------
         1        2.0000           -0.6874998             -18.7078
       ...           ...                  ...                  ...
        10        2.0000           -0.4948634             -13.4659
        11        2.0000           -0.4702388             -12.7959
        12        2.0000           -0.4639793             -12.6255
        13        2.0000           -0.4628316             -12.5943
        14        2.0000           -0.4446251             -12.0989
        15        2.0000           -0.4246426             -11.5551
        16        2.0000           -0.3937596             -10.7147 (HOMO)
        17                          0.0268251               0.7299 (LUMO)
        18                          0.0913134               2.4848
        19                          0.1180573               3.2125
        20                          0.1204994               3.2790
        21                          0.1225407               3.3345
       ...                                ...                  ...
        30                          0.2974161               8.0931
      -------------------------------------------------------------
                  HL-Gap            0.4205848 Eh           11.4447 eV
             Fermi-level           -0.1834673 Eh           -4.9924 eV

 SCC (total)                   0 d,  0 h,  0 min,  0.020 sec
 SCC setup                      ...        0 min,  0.000 sec (  0.594%)
 Dispersion                     ...        0 min,  0.000 sec (  0.262%)
 classical contributions        ...        0 min,  0.000 sec (  0.065%)
 integral evaluation            ...        0 min,  0.001 sec (  3.457%)
 iterations                     ...        0 min,  0.017 sec ( 86.252%)
 molecular gradient             ...        0 min,  0.002 sec (  8.850%)
 printout                       ...        0 min,  0.000 sec (  0.459%)

         :::::::::::::::::::::::::::::::::::::::::::::::::::::
         ::                     SUMMARY                     ::
         :::::::::::::::::::::::::::::::::::::::::::::::::::::
         :: total energy             -17.720063460319 Eh    ::
         :: gradient norm              0.008964870852 Eh/a0 ::
         :: HOMO-LUMO gap             11.444693922256 eV    ::
         ::.................................................::
         :: SCC energy               -17.929849129314 Eh    ::
         :: -> isotropic ES            0.021353096486 Eh    ::
         :: -> anisotropic ES          0.004112016746 Eh    ::
         :: -> anisotropic XC          0.005847852255 Eh    ::
         :: -> dispersion             -0.007158151091 Eh    ::
         :: repulsion energy           0.209785668995 Eh    ::
         :: add. restraining           0.000000000000 Eh    ::
         :: total charge               0.000000000000 e     ::
         :::::::::::::::::::::::::::::::::::::::::::::::::::::

           -------------------------------------------------
          |                Property Printout                |
           -------------------------------------------------

    * Orbital Energies and Occupations

         #    Occupation            Energy/Eh            Energy/eV
      -------------------------------------------------------------
         1        2.0000           -0.6874998             -18.7078
       ...           ...                  ...                  ...
         4        2.0000           -0.5965171             -16.2321
         5        2.0000           -0.5663560             -15.4113
         6        2.0000           -0.5465032             -14.8711
         7        2.0000           -0.5429080             -14.7733
         8        2.0000           -0.5142047             -13.9922
         9        2.0000           -0.4953561             -13.4793
        10        2.0000           -0.4948634             -13.4659
        11        2.0000           -0.4702388             -12.7959
        12        2.0000           -0.4639793             -12.6255
        13        2.0000           -0.4628316             -12.5943
        14        2.0000           -0.4446251             -12.0989
        15        2.0000           -0.4246426             -11.5551
        16        2.0000           -0.3937596             -10.7147 (HOMO)
        17                          0.0268251               0.7299 (LUMO)
        18                          0.0913134               2.4848
        19                          0.1180573               3.2125
        20                          0.1204994               3.2790
        21                          0.1225407               3.3345
        22                          0.1489770               4.0539
        23                          0.1675191               4.5584
        24                          0.1949335               5.3044
        25                          0.1980984               5.3905
        26                          0.2016253               5.4865
        27                          0.2425028               6.5988
       ...                                ...                  ...
        30                          0.2974161               8.0931
      -------------------------------------------------------------
                  HL-Gap            0.4205848 Eh           11.4447 eV
             Fermi-level           -0.1834673 Eh           -4.9924 eV

     #   Z          covCN         q      C6AA      α(0)
     1   6 C        3.750    -0.114    22.742     6.801
     2   6 C        3.686     0.082    19.411     6.307
     3   8 O        1.698    -0.330    19.521     5.965
     4   6 C        3.686     0.082    19.411     6.307
     5   6 C        3.750    -0.114    22.742     6.801
     6   1 H        0.925     0.049     2.327     2.385
     7   1 H        0.925     0.039     2.461     2.453
     8   1 H        0.925     0.039     2.461     2.453
     9   1 H        0.924     0.047     2.360     2.402
    10   1 H        0.924     0.023     2.695     2.567
    11   1 H        0.924     0.047     2.360     2.402
    12   1 H        0.924     0.023     2.695     2.567
    13   1 H        0.925     0.049     2.327     2.385
    14   1 H        0.925     0.039     2.461     2.453
    15   1 H        0.925     0.039     2.460     2.453

 Mol. C6AA /au·bohr⁶  :       1471.731834
 Mol. C8AA /au·bohr⁸  :      29828.007074
 Mol. α(0) /au        :         56.704388


Wiberg/Mayer (AO) data.
largest (>0.10) Wiberg bond orders for each atom

 ---------------------------------------------------------------------------
     #   Z sym  total        # sym  WBO       # sym  WBO       # sym  WBO
 ---------------------------------------------------------------------------
     1   6 C    3.996 --     2 C    1.009     6 H    0.987     7 H    0.986
                             8 H    0.985
     2   6 C    3.957 --     1 C    1.009     3 O    0.983     9 H    0.972
                            10 H    0.969
     3   8 O    2.068 --     2 C    0.983     4 C    0.983
     4   6 C    3.957 --     5 C    1.009     3 O    0.983    11 H    0.972
                            12 H    0.969
     5   6 C    3.996 --     4 C    1.009    13 H    0.987    14 H    0.986
                            15 H    0.985
     6   1 H    0.998 --     1 C    0.987
     7   1 H    0.998 --     1 C    0.986
     8   1 H    0.998 --     1 C    0.985
     9   1 H    0.998 --     2 C    0.972
    10   1 H    0.999 --     2 C    0.969
    11   1 H    0.998 --     4 C    0.972
    12   1 H    0.999 --     4 C    0.969
    13   1 H    0.998 --     5 C    0.987
    14   1 H    0.998 --     5 C    0.986
    15   1 H    0.998 --     5 C    0.985
 ---------------------------------------------------------------------------

Topologies differ in total number of bonds
Writing topology from bond orders to xtbtopo.mol

molecular dipole:
                 x           y           z       tot (Debye)
 q only:        0.000       0.478      -0.000
   full:        0.000       0.655      -0.000       1.666
molecular quadrupole (traceless):
                xx          xy          yy          xz          yz          zz
 q only:        2.331      -0.000      -2.363      -0.945       0.001       0.032
  q+dip:        1.657      -0.000      -2.168      -0.794       0.001       0.510
   full:        2.112      -0.000      -2.490      -1.067       0.001       0.378


           -------------------------------------------------
          | TOTAL ENERGY              -17.720063460319 Eh   |
          | GRADIENT NORM               0.008964870852 Eh/α |
          | HOMO-LUMO GAP              11.444693922256 eV   |
           -------------------------------------------------

------------------------------------------------------------------------
 * finished run on 2025/04/07 at 02:42:52.415     
------------------------------------------------------------------------
 total:
 * wall-time:     0 d,  0 h,  0 min,  0.079 sec
 *  cpu-time:     0 d,  0 h,  0 min,  0.023 sec
 * ratio c/w:     0.291 speedup
 SCF:
 * wall-time:     0 d,  0 h,  0 min,  0.020 sec
 *  cpu-time:     0 d,  0 h,  0 min,  0.006 sec
 * ratio c/w:     0.308 speedup

