! r2scan-3c def2/J RI DEFGRID2 scfconv6 printgap
%output
    printlevel normal
end
* xyz 0 1
C 2.3936837248 0.0551607497 -0.0002022181
C 0.9033362565 0.0146528244 0.0007963477
C 0.1324435304 1.1815640361 0.0001419691
N -1.1891024027 1.1565898736 -0.0002178968
C -1.7694411426 -0.0387342603 -7.25594e-05
C -1.0165785997 -1.2025804245 -0.0002053331
N 0.3093098107 -1.1755539709 0.0002508327
H 2.7520668876 0.6166601576 0.8596791484
H 2.786953178 -0.9555783658 0.0344938947
H 2.750899898 0.552467262 -0.8995682206
H 0.591346107 2.1604599639 0.0001919836
H -2.8492495642 -0.0484620933 0.000214989
H -1.4734543666 -2.1819260408 -0.000929522
*
