! r2scan-3c def2/J RI DEFGRID2 scfconv6 printgap
%output
    printlevel normal
end
%cpcm
    smd true
    smdsolvent "water"
end
* xyz 0 1
C -2.6300356644 1.3509965997 0.5074018253
C -1.9368104995 0.2662783816 -0.3120791501
C -0.4413541774 0.224698652 -0.1386513276
C 0.3271027034 1.3709296081 -0.0092785326
C 1.7023501925 1.3086007343 0.1423210427
C 2.3352912265 0.0800617647 0.1650320257
C 1.5914087682 -1.0785920795 0.031217328
C 0.2128526597 -1.0141286254 -0.1233544486
O -0.5382844324 -2.1453774 -0.2637659805
H -2.3813171483 2.3438845593 0.1426765172
H -2.3377839087 1.2821518096 1.5527335506
H -3.7082510917 1.2283218101 0.4404360559
H -2.1628675978 0.4139392759 -1.3726807774
H -2.3354932321 -0.7102583548 -0.0307862765
H -0.15635108 2.3348366521 -0.0281092205
H 2.2752031503 2.2178252466 0.2418416489
H 3.4062691194 0.0179170469 0.284358727
H 2.083688623 -2.040951315 0.0459069906
H 0.0284783037 -2.929502772 -0.2188282735
*
