! wb97x-v def2-tzvp def2/J RIJCOSX DEFGRID2 scfconv7 GCP(DFT/TZ) printgap
%output
    printlevel normal
end
* xyz 0 1
C 2.7653319894500705 -0.012784427885557717 0.7306707494743707
C 1.9732974212937173 -0.018828025970429974 -0.5819625994554164
C 0.4922346519242735 0.021301114176371854 -0.32966075941638473
C -0.1994214051632637 1.2233028134124977 -0.1774079294818807
C -1.5589754549508739 1.1955853096727376 0.10860979646361474
C -2.189811202021379 -0.03544389146673452 0.237274385417225
N -1.5518412568276967 -1.207023892294012 0.09446322360873435
C -0.24110974561501242 -1.1573177276883904 -0.18217854889054017
H 2.505114400866775 -0.8822741409047145 1.3434622408898353
H 2.546077425682261 0.8888512951402198 1.312024629524407
H 3.8416358940586806 -0.04100264243845273 0.5347330136724728
H 2.2214616882170963 -0.9192972147426653 -1.1543387927503628
H 2.262057100920202 0.846493047667604 -1.1882122752462094
H 0.32408446899098936 2.1694844178662125 -0.28563184936045677
H -2.1252102140052167 2.1132358482664313 0.2281864503882486
H -3.2525857887474645 -0.08625479431436137 0.46283632187566887
H 0.2617816542085531 -2.116628797637868 -0.29997059797726777
*
