15
 xtb: 6.7.1 (edcfbbe)
C            1.66949289204345        0.73788928112941       -0.48825284483617
C            1.25913019525439       -0.59641540605117        0.10923196836953
O           -0.03226490660124       -0.57404253516075        0.73834183426122
C           -1.13692936902153       -0.44354098708530       -0.17963221644434
C           -1.79191432945851        0.92096283204959       -0.07631881258681
H            2.68907894186837        0.66026318723334       -0.88141964717526
H            1.01426687492954        1.03128448229189       -1.31403025294063
H            1.65359709587516        1.52575003596936        0.27171773713760
H            1.95778744754999       -0.88552842194158        0.90133015073644
H            1.27766107793436       -1.38340580131303       -0.65975085418856
H           -0.79565662125237       -0.63874934509264       -1.20451005684527
H           -1.86169974156740       -1.22521061553984        0.08130826839986
H           -2.65800319798648        0.96780994534832       -0.74584120583911
H           -2.14297702460119        1.10342538742610        0.94436665004098
H           -1.09839026786390        1.72009770410631       -0.35337632570792
