! pbe def2-sv(p) def2/J RI DEFGRID1 loosescf d4 GCP(DFT/SV(P)) printgap
%output
    printlevel normal
end
* xyz 0 1
C -1.9574311213 -0.6114983056 -0.8007112961
C -1.1842984427 -0.1334093968 0.4369941186
H -1.895470998 -0.1176220142 1.2715827937
C -0.6136466408 1.2867440871 0.2705544763
H -1.3405587995 1.8986610765 -0.2731302803
C 0.7197724696 1.3028535394 -0.5143576284
H 1.1284952956 2.3179420816 -0.4174691888
C 1.6988206268 0.2946254777 0.1106503607
H 2.5647037337 0.1791705124 -0.5555601536
C 1.0300922782 -1.0879903387 0.2153043236
H 1.6571214918 -1.7189925889 0.8632473778
O -0.199520509 -1.0667168159 0.8799859577
O 0.9486356254 -1.6145533875 -1.0787595181
O 2.0949816089 0.6652393723 1.4082124783
O 0.5525650823 1.0781482057 -1.8909727841
O -0.4496294713 1.9120116809 1.5202882512
O -2.665635234 -1.7821837138 -0.4536365192
H -1.2750367832 -0.8061015663 -1.6333121741
H -2.6492979238 0.1895722764 -1.0883243846
H 0.6401888541 -2.5328008548 -1.0396116597
H 2.7210903465 1.4026369683 1.3611192969
H 0.6259953931 0.1256233349 -2.0667862253
H 0.221185014 1.4189941385 2.0241706764
H -3.2105212253 -2.0585176667 -1.2039078408
*
