! r2scan-3c def2/J RI DEFGRID2 scfconv6 printgap
%output
    printlevel normal
end
%cpcm
    smd true
    smdsolvent "water"
end
* xyz 0 1
C -3.4250743753 0.633206572 0.1336953183
C -1.9314648648 0.4981204982 0.0844809953
C -1.1346612476 1.4988422404 -0.265330626
C 0.3573657856 1.4246496584 -0.3221190279
C 0.8556642699 -0.0247550709 -0.2819108015
H 0.5859036866 -0.5036292655 -1.2290382937
C 0.1065177282 -0.7665368108 0.8259380434
C -1.3750679095 -0.8586460895 0.4620242699
H -1.9341304285 -1.2430540999 1.3331917667
O -1.4970403505 -1.7998475057 -0.6010823782
C 2.354964995 -0.0775178565 -0.1286357051
C 3.1363971172 -0.3336259585 -1.1667457175
C 2.9190914501 0.18581772 1.2347078351
H -3.9025372863 -0.039466112 -0.5779384742
H -3.725058297 1.64980306 -0.1044203533
H -3.7923701204 0.3815244921 1.1280824024
H -1.5627181303 2.4608287761 -0.5168930396
H 0.715431649 1.9135110311 -1.2312404427
H 0.7648549784 1.9853082315 0.5253530352
H 0.4981592672 -1.7792942499 0.9320586159
H 0.2028944039 -0.2407043978 1.7755271828
H -2.4194459309 -1.8393223674 -0.8839870708
H 4.2100935706 -0.3544854867 -1.0818535511
H 2.7343888531 -0.5365698079 -2.1452550849
H 2.4915524333 1.0884685579 1.6657683645
H 2.6884683455 -0.6438522287 1.9010052413
H 3.998685975 0.2982612247 1.185862783
*
