      -----------------------------------------------------------      
     |                   =====================                   |     
     |                           x T B                           |     
     |                   =====================                   |     
     |                         S. Grimme                         |     
     |          Mulliken Center for Theoretical Chemistry        |     
     |                    University of Bonn                     |     
      -----------------------------------------------------------      

   * xtb version 6.7.1 (edcfbbe) compiled by 'albert@albert-system' on 2024-07-22

   xtb is free software: you can redistribute it and/or modify it under
   the terms of the GNU Lesser General Public License as published by
   the Free Software Foundation, either version 3 of the License, or
   (at your option) any later version.
   
   xtb is distributed in the hope that it will be useful,
   but WITHOUT ANY WARRANTY; without even the implied warranty of
   MERCHANTABILITY or FITNESS FOR A PARTICULAR PURPOSE.  See the
   GNU Lesser General Public License for more details.
   
   Cite this work as:
   * C. Bannwarth, E. Caldeweyher, S. Ehlert, A. Hansen, P. Pracht,
     J. Seibert, S. Spicher, S. Grimme, WIREs Comput. Mol. Sci., 2020, 11,
     e01493. DOI: 10.1002/wcms.1493
   
   for GFN2-xTB:
   * C. Bannwarth, S. Ehlert and S. Grimme., J. Chem. Theory Comput., 2019,
     15, 1652-1671. DOI: 10.1021/acs.jctc.8b01176
   for GFN1-xTB:
   * S. Grimme, C. Bannwarth, P. Shushkov, J. Chem. Theory Comput., 2017,
     13, 1989-2009. DOI: 10.1021/acs.jctc.7b00118
   for GFN0-xTB:
   * P. Pracht, E. Caldeweyher, S. Ehlert, S. Grimme, ChemRxiv, 2019, preprint.
     DOI: 10.26434/chemrxiv.8326202.v1
   for GFN-FF:
   * S. Spicher and S. Grimme, Angew. Chem. Int. Ed., 2020, 59, 15665-15673.
     DOI: 10.1002/anie.202004239
   
   for ALPB and GBSA implicit solvation:
   * S. Ehlert, M. Stahn, S. Spicher, S. Grimme, J. Chem. Theory Comput.,
     2021, 17, 4250-4261. DOI: 10.1021/acs.jctc.1c00471
   
   for ddCOSMO and CPCM-X implicit solvation:
   * M. Stahn, S. Ehlert, S. Grimme, J. Phys. Chem. A,
     2023, XX, XXXX-XXXX. DOI: 10.1021/acs.jpca.3c04382
   
   for DFT-D4:
   * E. Caldeweyher, C. Bannwarth and S. Grimme, J. Chem. Phys., 2017,
     147, 034112. DOI: 10.1063/1.4993215
   * E. Caldeweyher, S. Ehlert, A. Hansen, H. Neugebauer, S. Spicher,
     C. Bannwarth and S. Grimme, J. Chem. Phys., 2019, 150, 154122.
     DOI: 10.1063/1.5090222
   * E. Caldeweyher, J.-M. Mewes, S. Ehlert and S. Grimme, Phys. Chem. Chem. Phys.
     2020, 22, 8499-8512. DOI: 10.1039/D0CP00502A
   
   for sTDA-xTB:
   * S. Grimme and C. Bannwarth, J. Chem. Phys., 2016, 145, 054103.
     DOI: 10.1063/1.4959605
   
   in the mass-spec context:
   * V. Asgeirsson, C. Bauer and S. Grimme, Chem. Sci., 2017, 8, 4879.
     DOI: 10.1039/c7sc00601b
   * J. Koopman and S. Grimme, ACS Omega 2019, 4, 12, 15120-15133.
     DOI: 10.1021/acsomega.9b02011
   
   for metadynamics refer to:
   * S. Grimme, J. Chem. Theory Comput., 2019, 155, 2847-2862
     DOI: 10.1021/acs.jctc.9b00143
   
   for SPH calculations refer to:
   * S. Spicher and S. Grimme, J. Chem. Theory Comput., 2021, 17, 1701-1714
     DOI: 10.1021/acs.jctc.0c01306
   
   for ONIOM refer to:
   * C. Plett, A. Katbashev, S. Ehlert, S. Grimme, M. Bursch,
     Phys. Chem. Chem. Phys., 2023, 25, 17860-17868. DOI: 10.1039/D3CP02178E
   
   for DIPRO refer to:
   * J. Kohn, N. Gildemeister, S. Grimme, D. Fazzi, A. Hansen,
     J. Chem. Phys., 2023, just accepted.
   
   for PTB refer to:
   * S. Grimme, M. Mueller, A. Hansen, J. Chem. Phys., 2023, 158, 124111.
     DOI: 10.1063/5.0137838
   
   with help from (in alphabetical order)
   P. Atkinson, C. Bannwarth, F. Bohle, G. Brandenburg, E. Caldeweyher
   M. Checinski, S. Dohm, S. Ehlert, S. Ehrlich, I. Gerasimov, C. Hölzer
   A. Katbashev, J. Kohn, J. Koopman, C. Lavigne, S. Lehtola, F. März, M. Müller,
   F. Musil, H. Neugebauer, J. Pisarek, C. Plett, P. Pracht, F. Pultar,
   J. Seibert, P. Shushkov, S. Spicher, M. Stahn, M. Steiner, T. Strunk,
   J. Stückrath, T. Rose, and J. Unsleber
   
 * started run on 2025/04/06 at 22:31:19.604     
   ID    Z sym.   atoms
    1    6 C      1-4
    2    8 O      5
    3    1 H      6-15

           -------------------------------------------------
          |                Calculation Setup                |
           -------------------------------------------------

          program call               : /srv/scratch/z5358697/.xtb/bin/xtb gas.coord --gfn2 --sp --chrg 0 --norestart --parallel 1
          hostname                   : k159
          coordinate file            : gas.coord
          omp threads                :                     1


           -------------------------------------------------
          |                 G F N 2 - x T B                 |
           -------------------------------------------------

        Reference                      10.1021/acs.jctc.8b01176
      * Hamiltonian:
        H0-scaling (s, p, d)           1.850000    2.230000    2.230000
        zeta-weighting                 0.500000
      * Dispersion:
        s8                             2.700000
        a1                             0.520000
        a2                             5.000000
        s9                             5.000000
      * Repulsion:
        kExp                           1.500000    1.000000
        rExp                           1.000000
      * Coulomb:
        alpha                          2.000000
        third order                    shell-resolved
        anisotropic                    true
        a3                             3.000000
        a5                             4.000000
        cn-shift                       1.200000
        cn-exp                         4.000000
        max-rad                        5.000000


          ...................................................
          :                      SETUP                      :
          :.................................................:
          :  # basis functions                  30          :
          :  # atomic orbitals                  30          :
          :  # shells                           20          :
          :  # electrons                        32          :
          :  max. iterations                   250          :
          :  Hamiltonian                  GFN2-xTB          :
          :  restarted?                      false          :
          :  GBSA solvation                  false          :
          :  PC potential                    false          :
          :  electronic temp.          300.0000000     K    :
          :  accuracy                    1.0000000          :
          :  -> integral cutoff          0.2500000E+02      :
          :  -> integral neglect         0.1000000E-07      :
          :  -> SCF convergence          0.1000000E-05 Eh   :
          :  -> wf. convergence          0.1000000E-03 e    :
          :  Broyden damping             0.4000000          :
          :  net charge                          0          :
          :  unpaired electrons                  0          :
          ...................................................

 iter      E             dE          RMSdq      gap      omega  full diag
   1    -17.8996750 -0.178997E+02  0.333E+00   12.38       0.0  T
   2    -17.9351214 -0.354464E-01  0.179E+00   11.99       1.0  T
   3    -17.9357311 -0.609643E-03  0.768E-01   12.09       1.0  T
   4    -17.9358951 -0.164031E-03  0.109E-01   12.11       1.0  T
   5    -17.9359148 -0.196749E-04  0.625E-02   12.12       1.0  T
   6    -17.9359161 -0.130585E-05  0.846E-03   12.12       3.1  T
   7    -17.9359162 -0.140477E-06  0.444E-03   12.12       5.8  T
   8    -17.9359162 -0.102611E-07  0.724E-04   12.12      35.7  T
   9    -17.9359162 -0.515683E-09  0.269E-04   12.12      95.9  T

   *** convergence criteria satisfied after 9 iterations ***

         #    Occupation            Energy/Eh            Energy/eV
      -------------------------------------------------------------
         1        2.0000           -0.6834756             -18.5983
       ...           ...                  ...                  ...
        10        2.0000           -0.4913668             -13.3708
        11        2.0000           -0.4795955             -13.0505
        12        2.0000           -0.4513727             -12.2825
        13        2.0000           -0.4471906             -12.1687
        14        2.0000           -0.4396262             -11.9628
        15        2.0000           -0.4311505             -11.7322
        16        2.0000           -0.4052614             -11.0277 (HOMO)
        17                          0.0401745               1.0932 (LUMO)
        18                          0.0964290               2.6240
        19                          0.1009006               2.7456
        20                          0.1326886               3.6106
        21                          0.1370685               3.7298
       ...                                ...                  ...
        30                          0.2914227               7.9300
      -------------------------------------------------------------
                  HL-Gap            0.4454359 Eh           12.1209 eV
             Fermi-level           -0.1825434 Eh           -4.9673 eV

 SCC (total)                   0 d,  0 h,  0 min,  0.019 sec
 SCC setup                      ...        0 min,  0.000 sec (  0.711%)
 Dispersion                     ...        0 min,  0.000 sec (  0.283%)
 classical contributions        ...        0 min,  0.000 sec (  0.089%)
 integral evaluation            ...        0 min,  0.001 sec (  3.553%)
 iterations                     ...        0 min,  0.016 sec ( 84.420%)
 molecular gradient             ...        0 min,  0.002 sec ( 10.401%)
 printout                       ...        0 min,  0.000 sec (  0.491%)

         :::::::::::::::::::::::::::::::::::::::::::::::::::::
         ::                     SUMMARY                     ::
         :::::::::::::::::::::::::::::::::::::::::::::::::::::
         :: total energy             -17.721977487274 Eh    ::
         :: gradient norm              0.005591687524 Eh/a0 ::
         :: HOMO-LUMO gap             12.120927277295 eV    ::
         ::.................................................::
         :: SCC energy               -17.935905887534 Eh    ::
         :: -> isotropic ES            0.026860426948 Eh    ::
         :: -> anisotropic ES          0.003914373468 Eh    ::
         :: -> anisotropic XC          0.005994796413 Eh    ::
         :: -> dispersion             -0.007159036392 Eh    ::
         :: repulsion energy           0.213928400260 Eh    ::
         :: add. restraining           0.000000000000 Eh    ::
         :: total charge               0.000000000000 e     ::
         :::::::::::::::::::::::::::::::::::::::::::::::::::::

           -------------------------------------------------
          |                Property Printout                |
           -------------------------------------------------

    * Orbital Energies and Occupations

         #    Occupation            Energy/Eh            Energy/eV
      -------------------------------------------------------------
         1        2.0000           -0.6834756             -18.5983
       ...           ...                  ...                  ...
         4        2.0000           -0.5932309             -16.1426
         5        2.0000           -0.5698102             -15.5053
         6        2.0000           -0.5508135             -14.9884
         7        2.0000           -0.5274865             -14.3536
         8        2.0000           -0.5197956             -14.1444
         9        2.0000           -0.4972291             -13.5303
        10        2.0000           -0.4913668             -13.3708
        11        2.0000           -0.4795955             -13.0505
        12        2.0000           -0.4513727             -12.2825
        13        2.0000           -0.4471906             -12.1687
        14        2.0000           -0.4396262             -11.9628
        15        2.0000           -0.4311505             -11.7322
        16        2.0000           -0.4052614             -11.0277 (HOMO)
        17                          0.0401745               1.0932 (LUMO)
        18                          0.0964290               2.6240
        19                          0.1009006               2.7456
        20                          0.1326886               3.6106
        21                          0.1370685               3.7298
        22                          0.1390545               3.7839
        23                          0.1635292               4.4499
        24                          0.1821172               4.9557
        25                          0.2054055               5.5894
        26                          0.2198847               5.9834
        27                          0.2302254               6.2648
       ...                                ...                  ...
        30                          0.2914227               7.9300
      -------------------------------------------------------------
                  HL-Gap            0.4454359 Eh           12.1209 eV
             Fermi-level           -0.1825434 Eh           -4.9673 eV

     #   Z          covCN         q      C6AA      α(0)
     1   6 C        3.751    -0.105    22.575     6.776
     2   6 C        3.800    -0.057    21.595     6.616
     3   6 C        3.800    -0.071    21.868     6.658
     4   6 C        3.674     0.080    19.478     6.324
     5   8 O        1.654    -0.445    21.738     6.294
     6   1 H        0.925     0.035     2.521     2.483
     7   1 H        0.925     0.036     2.504     2.475
     8   1 H        0.925     0.036     2.498     2.471
     9   1 H        0.924     0.033     2.541     2.493
    10   1 H        0.924     0.035     2.515     2.480
    11   1 H        0.924     0.043     2.408     2.426
    12   1 H        0.924     0.031     2.571     2.507
    13   1 H        0.924     0.019     2.752     2.594
    14   1 H        0.924     0.047     2.356     2.400
    15   1 H        0.805     0.283     0.773     1.381

 Mol. C6AA /au·bohr⁶  :       1460.994050
 Mol. C8AA /au·bohr⁸  :      29836.649084
 Mol. α(0) /au        :         56.380555


Wiberg/Mayer (AO) data.
largest (>0.10) Wiberg bond orders for each atom

 ---------------------------------------------------------------------------
     #   Z sym  total        # sym  WBO       # sym  WBO       # sym  WBO
 ---------------------------------------------------------------------------
     1   6 C    3.997 --     2 C    1.020     7 H    0.988     8 H    0.987
                             6 H    0.987
     2   6 C    3.997 --     1 C    1.020     3 C    1.007    10 H    0.978
                             9 H    0.978
     3   6 C    3.997 --     2 C    1.007     4 C    0.999    12 H    0.977
                            11 H    0.977
     4   6 C    3.955 --     3 C    0.999     5 O    0.996    14 H    0.973
                            13 H    0.971
     5   8 O    1.957 --     4 C    0.996    15 H    0.905
     6   1 H    0.999 --     1 C    0.987
     7   1 H    0.999 --     1 C    0.988
     8   1 H    0.999 --     1 C    0.987
     9   1 H    0.999 --     2 C    0.978
    10   1 H    0.999 --     2 C    0.978
    11   1 H    0.998 --     3 C    0.977
    12   1 H    0.999 --     3 C    0.977
    13   1 H    1.000 --     4 C    0.971
    14   1 H    0.998 --     4 C    0.973
    15   1 H    0.920 --     5 O    0.905
 ---------------------------------------------------------------------------

Topologies differ in total number of bonds
Writing topology from bond orders to xtbtopo.mol

molecular dipole:
                 x           y           z       tot (Debye)
 q only:        0.505      -0.313      -0.098
   full:        0.619      -0.495      -0.120       2.037
molecular quadrupole (traceless):
                xx          xy          yy          xz          yz          zz
 q only:       -3.153       2.618       2.323       0.918       0.417       0.829
  q+dip:       -5.880       3.332       4.376       0.736       0.661       1.504
   full:       -5.168       3.576       3.958       1.011       0.699       1.210


           -------------------------------------------------
          | TOTAL ENERGY              -17.721977487274 Eh   |
          | GRADIENT NORM               0.005591687524 Eh/α |
          | HOMO-LUMO GAP              12.120927277295 eV   |
           -------------------------------------------------

------------------------------------------------------------------------
 * finished run on 2025/04/06 at 22:31:19.696     
------------------------------------------------------------------------
 total:
 * wall-time:     0 d,  0 h,  0 min,  0.091 sec
 *  cpu-time:     0 d,  0 h,  0 min,  0.015 sec
 * ratio c/w:     0.165 speedup
 SCF:
 * wall-time:     0 d,  0 h,  0 min,  0.019 sec
 *  cpu-time:     0 d,  0 h,  0 min,  0.006 sec
 * ratio c/w:     0.328 speedup

