      -----------------------------------------------------------      
     |                   =====================                   |     
     |                           x T B                           |     
     |                   =====================                   |     
     |                         S. Grimme                         |     
     |          Mulliken Center for Theoretical Chemistry        |     
     |                    University of Bonn                     |     
      -----------------------------------------------------------      

   * xtb version 6.7.1 (edcfbbe) compiled by 'albert@albert-system' on 2024-07-22

   xtb is free software: you can redistribute it and/or modify it under
   the terms of the GNU Lesser General Public License as published by
   the Free Software Foundation, either version 3 of the License, or
   (at your option) any later version.
   
   xtb is distributed in the hope that it will be useful,
   but WITHOUT ANY WARRANTY; without even the implied warranty of
   MERCHANTABILITY or FITNESS FOR A PARTICULAR PURPOSE.  See the
   GNU Lesser General Public License for more details.
   
   Cite this work as:
   * C. Bannwarth, E. Caldeweyher, S. Ehlert, A. Hansen, P. Pracht,
     J. Seibert, S. Spicher, S. Grimme, WIREs Comput. Mol. Sci., 2020, 11,
     e01493. DOI: 10.1002/wcms.1493
   
   for GFN2-xTB:
   * C. Bannwarth, S. Ehlert and S. Grimme., J. Chem. Theory Comput., 2019,
     15, 1652-1671. DOI: 10.1021/acs.jctc.8b01176
   for GFN1-xTB:
   * S. Grimme, C. Bannwarth, P. Shushkov, J. Chem. Theory Comput., 2017,
     13, 1989-2009. DOI: 10.1021/acs.jctc.7b00118
   for GFN0-xTB:
   * P. Pracht, E. Caldeweyher, S. Ehlert, S. Grimme, ChemRxiv, 2019, preprint.
     DOI: 10.26434/chemrxiv.8326202.v1
   for GFN-FF:
   * S. Spicher and S. Grimme, Angew. Chem. Int. Ed., 2020, 59, 15665-15673.
     DOI: 10.1002/anie.202004239
   
   for ALPB and GBSA implicit solvation:
   * S. Ehlert, M. Stahn, S. Spicher, S. Grimme, J. Chem. Theory Comput.,
     2021, 17, 4250-4261. DOI: 10.1021/acs.jctc.1c00471
   
   for ddCOSMO and CPCM-X implicit solvation:
   * M. Stahn, S. Ehlert, S. Grimme, J. Phys. Chem. A,
     2023, XX, XXXX-XXXX. DOI: 10.1021/acs.jpca.3c04382
   
   for DFT-D4:
   * E. Caldeweyher, C. Bannwarth and S. Grimme, J. Chem. Phys., 2017,
     147, 034112. DOI: 10.1063/1.4993215
   * E. Caldeweyher, S. Ehlert, A. Hansen, H. Neugebauer, S. Spicher,
     C. Bannwarth and S. Grimme, J. Chem. Phys., 2019, 150, 154122.
     DOI: 10.1063/1.5090222
   * E. Caldeweyher, J.-M. Mewes, S. Ehlert and S. Grimme, Phys. Chem. Chem. Phys.
     2020, 22, 8499-8512. DOI: 10.1039/D0CP00502A
   
   for sTDA-xTB:
   * S. Grimme and C. Bannwarth, J. Chem. Phys., 2016, 145, 054103.
     DOI: 10.1063/1.4959605
   
   in the mass-spec context:
   * V. Asgeirsson, C. Bauer and S. Grimme, Chem. Sci., 2017, 8, 4879.
     DOI: 10.1039/c7sc00601b
   * J. Koopman and S. Grimme, ACS Omega 2019, 4, 12, 15120-15133.
     DOI: 10.1021/acsomega.9b02011
   
   for metadynamics refer to:
   * S. Grimme, J. Chem. Theory Comput., 2019, 155, 2847-2862
     DOI: 10.1021/acs.jctc.9b00143
   
   for SPH calculations refer to:
   * S. Spicher and S. Grimme, J. Chem. Theory Comput., 2021, 17, 1701-1714
     DOI: 10.1021/acs.jctc.0c01306
   
   for ONIOM refer to:
   * C. Plett, A. Katbashev, S. Ehlert, S. Grimme, M. Bursch,
     Phys. Chem. Chem. Phys., 2023, 25, 17860-17868. DOI: 10.1039/D3CP02178E
   
   for DIPRO refer to:
   * J. Kohn, N. Gildemeister, S. Grimme, D. Fazzi, A. Hansen,
     J. Chem. Phys., 2023, just accepted.
   
   for PTB refer to:
   * S. Grimme, M. Mueller, A. Hansen, J. Chem. Phys., 2023, 158, 124111.
     DOI: 10.1063/5.0137838
   
   with help from (in alphabetical order)
   P. Atkinson, C. Bannwarth, F. Bohle, G. Brandenburg, E. Caldeweyher
   M. Checinski, S. Dohm, S. Ehlert, S. Ehrlich, I. Gerasimov, C. Hölzer
   A. Katbashev, J. Kohn, J. Koopman, C. Lavigne, S. Lehtola, F. März, M. Müller,
   F. Musil, H. Neugebauer, J. Pisarek, C. Plett, P. Pracht, F. Pultar,
   J. Seibert, P. Shushkov, S. Spicher, M. Stahn, M. Steiner, T. Strunk,
   J. Stückrath, T. Rose, and J. Unsleber
   
 * started run on 2025/04/06 at 22:31:19.735     
   ID    Z sym.   atoms
    1    6 C      1-4
    2    8 O      5
    3    1 H      6-15

           -------------------------------------------------
          |                Calculation Setup                |
           -------------------------------------------------

          program call               : /srv/scratch/z5358697/.xtb/bin/xtb solv.coord --gfn2 --sp --chrg 0 --norestart --parallel 1 --alpb water reference -I xtb_sp-xcontrol-inp
          hostname                   : k159
          coordinate file            : solv.coord
          omp threads                :                     1


           -------------------------------------------------
          |                 G F N 2 - x T B                 |
           -------------------------------------------------

        Reference                      10.1021/acs.jctc.8b01176
      * Hamiltonian:
        H0-scaling (s, p, d)           1.850000    2.230000    2.230000
        zeta-weighting                 0.500000
      * Dispersion:
        s8                             2.700000
        a1                             0.520000
        a2                             5.000000
        s9                             5.000000
      * Repulsion:
        kExp                           1.500000    1.000000
        rExp                           1.000000
      * Coulomb:
        alpha                          2.000000
        third order                    shell-resolved
        anisotropic                    true
        a3                             3.000000
        a5                             4.000000
        cn-shift                       1.200000
        cn-exp                         4.000000
        max-rad                        5.000000

      * Solvation model:               ALPB
        Solvent                        water
        Parameter file                 internal GFN2-xTB/ALPB
        Dielectric constant                8.0200E+01
        Reference state                gsolv=reference [X=1]
        Free energy shift                  2.8945E-03 Eh       1.8164E+00 kcal/mol
        Temperature                        2.9815E+02 K
        Density                            1.0000E+00 kg/L
        Solvent mass                       1.8000E+01 g/mol
        Interaction kernel             P16
        Born radius scaling (c1)           1.4744E+00
        Born radii integrator          GBOBC
        Born offset                        0.0000E+00 a0       0.0000E+00 AA
        H-bond correction              true
        Ion screening                  false
        Surface tension                    1.0000E-05 Eh       1.5569E+01 dyn/cm
        Grid points                               974 per atom

          ...................................................
          :                      SETUP                      :
          :.................................................:
          :  # basis functions                  30          :
          :  # atomic orbitals                  30          :
          :  # shells                           20          :
          :  # electrons                        32          :
          :  max. iterations                   250          :
          :  Hamiltonian                  GFN2-xTB          :
          :  restarted?                      false          :
          :  GBSA solvation                   true          :
          :  PC potential                    false          :
          :  electronic temp.          300.0000000     K    :
          :  accuracy                    1.0000000          :
          :  -> integral cutoff          0.2500000E+02      :
          :  -> integral neglect         0.1000000E-07      :
          :  -> SCF convergence          0.1000000E-05 Eh   :
          :  -> wf. convergence          0.1000000E-03 e    :
          :  Broyden damping             0.4000000          :
          :  net charge                          0          :
          :  unpaired electrons                  0          :
          ...................................................

 iter      E             dE          RMSdq      gap      omega  full diag
   1    -17.9132441 -0.179132E+02  0.342E+00   12.37       0.0  T
   2    -17.9399148 -0.266707E-01  0.181E+00   12.15       1.0  T
   3    -17.9407132 -0.798410E-03  0.625E-01   12.13       1.0  T
   4    -17.9408749 -0.161656E-03  0.119E-01   12.14       1.0  T
   5    -17.9408928 -0.179028E-04  0.676E-02   12.15       1.0  T
   6    -17.9408957 -0.291883E-05  0.126E-02   12.15       2.0  T
   7    -17.9408959 -0.250402E-06  0.593E-03   12.15       4.4  T
   8    -17.9408960 -0.599263E-07  0.212E-03   12.15      12.2  T
   9    -17.9408960 -0.643126E-08  0.432E-04   12.15      59.8  T
  10    -17.9408960 -0.680838E-09  0.196E-04   12.15     131.6  T

   *** convergence criteria satisfied after 10 iterations ***

         #    Occupation            Energy/Eh            Energy/eV
      -------------------------------------------------------------
         1        2.0000           -0.6872025             -18.6997
       ...           ...                  ...                  ...
        10        2.0000           -0.4873930             -13.2626
        11        2.0000           -0.4749164             -12.9231
        12        2.0000           -0.4476505             -12.1812
        13        2.0000           -0.4427866             -12.0488
        14        2.0000           -0.4345422             -11.8245
        15        2.0000           -0.4270032             -11.6193
        16        2.0000           -0.4051624             -11.0250 (HOMO)
        17                          0.0413844               1.1261 (LUMO)
        18                          0.1008754               2.7450
        19                          0.1069493               2.9102
        20                          0.1366219               3.7177
        21                          0.1420257               3.8647
       ...                                ...                  ...
        30                          0.2972847               8.0895
      -------------------------------------------------------------
                  HL-Gap            0.4465469 Eh           12.1512 eV
             Fermi-level           -0.1818890 Eh           -4.9495 eV

 SCC (total)                   0 d,  0 h,  0 min,  0.025 sec
 SCC setup                      ...        0 min,  0.001 sec (  2.640%)
 Dispersion                     ...        0 min,  0.000 sec (  0.214%)
 classical contributions        ...        0 min,  0.000 sec (  0.047%)
 integral evaluation            ...        0 min,  0.001 sec (  2.713%)
 iterations                     ...        0 min,  0.022 sec ( 86.722%)
 molecular gradient             ...        0 min,  0.002 sec (  7.258%)
 printout                       ...        0 min,  0.000 sec (  0.362%)

         :::::::::::::::::::::::::::::::::::::::::::::::::::::
         ::                     SUMMARY                     ::
         :::::::::::::::::::::::::::::::::::::::::::::::::::::
         :: total energy             -17.726957271854 Eh    ::
         :: total w/o Gsasa/hb       -17.724812424777 Eh    ::
         :: gradient norm              0.000088326384 Eh/a0 ::
         :: HOMO-LUMO gap             12.151158407399 eV    ::
         ::.................................................::
         :: SCC energy               -17.940885672115 Eh    ::
         :: -> isotropic ES            0.035943592527 Eh    ::
         :: -> anisotropic ES          0.002962397612 Eh    ::
         :: -> anisotropic XC          0.006222981039 Eh    ::
         :: -> dispersion             -0.007127942800 Eh    ::
         :: -> Gsolv                  -0.006897382588 Eh    ::
         ::    -> Gelec               -0.004752535511 Eh    ::
         ::    -> Gsasa                0.000794897866 Eh    ::
         ::    -> Ghb                 -0.005834294104 Eh    ::
         ::    -> Gshift               0.002894549160 Eh    ::
         :: repulsion energy           0.213928400260 Eh    ::
         :: add. restraining           0.000000000000 Eh    ::
         :: total charge              -0.000000000000 e     ::
         :::::::::::::::::::::::::::::::::::::::::::::::::::::

           -------------------------------------------------
          |                Property Printout                |
           -------------------------------------------------

    * Orbital Energies and Occupations

         #    Occupation            Energy/Eh            Energy/eV
      -------------------------------------------------------------
         1        2.0000           -0.6872025             -18.6997
       ...           ...                  ...                  ...
         4        2.0000           -0.5890022             -16.0276
         5        2.0000           -0.5655356             -15.3890
         6        2.0000           -0.5478060             -14.9066
         7        2.0000           -0.5258124             -14.3081
         8        2.0000           -0.5174327             -14.0801
         9        2.0000           -0.4929541             -13.4140
        10        2.0000           -0.4873930             -13.2626
        11        2.0000           -0.4749164             -12.9231
        12        2.0000           -0.4476505             -12.1812
        13        2.0000           -0.4427866             -12.0488
        14        2.0000           -0.4345422             -11.8245
        15        2.0000           -0.4270032             -11.6193
        16        2.0000           -0.4051624             -11.0250 (HOMO)
        17                          0.0413844               1.1261 (LUMO)
        18                          0.1008754               2.7450
        19                          0.1069493               2.9102
        20                          0.1366219               3.7177
        21                          0.1420257               3.8647
        22                          0.1428937               3.8883
        23                          0.1712418               4.6597
        24                          0.1877875               5.1100
        25                          0.2090800               5.6894
        26                          0.2244695               6.1081
        27                          0.2381964               6.4817
       ...                                ...                  ...
        30                          0.2972847               8.0895
      -------------------------------------------------------------
                  HL-Gap            0.4465469 Eh           12.1512 eV
             Fermi-level           -0.1818890 Eh           -4.9495 eV

     #   Z          covCN         q      C6AA      α(0)
     1   6 C        3.751    -0.115    22.758     6.803
     2   6 C        3.800    -0.062    21.696     6.632
     3   6 C        3.800    -0.077    21.969     6.673
     4   6 C        3.674     0.080    19.474     6.324
     5   8 O        1.654    -0.524    23.411     6.532
     6   1 H        0.925     0.036     2.500     2.473
     7   1 H        0.925     0.042     2.425     2.435
     8   1 H        0.925     0.041     2.430     2.438
     9   1 H        0.924     0.034     2.529     2.487
    10   1 H        0.924     0.041     2.436     2.441
    11   1 H        0.924     0.044     2.400     2.423
    12   1 H        0.924     0.042     2.428     2.437
    13   1 H        0.924     0.023     2.682     2.561
    14   1 H        0.924     0.041     2.437     2.441
    15   1 H        0.805     0.354     0.579     1.196

 Mol. C6AA /au·bohr⁶  :       1458.922589
 Mol. C8AA /au·bohr⁸  :      29892.589393
 Mol. α(0) /au        :         56.294672


Wiberg/Mayer (AO) data.
largest (>0.10) Wiberg bond orders for each atom

 ---------------------------------------------------------------------------
     #   Z sym  total        # sym  WBO       # sym  WBO       # sym  WBO
 ---------------------------------------------------------------------------
     1   6 C    3.996 --     2 C    1.020     7 H    0.987     8 H    0.987
                             6 H    0.987
     2   6 C    3.997 --     1 C    1.020     3 C    1.007     9 H    0.978
                            10 H    0.978
     3   6 C    3.996 --     2 C    1.007     4 C    0.999    11 H    0.977
                            12 H    0.976
     4   6 C    3.951 --     3 C    0.999     5 O    0.991    14 H    0.974
                            13 H    0.971
     5   8 O    1.907 --     4 C    0.991    15 H    0.861
     6   1 H    0.999 --     1 C    0.987
     7   1 H    0.998 --     1 C    0.987
     8   1 H    0.998 --     1 C    0.987
     9   1 H    0.999 --     2 C    0.978
    10   1 H    0.998 --     2 C    0.978
    11   1 H    0.998 --     3 C    0.977
    12   1 H    0.998 --     3 C    0.976
    13   1 H    0.999 --     4 C    0.971
    14   1 H    0.998 --     4 C    0.974
    15   1 H    0.875 --     5 O    0.861
 ---------------------------------------------------------------------------

Topologies differ in total number of bonds
Writing topology from bond orders to xtbtopo.mol

molecular dipole:
                 x           y           z       tot (Debye)
 q only:        0.574      -0.477      -0.158
   full:        0.659      -0.600      -0.159       2.300
molecular quadrupole (traceless):
                xx          xy          yy          xz          yz          zz
 q only:       -3.329       3.417       2.607       1.161       0.499       0.722
  q+dip:       -5.993       3.849       4.592       0.887       0.734       1.402
   full:       -5.267       4.099       4.158       1.170       0.767       1.110


           -------------------------------------------------
          | TOTAL ENERGY              -17.726957271854 Eh   |
          | GRADIENT NORM               0.000088326384 Eh/α |
          | HOMO-LUMO GAP              12.151158407399 eV   |
           -------------------------------------------------

------------------------------------------------------------------------
 * finished run on 2025/04/06 at 22:31:19.791     
------------------------------------------------------------------------
 total:
 * wall-time:     0 d,  0 h,  0 min,  0.056 sec
 *  cpu-time:     0 d,  0 h,  0 min,  0.013 sec
 * ratio c/w:     0.225 speedup
 SCF:
 * wall-time:     0 d,  0 h,  0 min,  0.025 sec
 *  cpu-time:     0 d,  0 h,  0 min,  0.007 sec
 * ratio c/w:     0.265 speedup

