! r2scan-3c def2/J RI DEFGRID2 scfconv6 printgap
%output
    printlevel normal
end
* xyz 0 1
C 2.5003789729 5.37452e-05 -0.0711151439
C 1.0148521705 -3.9977e-05 0.327464657
C 0.2972383921 1.2473667955 -0.1938470907
C -1.1706226223 1.2516757261 0.2240337716
C -1.8764535765 2.98827e-05 -0.2881862869
C -1.1707237573 -1.2516602986 0.2240444529
C 0.2971460489 -1.2474410499 -0.1938692082
H 3.1436734021 0.009606617 0.8045225718
H 2.7445553379 -0.8832578979 -0.6559618468
H 2.7403008095 0.8738280605 -0.6718097959
H 0.9365094765 5.73075e-05 1.4203052669
H 0.7917313774 2.1426041808 0.1899015184
H 0.3625260137 1.2678210366 -1.2844809175
H -1.2357972435 1.282953993 1.3143083799
H -1.6641886826 2.1441681533 -0.1662106038
H -2.9189579558 2.7352e-06 0.0364861493
H -1.865047829 3.07599e-05 -1.3805484434
H -1.235832496 -1.2828455739 1.3143489797
H -1.6643280131 -2.1441521227 -0.1661681181
H 0.7914402311 -2.1428092995 0.1898681815
H 0.3626332386 -1.2678270981 -1.2844914725
*
