! wb97x-v def2-tzvp def2/J RIJCOSX DEFGRID2 scfconv7 GCP(DFT/TZ) printgap
%output
    printlevel normal
end
* xyz 0 1
C -1.038428319077966 0.776806166279617 -0.09446932401108085
C -1.036153852901573 -0.775951662549454 -0.111222432813019
C 0.41556513836540865 -1.15197942710609 0.20425903019651828
N 1.1835662594465268 -0.0033310777479328858 -0.3222567525039597
C 0.420843230105625 1.1542638462975505 0.19374397241615557
H -1.7104290407684168 1.1860663433354954 0.6640375845219872
H -1.3543209706410095 1.1708245361808465 -1.0644428813337743
H -1.7283062117215968 -1.2060490498064087 0.6170038827681542
H -1.319834634798475 -1.1481503930958694 -1.0997904909086997
H 0.5453567195717424 -1.2630745931409553 1.2939048310120251
H 0.7295396123582492 -2.086863749165094 -0.2699371957191602
H 2.1089011599448018 -0.0030252107973608995 0.09767167841167097
H 0.5660844116683631 1.2842158439892128 1.2790627787396172
H 0.7294056173222179 2.080581477823635 -0.30044247494841564
*
