! pbe def2-sv(p) def2/J RI DEFGRID1 loosescf d4 GCP(DFT/SV(P)) printgap
%output
    printlevel normal
end
* xyz 0 1
C -2.2399460609 -0.156048351 -0.4352064501
N -1.056846647 0.0960165536 0.3574174854
C -0.2873874823 1.2067863928 -0.1921114807
C 1.1367707669 1.1986591598 0.346790502
C 1.8967029475 -0.0256544595 -0.1803511593
C 0.9349642231 -1.2020339409 -0.3922374226
C -0.2370743296 -1.0924591208 0.5836174876
H -2.0136800783 -0.4830383851 -1.4636213035
H -2.8227109302 0.7627546958 -0.4908793417
H -2.8433497125 -0.9200296143 0.0516573962
H -0.2536213903 1.1692326293 -1.295909134
H -0.7984390761 2.1332251617 0.0908267644
H 1.6447265519 2.1160038927 0.048472765
H 1.0925215832 1.1791096388 1.4358361347
H 2.3864895682 0.2180067633 -1.1247983681
H 2.6740046272 -0.302695574 0.5328245963
H 0.5443346093 -1.1922630645 -1.4124475252
H 1.4510778275 -2.1511947842 -0.2467639469
H -0.8753609612 -1.9749162943 0.5129055011
H 0.1526608436 -1.0454074597 1.6064715867
*
