      -----------------------------------------------------------      
     |                   =====================                   |     
     |                           x T B                           |     
     |                   =====================                   |     
     |                         S. Grimme                         |     
     |          Mulliken Center for Theoretical Chemistry        |     
     |                    University of Bonn                     |     
      -----------------------------------------------------------      

   * xtb version 6.7.1 (edcfbbe) compiled by 'albert@albert-system' on 2024-07-22

   xtb is free software: you can redistribute it and/or modify it under
   the terms of the GNU Lesser General Public License as published by
   the Free Software Foundation, either version 3 of the License, or
   (at your option) any later version.
   
   xtb is distributed in the hope that it will be useful,
   but WITHOUT ANY WARRANTY; without even the implied warranty of
   MERCHANTABILITY or FITNESS FOR A PARTICULAR PURPOSE.  See the
   GNU Lesser General Public License for more details.
   
   Cite this work as:
   * C. Bannwarth, E. Caldeweyher, S. Ehlert, A. Hansen, P. Pracht,
     J. Seibert, S. Spicher, S. Grimme, WIREs Comput. Mol. Sci., 2020, 11,
     e01493. DOI: 10.1002/wcms.1493
   
   for GFN2-xTB:
   * C. Bannwarth, S. Ehlert and S. Grimme., J. Chem. Theory Comput., 2019,
     15, 1652-1671. DOI: 10.1021/acs.jctc.8b01176
   for GFN1-xTB:
   * S. Grimme, C. Bannwarth, P. Shushkov, J. Chem. Theory Comput., 2017,
     13, 1989-2009. DOI: 10.1021/acs.jctc.7b00118
   for GFN0-xTB:
   * P. Pracht, E. Caldeweyher, S. Ehlert, S. Grimme, ChemRxiv, 2019, preprint.
     DOI: 10.26434/chemrxiv.8326202.v1
   for GFN-FF:
   * S. Spicher and S. Grimme, Angew. Chem. Int. Ed., 2020, 59, 15665-15673.
     DOI: 10.1002/anie.202004239
   
   for ALPB and GBSA implicit solvation:
   * S. Ehlert, M. Stahn, S. Spicher, S. Grimme, J. Chem. Theory Comput.,
     2021, 17, 4250-4261. DOI: 10.1021/acs.jctc.1c00471
   
   for ddCOSMO and CPCM-X implicit solvation:
   * M. Stahn, S. Ehlert, S. Grimme, J. Phys. Chem. A,
     2023, XX, XXXX-XXXX. DOI: 10.1021/acs.jpca.3c04382
   
   for DFT-D4:
   * E. Caldeweyher, C. Bannwarth and S. Grimme, J. Chem. Phys., 2017,
     147, 034112. DOI: 10.1063/1.4993215
   * E. Caldeweyher, S. Ehlert, A. Hansen, H. Neugebauer, S. Spicher,
     C. Bannwarth and S. Grimme, J. Chem. Phys., 2019, 150, 154122.
     DOI: 10.1063/1.5090222
   * E. Caldeweyher, J.-M. Mewes, S. Ehlert and S. Grimme, Phys. Chem. Chem. Phys.
     2020, 22, 8499-8512. DOI: 10.1039/D0CP00502A
   
   for sTDA-xTB:
   * S. Grimme and C. Bannwarth, J. Chem. Phys., 2016, 145, 054103.
     DOI: 10.1063/1.4959605
   
   in the mass-spec context:
   * V. Asgeirsson, C. Bauer and S. Grimme, Chem. Sci., 2017, 8, 4879.
     DOI: 10.1039/c7sc00601b
   * J. Koopman and S. Grimme, ACS Omega 2019, 4, 12, 15120-15133.
     DOI: 10.1021/acsomega.9b02011
   
   for metadynamics refer to:
   * S. Grimme, J. Chem. Theory Comput., 2019, 155, 2847-2862
     DOI: 10.1021/acs.jctc.9b00143
   
   for SPH calculations refer to:
   * S. Spicher and S. Grimme, J. Chem. Theory Comput., 2021, 17, 1701-1714
     DOI: 10.1021/acs.jctc.0c01306
   
   for ONIOM refer to:
   * C. Plett, A. Katbashev, S. Ehlert, S. Grimme, M. Bursch,
     Phys. Chem. Chem. Phys., 2023, 25, 17860-17868. DOI: 10.1039/D3CP02178E
   
   for DIPRO refer to:
   * J. Kohn, N. Gildemeister, S. Grimme, D. Fazzi, A. Hansen,
     J. Chem. Phys., 2023, just accepted.
   
   for PTB refer to:
   * S. Grimme, M. Mueller, A. Hansen, J. Chem. Phys., 2023, 158, 124111.
     DOI: 10.1063/5.0137838
   
   with help from (in alphabetical order)
   P. Atkinson, C. Bannwarth, F. Bohle, G. Brandenburg, E. Caldeweyher
   M. Checinski, S. Dohm, S. Ehlert, S. Ehrlich, I. Gerasimov, C. Hölzer
   A. Katbashev, J. Kohn, J. Koopman, C. Lavigne, S. Lehtola, F. März, M. Müller,
   F. Musil, H. Neugebauer, J. Pisarek, C. Plett, P. Pracht, F. Pultar,
   J. Seibert, P. Shushkov, S. Spicher, M. Stahn, M. Steiner, T. Strunk,
   J. Stückrath, T. Rose, and J. Unsleber
   
 * started run on 2025/04/06 at 22:31:19.604     
   ID    Z sym.   atoms
    1    6 C      1-4
    2    8 O      5
    3    1 H      6-15

           -------------------------------------------------
          |                Calculation Setup                |
           -------------------------------------------------

          program call               : /srv/scratch/z5358697/.xtb/bin/xtb gas.coord --gfn2 --sp --chrg 0 --norestart --parallel 1
          hostname                   : k159
          coordinate file            : gas.coord
          omp threads                :                     1


           -------------------------------------------------
          |                 G F N 2 - x T B                 |
           -------------------------------------------------

        Reference                      10.1021/acs.jctc.8b01176
      * Hamiltonian:
        H0-scaling (s, p, d)           1.850000    2.230000    2.230000
        zeta-weighting                 0.500000
      * Dispersion:
        s8                             2.700000
        a1                             0.520000
        a2                             5.000000
        s9                             5.000000
      * Repulsion:
        kExp                           1.500000    1.000000
        rExp                           1.000000
      * Coulomb:
        alpha                          2.000000
        third order                    shell-resolved
        anisotropic                    true
        a3                             3.000000
        a5                             4.000000
        cn-shift                       1.200000
        cn-exp                         4.000000
        max-rad                        5.000000


          ...................................................
          :                      SETUP                      :
          :.................................................:
          :  # basis functions                  30          :
          :  # atomic orbitals                  30          :
          :  # shells                           20          :
          :  # electrons                        32          :
          :  max. iterations                   250          :
          :  Hamiltonian                  GFN2-xTB          :
          :  restarted?                      false          :
          :  GBSA solvation                  false          :
          :  PC potential                    false          :
          :  electronic temp.          300.0000000     K    :
          :  accuracy                    1.0000000          :
          :  -> integral cutoff          0.2500000E+02      :
          :  -> integral neglect         0.1000000E-07      :
          :  -> SCF convergence          0.1000000E-05 Eh   :
          :  -> wf. convergence          0.1000000E-03 e    :
          :  Broyden damping             0.4000000          :
          :  net charge                          0          :
          :  unpaired electrons                  0          :
          ...................................................

 iter      E             dE          RMSdq      gap      omega  full diag
   1    -17.9017253 -0.179017E+02  0.324E+00   12.78       0.0  T
   2    -17.9362094 -0.344841E-01  0.174E+00   12.49       1.0  T
   3    -17.9367966 -0.587269E-03  0.757E-01   12.56       1.0  T
   4    -17.9369485 -0.151879E-03  0.106E-01   12.57       1.0  T
   5    -17.9369653 -0.168182E-04  0.608E-02   12.58       1.0  T
   6    -17.9369665 -0.112847E-05  0.811E-03   12.59       3.2  T
   7    -17.9369666 -0.177280E-06  0.422E-03   12.59       6.1  T
   8    -17.9369666 -0.104833E-07  0.966E-04   12.59      26.7  T
   9    -17.9369666 -0.102405E-08  0.287E-04   12.59      89.9  T

   *** convergence criteria satisfied after 9 iterations ***

         #    Occupation            Energy/Eh            Energy/eV
      -------------------------------------------------------------
         1        2.0000           -0.6841521             -18.6167
       ...           ...                  ...                  ...
        10        2.0000           -0.4885667             -13.2946
        11        2.0000           -0.4618670             -12.5680
        12        2.0000           -0.4578545             -12.4589
        13        2.0000           -0.4489343             -12.2161
        14        2.0000           -0.4335203             -11.7967
        15        2.0000           -0.4262881             -11.5999
        16        2.0000           -0.4073194             -11.0837 (HOMO)
        17                          0.0552070               1.5023 (LUMO)
        18                          0.0752026               2.0464
        19                          0.1150717               3.1313
        20                          0.1235170               3.3611
        21                          0.1505338               4.0962
       ...                                ...                  ...
        30                          0.3057386               8.3196
      -------------------------------------------------------------
                  HL-Gap            0.4625264 Eh           12.5860 eV
             Fermi-level           -0.1760562 Eh           -4.7907 eV

 SCC (total)                   0 d,  0 h,  0 min,  0.007 sec
 SCC setup                      ...        0 min,  0.000 sec (  1.780%)
 Dispersion                     ...        0 min,  0.000 sec (  0.736%)
 classical contributions        ...        0 min,  0.000 sec (  0.235%)
 integral evaluation            ...        0 min,  0.001 sec (  9.136%)
 iterations                     ...        0 min,  0.004 sec ( 60.179%)
 molecular gradient             ...        0 min,  0.002 sec ( 26.421%)
 printout                       ...        0 min,  0.000 sec (  1.376%)

         :::::::::::::::::::::::::::::::::::::::::::::::::::::
         ::                     SUMMARY                     ::
         :::::::::::::::::::::::::::::::::::::::::::::::::::::
         :: total energy             -17.722898225370 Eh    ::
         :: gradient norm              0.005663216094 Eh/a0 ::
         :: HOMO-LUMO gap             12.585984547507 eV    ::
         ::.................................................::
         :: SCC energy               -17.936957193831 Eh    ::
         :: -> isotropic ES            0.026542185995 Eh    ::
         :: -> anisotropic ES          0.004154396182 Eh    ::
         :: -> anisotropic XC          0.005943909765 Eh    ::
         :: -> dispersion             -0.007055204553 Eh    ::
         :: repulsion energy           0.214058968460 Eh    ::
         :: add. restraining           0.000000000000 Eh    ::
         :: total charge               0.000000000000 e     ::
         :::::::::::::::::::::::::::::::::::::::::::::::::::::

           -------------------------------------------------
          |                Property Printout                |
           -------------------------------------------------

    * Orbital Energies and Occupations

         #    Occupation            Energy/Eh            Energy/eV
      -------------------------------------------------------------
         1        2.0000           -0.6841521             -18.6167
       ...           ...                  ...                  ...
         4        2.0000           -0.5909381             -16.0802
         5        2.0000           -0.5681134             -15.4592
         6        2.0000           -0.5447623             -14.8237
         7        2.0000           -0.5313741             -14.4594
         8        2.0000           -0.5179326             -14.0937
         9        2.0000           -0.5013087             -13.6413
        10        2.0000           -0.4885667             -13.2946
        11        2.0000           -0.4618670             -12.5680
        12        2.0000           -0.4578545             -12.4589
        13        2.0000           -0.4489343             -12.2161
        14        2.0000           -0.4335203             -11.7967
        15        2.0000           -0.4262881             -11.5999
        16        2.0000           -0.4073194             -11.0837 (HOMO)
        17                          0.0552070               1.5023 (LUMO)
        18                          0.0752026               2.0464
        19                          0.1150717               3.1313
        20                          0.1235170               3.3611
        21                          0.1505338               4.0962
        22                          0.1567085               4.2643
        23                          0.1715957               4.6694
        24                          0.1772972               4.8245
        25                          0.1862271               5.0675
        26                          0.2318043               6.3077
        27                          0.2433157               6.6210
       ...                                ...                  ...
        30                          0.3057386               8.3196
      -------------------------------------------------------------
                  HL-Gap            0.4625264 Eh           12.5860 eV
             Fermi-level           -0.1760562 Eh           -4.7907 eV

     #   Z          covCN         q      C6AA      α(0)
     1   6 C        3.752    -0.103    22.536     6.770
     2   6 C        3.801    -0.054    21.546     6.609
     3   6 C        3.801    -0.069    21.825     6.651
     4   6 C        3.674     0.079    19.485     6.325
     5   8 O        1.654    -0.442    21.684     6.286
     6   1 H        0.925     0.033     2.541     2.493
     7   1 H        0.925     0.033     2.547     2.496
     8   1 H        0.925     0.035     2.511     2.478
     9   1 H        0.924     0.033     2.549     2.497
    10   1 H        0.924     0.044     2.396     2.421
    11   1 H        0.924     0.032     2.557     2.501
    12   1 H        0.924     0.033     2.549     2.497
    13   1 H        0.923     0.015     2.814     2.624
    14   1 H        0.924     0.048     2.348     2.396
    15   1 H        0.805     0.285     0.770     1.378

 Mol. C6AA /au·bohr⁶  :       1462.833178
 Mol. C8AA /au·bohr⁸  :      29854.819195
 Mol. α(0) /au        :         56.420562


Wiberg/Mayer (AO) data.
largest (>0.10) Wiberg bond orders for each atom

 ---------------------------------------------------------------------------
     #   Z sym  total        # sym  WBO       # sym  WBO       # sym  WBO
 ---------------------------------------------------------------------------
     1   6 C    3.997 --     2 C    1.019     6 H    0.988     7 H    0.988
                             8 H    0.987
     2   6 C    3.996 --     1 C    1.019     3 C    1.009     9 H    0.978
                            10 H    0.977
     3   6 C    3.997 --     2 C    1.009     4 C    0.998    12 H    0.976
                            11 H    0.975
     4   6 C    3.957 --     5 O    0.999     3 C    0.998    14 H    0.973
                            13 H    0.971
     5   8 O    1.960 --     4 C    0.999    15 H    0.904
     6   1 H    0.999 --     1 C    0.988
     7   1 H    0.999 --     1 C    0.988
     8   1 H    0.998 --     1 C    0.987
     9   1 H    0.999 --     2 C    0.978
    10   1 H    0.998 --     2 C    0.977
    11   1 H    0.999 --     3 C    0.975
    12   1 H    0.999 --     3 C    0.976
    13   1 H    1.000 --     4 C    0.971
    14   1 H    0.998 --     4 C    0.973
    15   1 H    0.919 --     5 O    0.904
 ---------------------------------------------------------------------------

Topologies differ in total number of bonds
Writing topology from bond orders to xtbtopo.mol

molecular dipole:
                 x           y           z       tot (Debye)
 q only:        0.268      -0.282       0.362
   full:        0.296      -0.442       0.532       1.911
molecular quadrupole (traceless):
                xx          xy          yy          xz          yz          zz
 q only:       -1.638       1.904       2.089      -2.028       0.798      -0.451
  q+dip:       -2.958       3.040       3.825      -3.236       0.757      -0.867
   full:       -2.668       2.975       3.501      -3.013       0.903      -0.833


           -------------------------------------------------
          | TOTAL ENERGY              -17.722898225370 Eh   |
          | GRADIENT NORM               0.005663216094 Eh/α |
          | HOMO-LUMO GAP              12.585984547507 eV   |
           -------------------------------------------------

------------------------------------------------------------------------
 * finished run on 2025/04/06 at 22:31:19.684     
------------------------------------------------------------------------
 total:
 * wall-time:     0 d,  0 h,  0 min,  0.080 sec
 *  cpu-time:     0 d,  0 h,  0 min,  0.015 sec
 * ratio c/w:     0.187 speedup
 SCF:
 * wall-time:     0 d,  0 h,  0 min,  0.007 sec
 *  cpu-time:     0 d,  0 h,  0 min,  0.006 sec
 * ratio c/w:     0.835 speedup

