      -----------------------------------------------------------      
     |                   =====================                   |     
     |                           x T B                           |     
     |                   =====================                   |     
     |                         S. Grimme                         |     
     |          Mulliken Center for Theoretical Chemistry        |     
     |                    University of Bonn                     |     
      -----------------------------------------------------------      

   * xtb version 6.7.1 (edcfbbe) compiled by 'albert@albert-system' on 2024-07-22

   xtb is free software: you can redistribute it and/or modify it under
   the terms of the GNU Lesser General Public License as published by
   the Free Software Foundation, either version 3 of the License, or
   (at your option) any later version.
   
   xtb is distributed in the hope that it will be useful,
   but WITHOUT ANY WARRANTY; without even the implied warranty of
   MERCHANTABILITY or FITNESS FOR A PARTICULAR PURPOSE.  See the
   GNU Lesser General Public License for more details.
   
   Cite this work as:
   * C. Bannwarth, E. Caldeweyher, S. Ehlert, A. Hansen, P. Pracht,
     J. Seibert, S. Spicher, S. Grimme, WIREs Comput. Mol. Sci., 2020, 11,
     e01493. DOI: 10.1002/wcms.1493
   
   for GFN2-xTB:
   * C. Bannwarth, S. Ehlert and S. Grimme., J. Chem. Theory Comput., 2019,
     15, 1652-1671. DOI: 10.1021/acs.jctc.8b01176
   for GFN1-xTB:
   * S. Grimme, C. Bannwarth, P. Shushkov, J. Chem. Theory Comput., 2017,
     13, 1989-2009. DOI: 10.1021/acs.jctc.7b00118
   for GFN0-xTB:
   * P. Pracht, E. Caldeweyher, S. Ehlert, S. Grimme, ChemRxiv, 2019, preprint.
     DOI: 10.26434/chemrxiv.8326202.v1
   for GFN-FF:
   * S. Spicher and S. Grimme, Angew. Chem. Int. Ed., 2020, 59, 15665-15673.
     DOI: 10.1002/anie.202004239
   
   for ALPB and GBSA implicit solvation:
   * S. Ehlert, M. Stahn, S. Spicher, S. Grimme, J. Chem. Theory Comput.,
     2021, 17, 4250-4261. DOI: 10.1021/acs.jctc.1c00471
   
   for ddCOSMO and CPCM-X implicit solvation:
   * M. Stahn, S. Ehlert, S. Grimme, J. Phys. Chem. A,
     2023, XX, XXXX-XXXX. DOI: 10.1021/acs.jpca.3c04382
   
   for DFT-D4:
   * E. Caldeweyher, C. Bannwarth and S. Grimme, J. Chem. Phys., 2017,
     147, 034112. DOI: 10.1063/1.4993215
   * E. Caldeweyher, S. Ehlert, A. Hansen, H. Neugebauer, S. Spicher,
     C. Bannwarth and S. Grimme, J. Chem. Phys., 2019, 150, 154122.
     DOI: 10.1063/1.5090222
   * E. Caldeweyher, J.-M. Mewes, S. Ehlert and S. Grimme, Phys. Chem. Chem. Phys.
     2020, 22, 8499-8512. DOI: 10.1039/D0CP00502A
   
   for sTDA-xTB:
   * S. Grimme and C. Bannwarth, J. Chem. Phys., 2016, 145, 054103.
     DOI: 10.1063/1.4959605
   
   in the mass-spec context:
   * V. Asgeirsson, C. Bauer and S. Grimme, Chem. Sci., 2017, 8, 4879.
     DOI: 10.1039/c7sc00601b
   * J. Koopman and S. Grimme, ACS Omega 2019, 4, 12, 15120-15133.
     DOI: 10.1021/acsomega.9b02011
   
   for metadynamics refer to:
   * S. Grimme, J. Chem. Theory Comput., 2019, 155, 2847-2862
     DOI: 10.1021/acs.jctc.9b00143
   
   for SPH calculations refer to:
   * S. Spicher and S. Grimme, J. Chem. Theory Comput., 2021, 17, 1701-1714
     DOI: 10.1021/acs.jctc.0c01306
   
   for ONIOM refer to:
   * C. Plett, A. Katbashev, S. Ehlert, S. Grimme, M. Bursch,
     Phys. Chem. Chem. Phys., 2023, 25, 17860-17868. DOI: 10.1039/D3CP02178E
   
   for DIPRO refer to:
   * J. Kohn, N. Gildemeister, S. Grimme, D. Fazzi, A. Hansen,
     J. Chem. Phys., 2023, just accepted.
   
   for PTB refer to:
   * S. Grimme, M. Mueller, A. Hansen, J. Chem. Phys., 2023, 158, 124111.
     DOI: 10.1063/5.0137838
   
   with help from (in alphabetical order)
   P. Atkinson, C. Bannwarth, F. Bohle, G. Brandenburg, E. Caldeweyher
   M. Checinski, S. Dohm, S. Ehlert, S. Ehrlich, I. Gerasimov, C. Hölzer
   A. Katbashev, J. Kohn, J. Koopman, C. Lavigne, S. Lehtola, F. März, M. Müller,
   F. Musil, H. Neugebauer, J. Pisarek, C. Plett, P. Pracht, F. Pultar,
   J. Seibert, P. Shushkov, S. Spicher, M. Stahn, M. Steiner, T. Strunk,
   J. Stückrath, T. Rose, and J. Unsleber
   
 * started run on 2025/04/06 at 22:31:19.724     
   ID    Z sym.   atoms
    1    6 C      1-4
    2    8 O      5
    3    1 H      6-15

           -------------------------------------------------
          |                Calculation Setup                |
           -------------------------------------------------

          program call               : /srv/scratch/z5358697/.xtb/bin/xtb solv.coord --gfn2 --sp --chrg 0 --norestart --parallel 1 --alpb water reference -I xtb_sp-xcontrol-inp
          hostname                   : k159
          coordinate file            : solv.coord
          omp threads                :                     1


           -------------------------------------------------
          |                 G F N 2 - x T B                 |
           -------------------------------------------------

        Reference                      10.1021/acs.jctc.8b01176
      * Hamiltonian:
        H0-scaling (s, p, d)           1.850000    2.230000    2.230000
        zeta-weighting                 0.500000
      * Dispersion:
        s8                             2.700000
        a1                             0.520000
        a2                             5.000000
        s9                             5.000000
      * Repulsion:
        kExp                           1.500000    1.000000
        rExp                           1.000000
      * Coulomb:
        alpha                          2.000000
        third order                    shell-resolved
        anisotropic                    true
        a3                             3.000000
        a5                             4.000000
        cn-shift                       1.200000
        cn-exp                         4.000000
        max-rad                        5.000000

      * Solvation model:               ALPB
        Solvent                        water
        Parameter file                 internal GFN2-xTB/ALPB
        Dielectric constant                8.0200E+01
        Reference state                gsolv=reference [X=1]
        Free energy shift                  2.8945E-03 Eh       1.8164E+00 kcal/mol
        Temperature                        2.9815E+02 K
        Density                            1.0000E+00 kg/L
        Solvent mass                       1.8000E+01 g/mol
        Interaction kernel             P16
        Born radius scaling (c1)           1.4744E+00
        Born radii integrator          GBOBC
        Born offset                        0.0000E+00 a0       0.0000E+00 AA
        H-bond correction              true
        Ion screening                  false
        Surface tension                    1.0000E-05 Eh       1.5569E+01 dyn/cm
        Grid points                               974 per atom

          ...................................................
          :                      SETUP                      :
          :.................................................:
          :  # basis functions                  30          :
          :  # atomic orbitals                  30          :
          :  # shells                           20          :
          :  # electrons                        32          :
          :  max. iterations                   250          :
          :  Hamiltonian                  GFN2-xTB          :
          :  restarted?                      false          :
          :  GBSA solvation                   true          :
          :  PC potential                    false          :
          :  electronic temp.          300.0000000     K    :
          :  accuracy                    1.0000000          :
          :  -> integral cutoff          0.2500000E+02      :
          :  -> integral neglect         0.1000000E-07      :
          :  -> SCF convergence          0.1000000E-05 Eh   :
          :  -> wf. convergence          0.1000000E-03 e    :
          :  Broyden damping             0.4000000          :
          :  net charge                          0          :
          :  unpaired electrons                  0          :
          ...................................................

 iter      E             dE          RMSdq      gap      omega  full diag
   1    -17.9156252 -0.179156E+02  0.331E+00   12.80       0.0  T
   2    -17.9407913 -0.251662E-01  0.176E+00   12.66       1.0  T
   3    -17.9415904 -0.799129E-03  0.614E-01   12.64       1.0  T
   4    -17.9417366 -0.146196E-03  0.111E-01   12.63       1.0  T
   5    -17.9417485 -0.119080E-04  0.620E-02   12.65       1.0  T
   6    -17.9417512 -0.262335E-05  0.124E-02   12.65       2.1  T
   7    -17.9417515 -0.292626E-06  0.601E-03   12.65       4.3  T
   8    -17.9417515 -0.673281E-07  0.223E-03   12.65      11.6  T
   9    -17.9417515 -0.734302E-08  0.586E-04   12.65      44.0  T
  10    -17.9417515 -0.107834E-08  0.192E-04   12.65     134.2  T

   *** convergence criteria satisfied after 10 iterations ***

         #    Occupation            Energy/Eh            Energy/eV
      -------------------------------------------------------------
         1        2.0000           -0.6871332             -18.6978
       ...           ...                  ...                  ...
        10        2.0000           -0.4851191             -13.2008
        11        2.0000           -0.4580046             -12.4629
        12        2.0000           -0.4557190             -12.4007
        13        2.0000           -0.4461523             -12.1404
        14        2.0000           -0.4307283             -11.7207
        15        2.0000           -0.4232229             -11.5165
        16        2.0000           -0.4074107             -11.0862 (HOMO)
        17                          0.0574407               1.5630 (LUMO)
        18                          0.0772096               2.1010
        19                          0.1182266               3.2171
        20                          0.1286345               3.5003
        21                          0.1532768               4.1709
       ...                                ...                  ...
        30                          0.3088899               8.4053
      -------------------------------------------------------------
                  HL-Gap            0.4648514 Eh           12.6492 eV
             Fermi-level           -0.1749850 Eh           -4.7616 eV

 SCC (total)                   0 d,  0 h,  0 min,  0.008 sec
 SCC setup                      ...        0 min,  0.001 sec (  9.047%)
 Dispersion                     ...        0 min,  0.000 sec (  0.720%)
 classical contributions        ...        0 min,  0.000 sec (  0.156%)
 integral evaluation            ...        0 min,  0.001 sec (  9.140%)
 iterations                     ...        0 min,  0.004 sec ( 56.877%)
 molecular gradient             ...        0 min,  0.002 sec ( 22.673%)
 printout                       ...        0 min,  0.000 sec (  1.256%)

         :::::::::::::::::::::::::::::::::::::::::::::::::::::
         ::                     SUMMARY                     ::
         :::::::::::::::::::::::::::::::::::::::::::::::::::::
         :: total energy             -17.727683112175 Eh    ::
         :: total w/o Gsasa/hb       -17.725688331179 Eh    ::
         :: gradient norm              0.000087873458 Eh/a0 ::
         :: HOMO-LUMO gap             12.649249457839 eV    ::
         ::.................................................::
         :: SCC energy               -17.941742080636 Eh    ::
         :: -> isotropic ES            0.035247017934 Eh    ::
         :: -> anisotropic ES          0.003288873254 Eh    ::
         :: -> anisotropic XC          0.006160558210 Eh    ::
         :: -> dispersion             -0.007027487336 Eh    ::
         :: -> Gsolv                  -0.006576919991 Eh    ::
         ::    -> Gelec               -0.004582138994 Eh    ::
         ::    -> Gsasa                0.000585617981 Eh    ::
         ::    -> Ghb                 -0.005474948138 Eh    ::
         ::    -> Gshift               0.002894549160 Eh    ::
         :: repulsion energy           0.214058968460 Eh    ::
         :: add. restraining           0.000000000000 Eh    ::
         :: total charge               0.000000000000 e     ::
         :::::::::::::::::::::::::::::::::::::::::::::::::::::

           -------------------------------------------------
          |                Property Printout                |
           -------------------------------------------------

    * Orbital Energies and Occupations

         #    Occupation            Energy/Eh            Energy/eV
      -------------------------------------------------------------
         1        2.0000           -0.6871332             -18.6978
       ...           ...                  ...                  ...
         4        2.0000           -0.5878273             -15.9956
         5        2.0000           -0.5652125             -15.3802
         6        2.0000           -0.5421167             -14.7517
         7        2.0000           -0.5302857             -14.4298
         8        2.0000           -0.5160979             -14.0437
         9        2.0000           -0.4993638             -13.5884
        10        2.0000           -0.4851191             -13.2008
        11        2.0000           -0.4580046             -12.4629
        12        2.0000           -0.4557190             -12.4007
        13        2.0000           -0.4461523             -12.1404
        14        2.0000           -0.4307283             -11.7207
        15        2.0000           -0.4232229             -11.5165
        16        2.0000           -0.4074107             -11.0862 (HOMO)
        17                          0.0574407               1.5630 (LUMO)
        18                          0.0772096               2.1010
        19                          0.1182266               3.2171
        20                          0.1286345               3.5003
        21                          0.1532768               4.1709
        22                          0.1599671               4.3529
        23                          0.1753282               4.7709
        24                          0.1826814               4.9710
        25                          0.1901112               5.1732
        26                          0.2362525               6.4288
        27                          0.2480186               6.7489
       ...                                ...                  ...
        30                          0.3088899               8.4053
      -------------------------------------------------------------
                  HL-Gap            0.4648514 Eh           12.6492 eV
             Fermi-level           -0.1749850 Eh           -4.7616 eV

     #   Z          covCN         q      C6AA      α(0)
     1   6 C        3.752    -0.113    22.723     6.798
     2   6 C        3.801    -0.058    21.609     6.618
     3   6 C        3.801    -0.076    21.954     6.671
     4   6 C        3.674     0.078    19.497     6.327
     5   8 O        1.654    -0.518    23.273     6.512
     6   1 H        0.925     0.038     2.474     2.460
     7   1 H        0.925     0.038     2.470     2.458
     8   1 H        0.925     0.039     2.462     2.454
     9   1 H        0.924     0.031     2.566     2.505
    10   1 H        0.924     0.040     2.449     2.447
    11   1 H        0.924     0.043     2.411     2.428
    12   1 H        0.924     0.041     2.438     2.442
    13   1 H        0.923     0.021     2.722     2.580
    14   1 H        0.924     0.042     2.418     2.432
    15   1 H        0.805     0.352     0.583     1.200

 Mol. C6AA /au·bohr⁶  :       1460.517549
 Mol. C8AA /au·bohr⁸  :      29904.615184
 Mol. α(0) /au        :         56.331387


Wiberg/Mayer (AO) data.
largest (>0.10) Wiberg bond orders for each atom

 ---------------------------------------------------------------------------
     #   Z sym  total        # sym  WBO       # sym  WBO       # sym  WBO
 ---------------------------------------------------------------------------
     1   6 C    3.996 --     2 C    1.019     6 H    0.988     7 H    0.988
                             8 H    0.987
     2   6 C    3.997 --     1 C    1.019     3 C    1.009     9 H    0.978
                            10 H    0.977
     3   6 C    3.996 --     2 C    1.009     4 C    0.998    12 H    0.976
                            11 H    0.975
     4   6 C    3.953 --     3 C    0.998     5 O    0.994    14 H    0.973
                            13 H    0.971
     5   8 O    1.913 --     4 C    0.994    15 H    0.862
     6   1 H    0.999 --     1 C    0.988
     7   1 H    0.999 --     1 C    0.988
     8   1 H    0.998 --     1 C    0.987
     9   1 H    0.999 --     2 C    0.978
    10   1 H    0.998 --     2 C    0.977
    11   1 H    0.998 --     3 C    0.975
    12   1 H    0.998 --     3 C    0.976
    13   1 H    0.999 --     4 C    0.971
    14   1 H    0.998 --     4 C    0.973
    15   1 H    0.876 --     5 O    0.862
 ---------------------------------------------------------------------------

Topologies differ in total number of bonds
Writing topology from bond orders to xtbtopo.mol

molecular dipole:
                 x           y           z       tot (Debye)
 q only:        0.306      -0.447       0.446
   full:        0.318      -0.547       0.582       2.186
molecular quadrupole (traceless):
                xx          xy          yy          xz          yz          zz
 q only:       -1.716       2.562       2.324      -2.150       0.943      -0.607
  q+dip:       -3.030       3.476       4.017      -3.302       0.843      -0.987
   full:       -2.730       3.411       3.679      -3.074       0.997      -0.948


           -------------------------------------------------
          | TOTAL ENERGY              -17.727683112175 Eh   |
          | GRADIENT NORM               0.000087873458 Eh/α |
          | HOMO-LUMO GAP              12.649249457839 eV   |
           -------------------------------------------------

------------------------------------------------------------------------
 * finished run on 2025/04/06 at 22:31:19.760     
------------------------------------------------------------------------
 total:
 * wall-time:     0 d,  0 h,  0 min,  0.035 sec
 *  cpu-time:     0 d,  0 h,  0 min,  0.012 sec
 * ratio c/w:     0.339 speedup
 SCF:
 * wall-time:     0 d,  0 h,  0 min,  0.008 sec
 *  cpu-time:     0 d,  0 h,  0 min,  0.007 sec
 * ratio c/w:     0.837 speedup

