15
 xtb: 6.7.1 (edcfbbe)
C            1.81172338773690        0.66508601080709       -0.28880475152785
C            1.02466119868034       -0.23209144681492        0.65048326302513
O           -0.00008418110599       -1.00585696884924       -0.00006880455957
C           -1.02477411704714       -0.23203867960911       -0.65065883329221
C           -1.81164741970806        0.66539036114073        0.28855965601248
H            2.21270595671546        0.09143192195612       -1.13106359541097
H            1.20772169602651        1.48948039118006       -0.67948729474156
H            2.65326298044558        1.10161123000151        0.25924486012912
H            0.59066838986214        0.35658700787222        1.47099948026734
H            1.68778734548922       -0.98006711611235        1.09721034439668
H           -0.59076609663230        0.35646850100489       -1.47130038391929
H           -1.68803861436008       -0.97999055501060       -1.09722751383204
H           -2.65327644872409        1.10178782044347       -0.25942914477137
H           -2.21247687612338        0.09195457387679        1.13103763126331
H           -1.20756236391918        1.48986206509307        0.67893860007343
