      -----------------------------------------------------------      
     |                   =====================                   |     
     |                           x T B                           |     
     |                   =====================                   |     
     |                         S. Grimme                         |     
     |          Mulliken Center for Theoretical Chemistry        |     
     |                    University of Bonn                     |     
      -----------------------------------------------------------      

   * xtb version 6.7.1 (edcfbbe) compiled by 'albert@albert-system' on 2024-07-22

   xtb is free software: you can redistribute it and/or modify it under
   the terms of the GNU Lesser General Public License as published by
   the Free Software Foundation, either version 3 of the License, or
   (at your option) any later version.
   
   xtb is distributed in the hope that it will be useful,
   but WITHOUT ANY WARRANTY; without even the implied warranty of
   MERCHANTABILITY or FITNESS FOR A PARTICULAR PURPOSE.  See the
   GNU Lesser General Public License for more details.
   
   Cite this work as:
   * C. Bannwarth, E. Caldeweyher, S. Ehlert, A. Hansen, P. Pracht,
     J. Seibert, S. Spicher, S. Grimme, WIREs Comput. Mol. Sci., 2020, 11,
     e01493. DOI: 10.1002/wcms.1493
   
   for GFN2-xTB:
   * C. Bannwarth, S. Ehlert and S. Grimme., J. Chem. Theory Comput., 2019,
     15, 1652-1671. DOI: 10.1021/acs.jctc.8b01176
   for GFN1-xTB:
   * S. Grimme, C. Bannwarth, P. Shushkov, J. Chem. Theory Comput., 2017,
     13, 1989-2009. DOI: 10.1021/acs.jctc.7b00118
   for GFN0-xTB:
   * P. Pracht, E. Caldeweyher, S. Ehlert, S. Grimme, ChemRxiv, 2019, preprint.
     DOI: 10.26434/chemrxiv.8326202.v1
   for GFN-FF:
   * S. Spicher and S. Grimme, Angew. Chem. Int. Ed., 2020, 59, 15665-15673.
     DOI: 10.1002/anie.202004239
   
   for ALPB and GBSA implicit solvation:
   * S. Ehlert, M. Stahn, S. Spicher, S. Grimme, J. Chem. Theory Comput.,
     2021, 17, 4250-4261. DOI: 10.1021/acs.jctc.1c00471
   
   for ddCOSMO and CPCM-X implicit solvation:
   * M. Stahn, S. Ehlert, S. Grimme, J. Phys. Chem. A,
     2023, XX, XXXX-XXXX. DOI: 10.1021/acs.jpca.3c04382
   
   for DFT-D4:
   * E. Caldeweyher, C. Bannwarth and S. Grimme, J. Chem. Phys., 2017,
     147, 034112. DOI: 10.1063/1.4993215
   * E. Caldeweyher, S. Ehlert, A. Hansen, H. Neugebauer, S. Spicher,
     C. Bannwarth and S. Grimme, J. Chem. Phys., 2019, 150, 154122.
     DOI: 10.1063/1.5090222
   * E. Caldeweyher, J.-M. Mewes, S. Ehlert and S. Grimme, Phys. Chem. Chem. Phys.
     2020, 22, 8499-8512. DOI: 10.1039/D0CP00502A
   
   for sTDA-xTB:
   * S. Grimme and C. Bannwarth, J. Chem. Phys., 2016, 145, 054103.
     DOI: 10.1063/1.4959605
   
   in the mass-spec context:
   * V. Asgeirsson, C. Bauer and S. Grimme, Chem. Sci., 2017, 8, 4879.
     DOI: 10.1039/c7sc00601b
   * J. Koopman and S. Grimme, ACS Omega 2019, 4, 12, 15120-15133.
     DOI: 10.1021/acsomega.9b02011
   
   for metadynamics refer to:
   * S. Grimme, J. Chem. Theory Comput., 2019, 155, 2847-2862
     DOI: 10.1021/acs.jctc.9b00143
   
   for SPH calculations refer to:
   * S. Spicher and S. Grimme, J. Chem. Theory Comput., 2021, 17, 1701-1714
     DOI: 10.1021/acs.jctc.0c01306
   
   for ONIOM refer to:
   * C. Plett, A. Katbashev, S. Ehlert, S. Grimme, M. Bursch,
     Phys. Chem. Chem. Phys., 2023, 25, 17860-17868. DOI: 10.1039/D3CP02178E
   
   for DIPRO refer to:
   * J. Kohn, N. Gildemeister, S. Grimme, D. Fazzi, A. Hansen,
     J. Chem. Phys., 2023, just accepted.
   
   for PTB refer to:
   * S. Grimme, M. Mueller, A. Hansen, J. Chem. Phys., 2023, 158, 124111.
     DOI: 10.1063/5.0137838
   
   with help from (in alphabetical order)
   P. Atkinson, C. Bannwarth, F. Bohle, G. Brandenburg, E. Caldeweyher
   M. Checinski, S. Dohm, S. Ehlert, S. Ehrlich, I. Gerasimov, C. Hölzer
   A. Katbashev, J. Kohn, J. Koopman, C. Lavigne, S. Lehtola, F. März, M. Müller,
   F. Musil, H. Neugebauer, J. Pisarek, C. Plett, P. Pracht, F. Pultar,
   J. Seibert, P. Shushkov, S. Spicher, M. Stahn, M. Steiner, T. Strunk,
   J. Stückrath, T. Rose, and J. Unsleber
   
 * started run on 2025/04/07 at 00:46:57.497     
   ID    Z sym.   atoms
    1    6 C      1-6, 8
    2    8 O      7, 9
    3    1 H      10-15

           -------------------------------------------------
          |                Calculation Setup                |
           -------------------------------------------------

          program call               : /srv/scratch/z5358697/.xtb/bin/xtb gas.coord --gfn2 --sp --chrg 0 --norestart --parallel 1
          hostname                   : k157
          coordinate file            : gas.coord
          omp threads                :                     1


           -------------------------------------------------
          |                 G F N 2 - x T B                 |
           -------------------------------------------------

        Reference                      10.1021/acs.jctc.8b01176
      * Hamiltonian:
        H0-scaling (s, p, d)           1.850000    2.230000    2.230000
        zeta-weighting                 0.500000
      * Dispersion:
        s8                             2.700000
        a1                             0.520000
        a2                             5.000000
        s9                             5.000000
      * Repulsion:
        kExp                           1.500000    1.000000
        rExp                           1.000000
      * Coulomb:
        alpha                          2.000000
        third order                    shell-resolved
        anisotropic                    true
        a3                             3.000000
        a5                             4.000000
        cn-shift                       1.200000
        cn-exp                         4.000000
        max-rad                        5.000000


          ...................................................
          :                      SETUP                      :
          :.................................................:
          :  # basis functions                  42          :
          :  # atomic orbitals                  42          :
          :  # shells                           24          :
          :  # electrons                        46          :
          :  max. iterations                   250          :
          :  Hamiltonian                  GFN2-xTB          :
          :  restarted?                      false          :
          :  GBSA solvation                  false          :
          :  PC potential                    false          :
          :  electronic temp.          300.0000000     K    :
          :  accuracy                    1.0000000          :
          :  -> integral cutoff          0.2500000E+02      :
          :  -> integral neglect         0.1000000E-07      :
          :  -> SCF convergence          0.1000000E-05 Eh   :
          :  -> wf. convergence          0.1000000E-03 e    :
          :  Broyden damping             0.4000000          :
          :  net charge                          0          :
          :  unpaired electrons                  0          :
          ...................................................

 iter      E             dE          RMSdq      gap      omega  full diag
   1    -26.4869654 -0.264870E+02  0.541E+00    4.55       0.0  T
   2    -26.5324322 -0.454668E-01  0.308E+00    4.21       1.0  T
   3    -26.5317295  0.702714E-03  0.154E+00    4.36       1.0  T
   4    -26.5383651 -0.663559E-02  0.299E-01    4.20       1.0  T
   5    -26.5389583 -0.593239E-03  0.911E-02    4.19       1.0  T
   6    -26.5390102 -0.519452E-04  0.386E-02    4.20       1.0  T
   7    -26.5390130 -0.276634E-05  0.126E-02    4.21       2.1  T
   8    -26.5390138 -0.766534E-06  0.493E-03    4.21       5.2  T
   9    -26.5390139 -0.822074E-07  0.172E-03    4.21      15.0  T
  10    -26.5390139 -0.255730E-07  0.604E-04    4.21      42.8  T
  11    -26.5390139 -0.120241E-08  0.298E-04    4.21      86.7  T

   *** convergence criteria satisfied after 11 iterations ***

         #    Occupation            Energy/Eh            Energy/eV
      -------------------------------------------------------------
         1        2.0000           -0.7615843             -20.7238
       ...           ...                  ...                  ...
        17        2.0000           -0.4913745             -13.3710
        18        2.0000           -0.4796211             -13.0512
        19        2.0000           -0.4562012             -12.4139
        20        2.0000           -0.4409319             -11.9984
        21        2.0000           -0.4257841             -11.5862
        22        2.0000           -0.4217699             -11.4769
        23        2.0000           -0.4144940             -11.2790 (HOMO)
        24                         -0.2597876              -7.0692 (LUMO)
        25                         -0.2415598              -6.5732
        26                         -0.2230951              -6.0707
        27                         -0.1078005              -2.9334
        28                          0.0041770               0.1137
       ...                                ...                  ...
        42                          0.6643891              18.0789
      -------------------------------------------------------------
                  HL-Gap            0.1547064 Eh            4.2098 eV
             Fermi-level           -0.3371408 Eh           -9.1741 eV

 SCC (total)                   0 d,  0 h,  0 min,  0.015 sec
 SCC setup                      ...        0 min,  0.000 sec (  1.509%)
 Dispersion                     ...        0 min,  0.000 sec (  0.628%)
 classical contributions        ...        0 min,  0.000 sec (  0.124%)
 integral evaluation            ...        0 min,  0.001 sec (  9.839%)
 iterations                     ...        0 min,  0.006 sec ( 43.541%)
 molecular gradient             ...        0 min,  0.006 sec ( 43.090%)
 printout                       ...        0 min,  0.000 sec (  1.135%)

         :::::::::::::::::::::::::::::::::::::::::::::::::::::
         ::                     SUMMARY                     ::
         :::::::::::::::::::::::::::::::::::::::::::::::::::::
         :: total energy             -26.162351372583 Eh    ::
         :: gradient norm              0.025357249322 Eh/a0 ::
         :: HOMO-LUMO gap              4.209775537697 eV    ::
         ::.................................................::
         :: SCC energy               -26.539000808729 Eh    ::
         :: -> isotropic ES            0.038813268513 Eh    ::
         :: -> anisotropic ES          0.000704053326 Eh    ::
         :: -> anisotropic XC          0.008778655767 Eh    ::
         :: -> dispersion             -0.011635850480 Eh    ::
         :: repulsion energy           0.376649436146 Eh    ::
         :: add. restraining           0.000000000000 Eh    ::
         :: total charge              -0.000000000000 e     ::
         :::::::::::::::::::::::::::::::::::::::::::::::::::::

           -------------------------------------------------
          |                Property Printout                |
           -------------------------------------------------

    * Orbital Energies and Occupations

         #    Occupation            Energy/Eh            Energy/eV
      -------------------------------------------------------------
         1        2.0000           -0.7615843             -20.7238
       ...           ...                  ...                  ...
        11        2.0000           -0.5686148             -15.4728
        12        2.0000           -0.5349511             -14.5568
        13        2.0000           -0.5214338             -14.1889
        14        2.0000           -0.5162303             -14.0473
        15        2.0000           -0.5034966             -13.7008
        16        2.0000           -0.4940697             -13.4443
        17        2.0000           -0.4913745             -13.3710
        18        2.0000           -0.4796211             -13.0512
        19        2.0000           -0.4562012             -12.4139
        20        2.0000           -0.4409319             -11.9984
        21        2.0000           -0.4257841             -11.5862
        22        2.0000           -0.4217699             -11.4769
        23        2.0000           -0.4144940             -11.2790 (HOMO)
        24                         -0.2597876              -7.0692 (LUMO)
        25                         -0.2415598              -6.5732
        26                         -0.2230951              -6.0707
        27                         -0.1078005              -2.9334
        28                          0.0041770               0.1137
        29                          0.1145295               3.1165
        30                          0.1361929               3.7060
        31                          0.1576375               4.2895
        32                          0.1659833               4.5166
        33                          0.1797377               4.8909
        34                          0.1891849               5.1480
       ...                                ...                  ...
        42                          0.6643891              18.0789
      -------------------------------------------------------------
                  HL-Gap            0.1547064 Eh            4.2098 eV
             Fermi-level           -0.3371408 Eh           -9.1741 eV

     #   Z          covCN         q      C6AA      α(0)
     1   6 C        2.919    -0.031    28.772     8.796
     2   6 C        2.922    -0.026    28.664     8.780
     3   6 C        2.918    -0.043    29.073     8.842
     4   6 C        2.867     0.141    24.930     8.185
     5   6 C        2.916    -0.042    29.040     8.837
     6   6 C        2.923    -0.026    28.658     8.779
     7   8 O        1.706    -0.229    17.803     5.697
     8   6 C        2.652     0.340    21.233     7.539
     9   8 O        0.856    -0.378    21.256     6.181
    10   1 H        0.926     0.045     2.381     2.413
    11   1 H        0.926     0.047     2.357     2.401
    12   1 H        0.926     0.056     2.244     2.343
    13   1 H        0.926     0.069     2.098     2.265
    14   1 H        0.926     0.049     2.336     2.390
    15   1 H        0.923     0.030     2.583     2.513

 Mol. C6AA /au·bohr⁶  :       2950.666995
 Mol. C8AA /au·bohr⁸  :      71292.592934
 Mol. α(0) /au        :         85.959719


Wiberg/Mayer (AO) data.
largest (>0.10) Wiberg bond orders for each atom

 ---------------------------------------------------------------------------
     #   Z sym  total        # sym  WBO       # sym  WBO       # sym  WBO
 ---------------------------------------------------------------------------
     1   6 C    3.992 --     6 C    1.445     2 C    1.432    10 H    0.970
                             4 C    0.102
     2   6 C    3.991 --     3 C    1.452     1 C    1.432    11 H    0.970
                             5 C    0.110
     3   6 C    3.989 --     2 C    1.452     4 C    1.385    12 H    0.967
                             6 C    0.112
     4   6 C    3.907 --     5 C    1.403     3 C    1.385     7 O    0.951
                             1 C    0.102
     5   6 C    3.988 --     6 C    1.435     4 C    1.403    13 H    0.965
                             2 C    0.110
     6   6 C    3.991 --     1 C    1.445     5 C    1.435    14 H    0.970
                             3 C    0.112
     7   8 O    2.393 --     8 C    1.173     4 C    0.951     9 O    0.185
     8   6 C    3.921 --     9 O    1.789     7 O    1.173    15 H    0.915
     9   8 O    2.061 --     8 C    1.789     7 O    0.185
    10   1 H    0.998 --     1 C    0.970
    11   1 H    0.997 --     2 C    0.970
    12   1 H    0.997 --     3 C    0.967
    13   1 H    0.995 --     5 C    0.965
    14   1 H    0.998 --     6 C    0.970
    15   1 H    0.998 --     8 C    0.915
 ---------------------------------------------------------------------------

Topologies differ in total number of bonds
Writing topology from bond orders to xtbtopo.mol

molecular dipole:
                 x           y           z       tot (Debye)
 q only:       -0.939      -0.426       0.270
   full:       -0.808      -0.572       0.334       2.655
molecular quadrupole (traceless):
                xx          xy          yy          xz          yz          zz
 q only:        0.307      -4.332       1.010       2.624       1.724      -1.318
  q+dip:        1.374      -5.930       2.619       4.211       3.055      -3.993
   full:        0.297      -5.816       0.860       3.594       2.904      -1.157


           -------------------------------------------------
          | TOTAL ENERGY              -26.162351372583 Eh   |
          | GRADIENT NORM               0.025357249322 Eh/α |
          | HOMO-LUMO GAP               4.209775537697 eV   |
           -------------------------------------------------

------------------------------------------------------------------------
 * finished run on 2025/04/07 at 00:46:57.577     
------------------------------------------------------------------------
 total:
 * wall-time:     0 d,  0 h,  0 min,  0.080 sec
 *  cpu-time:     0 d,  0 h,  0 min,  0.022 sec
 * ratio c/w:     0.270 speedup
 SCF:
 * wall-time:     0 d,  0 h,  0 min,  0.015 sec
 *  cpu-time:     0 d,  0 h,  0 min,  0.012 sec
 * ratio c/w:     0.783 speedup

