      -----------------------------------------------------------      
     |                   =====================                   |     
     |                           x T B                           |     
     |                   =====================                   |     
     |                         S. Grimme                         |     
     |          Mulliken Center for Theoretical Chemistry        |     
     |                    University of Bonn                     |     
      -----------------------------------------------------------      

   * xtb version 6.7.1 (edcfbbe) compiled by 'albert@albert-system' on 2024-07-22

   xtb is free software: you can redistribute it and/or modify it under
   the terms of the GNU Lesser General Public License as published by
   the Free Software Foundation, either version 3 of the License, or
   (at your option) any later version.
   
   xtb is distributed in the hope that it will be useful,
   but WITHOUT ANY WARRANTY; without even the implied warranty of
   MERCHANTABILITY or FITNESS FOR A PARTICULAR PURPOSE.  See the
   GNU Lesser General Public License for more details.
   
   Cite this work as:
   * C. Bannwarth, E. Caldeweyher, S. Ehlert, A. Hansen, P. Pracht,
     J. Seibert, S. Spicher, S. Grimme, WIREs Comput. Mol. Sci., 2020, 11,
     e01493. DOI: 10.1002/wcms.1493
   
   for GFN2-xTB:
   * C. Bannwarth, S. Ehlert and S. Grimme., J. Chem. Theory Comput., 2019,
     15, 1652-1671. DOI: 10.1021/acs.jctc.8b01176
   for GFN1-xTB:
   * S. Grimme, C. Bannwarth, P. Shushkov, J. Chem. Theory Comput., 2017,
     13, 1989-2009. DOI: 10.1021/acs.jctc.7b00118
   for GFN0-xTB:
   * P. Pracht, E. Caldeweyher, S. Ehlert, S. Grimme, ChemRxiv, 2019, preprint.
     DOI: 10.26434/chemrxiv.8326202.v1
   for GFN-FF:
   * S. Spicher and S. Grimme, Angew. Chem. Int. Ed., 2020, 59, 15665-15673.
     DOI: 10.1002/anie.202004239
   
   for ALPB and GBSA implicit solvation:
   * S. Ehlert, M. Stahn, S. Spicher, S. Grimme, J. Chem. Theory Comput.,
     2021, 17, 4250-4261. DOI: 10.1021/acs.jctc.1c00471
   
   for ddCOSMO and CPCM-X implicit solvation:
   * M. Stahn, S. Ehlert, S. Grimme, J. Phys. Chem. A,
     2023, XX, XXXX-XXXX. DOI: 10.1021/acs.jpca.3c04382
   
   for DFT-D4:
   * E. Caldeweyher, C. Bannwarth and S. Grimme, J. Chem. Phys., 2017,
     147, 034112. DOI: 10.1063/1.4993215
   * E. Caldeweyher, S. Ehlert, A. Hansen, H. Neugebauer, S. Spicher,
     C. Bannwarth and S. Grimme, J. Chem. Phys., 2019, 150, 154122.
     DOI: 10.1063/1.5090222
   * E. Caldeweyher, J.-M. Mewes, S. Ehlert and S. Grimme, Phys. Chem. Chem. Phys.
     2020, 22, 8499-8512. DOI: 10.1039/D0CP00502A
   
   for sTDA-xTB:
   * S. Grimme and C. Bannwarth, J. Chem. Phys., 2016, 145, 054103.
     DOI: 10.1063/1.4959605
   
   in the mass-spec context:
   * V. Asgeirsson, C. Bauer and S. Grimme, Chem. Sci., 2017, 8, 4879.
     DOI: 10.1039/c7sc00601b
   * J. Koopman and S. Grimme, ACS Omega 2019, 4, 12, 15120-15133.
     DOI: 10.1021/acsomega.9b02011
   
   for metadynamics refer to:
   * S. Grimme, J. Chem. Theory Comput., 2019, 155, 2847-2862
     DOI: 10.1021/acs.jctc.9b00143
   
   for SPH calculations refer to:
   * S. Spicher and S. Grimme, J. Chem. Theory Comput., 2021, 17, 1701-1714
     DOI: 10.1021/acs.jctc.0c01306
   
   for ONIOM refer to:
   * C. Plett, A. Katbashev, S. Ehlert, S. Grimme, M. Bursch,
     Phys. Chem. Chem. Phys., 2023, 25, 17860-17868. DOI: 10.1039/D3CP02178E
   
   for DIPRO refer to:
   * J. Kohn, N. Gildemeister, S. Grimme, D. Fazzi, A. Hansen,
     J. Chem. Phys., 2023, just accepted.
   
   for PTB refer to:
   * S. Grimme, M. Mueller, A. Hansen, J. Chem. Phys., 2023, 158, 124111.
     DOI: 10.1063/5.0137838
   
   with help from (in alphabetical order)
   P. Atkinson, C. Bannwarth, F. Bohle, G. Brandenburg, E. Caldeweyher
   M. Checinski, S. Dohm, S. Ehlert, S. Ehrlich, I. Gerasimov, C. Hölzer
   A. Katbashev, J. Kohn, J. Koopman, C. Lavigne, S. Lehtola, F. März, M. Müller,
   F. Musil, H. Neugebauer, J. Pisarek, C. Plett, P. Pracht, F. Pultar,
   J. Seibert, P. Shushkov, S. Spicher, M. Stahn, M. Steiner, T. Strunk,
   J. Stückrath, T. Rose, and J. Unsleber
   
 * started run on 2025/04/07 at 00:46:57.615     
   ID    Z sym.   atoms
    1    6 C      1-6, 8
    2    8 O      7, 9
    3    1 H      10-15

           -------------------------------------------------
          |                Calculation Setup                |
           -------------------------------------------------

          program call               : /srv/scratch/z5358697/.xtb/bin/xtb solv.coord --gfn2 --sp --chrg 0 --norestart --parallel 1 --alpb water reference -I xtb_sp-xcontrol-inp
          hostname                   : k157
          coordinate file            : solv.coord
          omp threads                :                     1


           -------------------------------------------------
          |                 G F N 2 - x T B                 |
           -------------------------------------------------

        Reference                      10.1021/acs.jctc.8b01176
      * Hamiltonian:
        H0-scaling (s, p, d)           1.850000    2.230000    2.230000
        zeta-weighting                 0.500000
      * Dispersion:
        s8                             2.700000
        a1                             0.520000
        a2                             5.000000
        s9                             5.000000
      * Repulsion:
        kExp                           1.500000    1.000000
        rExp                           1.000000
      * Coulomb:
        alpha                          2.000000
        third order                    shell-resolved
        anisotropic                    true
        a3                             3.000000
        a5                             4.000000
        cn-shift                       1.200000
        cn-exp                         4.000000
        max-rad                        5.000000

      * Solvation model:               ALPB
        Solvent                        water
        Parameter file                 internal GFN2-xTB/ALPB
        Dielectric constant                8.0200E+01
        Reference state                gsolv=reference [X=1]
        Free energy shift                  2.8945E-03 Eh       1.8164E+00 kcal/mol
        Temperature                        2.9815E+02 K
        Density                            1.0000E+00 kg/L
        Solvent mass                       1.8000E+01 g/mol
        Interaction kernel             P16
        Born radius scaling (c1)           1.4744E+00
        Born radii integrator          GBOBC
        Born offset                        0.0000E+00 a0       0.0000E+00 AA
        H-bond correction              true
        Ion screening                  false
        Surface tension                    1.0000E-05 Eh       1.5569E+01 dyn/cm
        Grid points                               974 per atom

          ...................................................
          :                      SETUP                      :
          :.................................................:
          :  # basis functions                  42          :
          :  # atomic orbitals                  42          :
          :  # shells                           24          :
          :  # electrons                        46          :
          :  max. iterations                   250          :
          :  Hamiltonian                  GFN2-xTB          :
          :  restarted?                      false          :
          :  GBSA solvation                   true          :
          :  PC potential                    false          :
          :  electronic temp.          300.0000000     K    :
          :  accuracy                    1.0000000          :
          :  -> integral cutoff          0.2500000E+02      :
          :  -> integral neglect         0.1000000E-07      :
          :  -> SCF convergence          0.1000000E-05 Eh   :
          :  -> wf. convergence          0.1000000E-03 e    :
          :  Broyden damping             0.4000000          :
          :  net charge                          0          :
          :  unpaired electrons                  0          :
          ...................................................

 iter      E             dE          RMSdq      gap      omega  full diag
   1    -26.4953717 -0.264954E+02  0.557E+00    4.36       0.0  T
   2    -26.5381341 -0.427624E-01  0.306E+00    3.85       1.0  T
   3    -26.5374952  0.638891E-03  0.136E+00    4.13       1.0  T
   4    -26.5410598 -0.356462E-02  0.296E-01    4.02       1.0  T
   5    -26.5416883 -0.628472E-03  0.827E-02    3.97       1.0  T
   6    -26.5417071 -0.188172E-04  0.377E-02    3.96       1.0  T
   7    -26.5417105 -0.341047E-05  0.153E-02    3.96       1.7  T
   8    -26.5417114 -0.849137E-06  0.527E-03    3.96       4.9  T
   9    -26.5417115 -0.890319E-07  0.363E-03    3.96       7.1  T
  10    -26.5417116 -0.985050E-07  0.106E-03    3.96      24.3  T
  11    -26.5417116 -0.485960E-08  0.395E-04    3.96      65.3  T
  12    -26.5417116 -0.618545E-09  0.263E-04    3.96      98.3  T

   *** convergence criteria satisfied after 12 iterations ***

         #    Occupation            Energy/Eh            Energy/eV
      -------------------------------------------------------------
         1        2.0000           -0.7680818             -20.9006
       ...           ...                  ...                  ...
        17        2.0000           -0.4870066             -13.2521
        18        2.0000           -0.4792072             -13.0399
        19        2.0000           -0.4549400             -12.3795
        20        2.0000           -0.4375824             -11.9072
        21        2.0000           -0.4278270             -11.6418
        22        2.0000           -0.4172508             -11.3540
        23        2.0000           -0.4113855             -11.1944 (HOMO)
        24                         -0.2660263              -7.2389 (LUMO)
        25                         -0.2360401              -6.4230
        26                         -0.2229925              -6.0679
        27                         -0.1027791              -2.7968
        28                          0.0041384               0.1126
       ...                                ...                  ...
        42                          0.6654276              18.1072
      -------------------------------------------------------------
                  HL-Gap            0.1453591 Eh            3.9554 eV
             Fermi-level           -0.3387059 Eh           -9.2167 eV

 SCC (total)                   0 d,  0 h,  0 min,  0.013 sec
 SCC setup                      ...        0 min,  0.001 sec (  7.243%)
 Dispersion                     ...        0 min,  0.000 sec (  0.788%)
 classical contributions        ...        0 min,  0.000 sec (  0.167%)
 integral evaluation            ...        0 min,  0.001 sec ( 11.630%)
 iterations                     ...        0 min,  0.006 sec ( 50.732%)
 molecular gradient             ...        0 min,  0.004 sec ( 28.226%)
 printout                       ...        0 min,  0.000 sec (  1.083%)

         :::::::::::::::::::::::::::::::::::::::::::::::::::::
         ::                     SUMMARY                     ::
         :::::::::::::::::::::::::::::::::::::::::::::::::::::
         :: total energy             -26.165049064594 Eh    ::
         :: total w/o Gsasa/hb       -26.167392962970 Eh    ::
         :: gradient norm              0.000094430746 Eh/a0 ::
         :: HOMO-LUMO gap              3.955423493097 eV    ::
         ::.................................................::
         :: SCC energy               -26.541698500740 Eh    ::
         :: -> isotropic ES            0.047336027417 Eh    ::
         :: -> anisotropic ES         -0.000552875818 Eh    ::
         :: -> anisotropic XC          0.009116888540 Eh    ::
         :: -> dispersion             -0.011572005386 Eh    ::
         :: -> Gsolv                  -0.004391851700 Eh    ::
         ::    -> Gelec               -0.006735750075 Eh    ::
         ::    -> Gsasa                0.001164636932 Eh    ::
         ::    -> Ghb                 -0.001715287718 Eh    ::
         ::    -> Gshift               0.002894549160 Eh    ::
         :: repulsion energy           0.376649436146 Eh    ::
         :: add. restraining           0.000000000000 Eh    ::
         :: total charge              -0.000000000000 e     ::
         :::::::::::::::::::::::::::::::::::::::::::::::::::::

           -------------------------------------------------
          |                Property Printout                |
           -------------------------------------------------

    * Orbital Energies and Occupations

         #    Occupation            Energy/Eh            Energy/eV
      -------------------------------------------------------------
         1        2.0000           -0.7680818             -20.9006
       ...           ...                  ...                  ...
        11        2.0000           -0.5668032             -15.4235
        12        2.0000           -0.5318366             -14.4720
        13        2.0000           -0.5245330             -14.2733
        14        2.0000           -0.5195285             -14.1371
        15        2.0000           -0.4971868             -13.5291
        16        2.0000           -0.4907122             -13.3530
        17        2.0000           -0.4870066             -13.2521
        18        2.0000           -0.4792072             -13.0399
        19        2.0000           -0.4549400             -12.3795
        20        2.0000           -0.4375824             -11.9072
        21        2.0000           -0.4278270             -11.6418
        22        2.0000           -0.4172508             -11.3540
        23        2.0000           -0.4113855             -11.1944 (HOMO)
        24                         -0.2660263              -7.2389 (LUMO)
        25                         -0.2360401              -6.4230
        26                         -0.2229925              -6.0679
        27                         -0.1027791              -2.7968
        28                          0.0041384               0.1126
        29                          0.1217950               3.3142
        30                          0.1426267               3.8811
        31                          0.1591286               4.3301
        32                          0.1707533               4.6464
        33                          0.1856020               5.0505
        34                          0.1934498               5.2640
       ...                                ...                  ...
        42                          0.6654276              18.1072
      -------------------------------------------------------------
                  HL-Gap            0.1453591 Eh            3.9554 eV
             Fermi-level           -0.3387059 Eh           -9.2167 eV

     #   Z          covCN         q      C6AA      α(0)
     1   6 C        2.919    -0.035    28.867     8.811
     2   6 C        2.922    -0.031    28.770     8.796
     3   6 C        2.918    -0.048    29.189     8.860
     4   6 C        2.867     0.135    25.043     8.203
     5   6 C        2.916    -0.045    29.128     8.850
     6   6 C        2.923    -0.031    28.784     8.798
     7   8 O        1.706    -0.233    17.855     5.705
     8   6 C        2.652     0.346    21.121     7.519
     9   8 O        0.856    -0.438    22.449     6.352
    10   1 H        0.926     0.065     2.146     2.291
    11   1 H        0.926     0.068     2.110     2.271
    12   1 H        0.926     0.070     2.080     2.255
    13   1 H        0.926     0.059     2.207     2.323
    14   1 H        0.926     0.062     2.171     2.304
    15   1 H        0.923     0.055     2.263     2.353

 Mol. C6AA /au·bohr⁶  :       2933.796103
 Mol. C8AA /au·bohr⁸  :      71124.895802
 Mol. α(0) /au        :         85.691945


Wiberg/Mayer (AO) data.
largest (>0.10) Wiberg bond orders for each atom

 ---------------------------------------------------------------------------
     #   Z sym  total        # sym  WBO       # sym  WBO       # sym  WBO
 ---------------------------------------------------------------------------
     1   6 C    3.990 --     6 C    1.445     2 C    1.432    10 H    0.968
                             4 C    0.102
     2   6 C    3.988 --     3 C    1.451     1 C    1.432    11 H    0.967
                             5 C    0.110
     3   6 C    3.986 --     2 C    1.451     4 C    1.385    12 H    0.965
                             6 C    0.112
     4   6 C    3.896 --     5 C    1.404     3 C    1.385     7 O    0.937
                             1 C    0.102
     5   6 C    3.989 --     6 C    1.434     4 C    1.404    13 H    0.966
                             2 C    0.110
     6   6 C    3.989 --     1 C    1.445     5 C    1.434    14 H    0.968
                             3 C    0.112
     7   8 O    2.396 --     8 C    1.196     4 C    0.937     9 O    0.186
     8   6 C    3.911 --     9 O    1.749     7 O    1.196    15 H    0.914
     9   8 O    2.020 --     8 C    1.749     7 O    0.186
    10   1 H    0.996 --     1 C    0.968
    11   1 H    0.995 --     2 C    0.967
    12   1 H    0.995 --     3 C    0.965
    13   1 H    0.996 --     5 C    0.966
    14   1 H    0.996 --     6 C    0.968
    15   1 H    0.996 --     8 C    0.914
 ---------------------------------------------------------------------------

Topologies differ in total number of bonds
Writing topology from bond orders to xtbtopo.mol

molecular dipole:
                 x           y           z       tot (Debye)
 q only:       -1.310      -0.624       0.296
   full:       -1.088      -0.714       0.355       3.428
molecular quadrupole (traceless):
                xx          xy          yy          xz          yz          zz
 q only:        1.229      -5.407       0.959       3.312       1.908      -2.188
  q+dip:        1.991      -6.747       2.619       4.738       3.212      -4.610
   full:        0.892      -6.629       0.861       4.114       3.044      -1.753


           -------------------------------------------------
          | TOTAL ENERGY              -26.165049064594 Eh   |
          | GRADIENT NORM               0.000094430746 Eh/α |
          | HOMO-LUMO GAP               3.955423493097 eV   |
           -------------------------------------------------

------------------------------------------------------------------------
 * finished run on 2025/04/07 at 00:46:57.675     
------------------------------------------------------------------------
 total:
 * wall-time:     0 d,  0 h,  0 min,  0.059 sec
 *  cpu-time:     0 d,  0 h,  0 min,  0.022 sec
 * ratio c/w:     0.373 speedup
 SCF:
 * wall-time:     0 d,  0 h,  0 min,  0.013 sec
 *  cpu-time:     0 d,  0 h,  0 min,  0.013 sec
 * ratio c/w:     0.964 speedup

