 Entering Gaussian System
 *********************************************
 Gaussian 98:
 frequency output generated by the xtb code
 *********************************************
                         Standard orientation:
 --------------------------------------------------------------------
  Center     Atomic     Atomic              Coordinates (Angstroms)
  Number     Number      Type              X           Y           Z
 --------------------------------------------------------------------
    1          6             0        2.567493   -0.316824   -0.009766
    2          6             0        1.296284    0.524214    0.004785
    3          6             0        0.043388   -0.347884   -0.000478
    4          6             0       -1.231555    0.494856    0.025797
    5          8             0       -2.409976   -0.279673   -0.058913
    6          1             0        3.446544    0.322398   -0.007464
    7          1             0        2.608525   -0.961520    0.865063
    8          1             0        2.599151   -0.942660   -0.898482
    9          1             0        1.288842    1.158387    0.893989
   10          1             0        1.282337    1.179223   -0.868645
   11          1             0        0.031208   -0.973245   -0.895659
   12          1             0        0.058418   -1.007723    0.870617
   13          1             0       -1.252083    1.116291    0.932158
   14          1             0       -1.261396    1.158095   -0.842421
   15          1             0       -2.436796   -0.894698    0.687341
 --------------------------------------------------------------------
     1 basis functions        1 primitive gaussians
     1 alpha electrons        1 beta electrons
 
 Harmonic frequencies (cm**-1), IR intensities (km*mol⁻¹),
 Raman scattering activities (A**4/amu), Raman depolarization ratios,
 reduced masses (AMU), force constants (mDyne/A) and normal coordinates:
                      1                      2                      3
                        a                      a                      a 
 Frequencies --   100.3356               105.0233               187.0660
 Red. masses --     9.1566                 6.2584                 9.9018
 Frc consts  --     0.0000                 0.0000                 0.0000
 IR Inten    --     3.1773                 5.5030                 1.1639
 Raman Activ --     0.0000                 0.0000                 0.0000
 Depolar     --     0.0000                 0.0000                 0.0000
 Atom AN      X      Y      Z        X      Y      Z        X      Y      Z
   1   6    -0.01  -0.00  -0.37    -0.00  -0.00   0.15     0.22   0.35  -0.00
   2   6     0.00   0.00   0.14    -0.00   0.01  -0.38    -0.15  -0.22  -0.01
   3   6     0.00  -0.00   0.60    -0.00  -0.00   0.02    -0.01  -0.46   0.00
   4   6    -0.01   0.00   0.06    -0.00  -0.01   0.46     0.15  -0.18   0.00
   5   8     0.03  -0.01  -0.40     0.01   0.05  -0.26    -0.22   0.41  -0.00
   6   1    -0.00  -0.00  -0.20    -0.00   0.00  -0.11    -0.03   0.23   0.01
   7   1     0.10  -0.01  -0.12     0.02   0.19   0.18     0.15   0.11  -0.00
   8   1    -0.10   0.01  -0.12    -0.02  -0.19   0.18     0.16   0.11  -0.00
   9   1     0.10   0.01   0.04    -0.02   0.14  -0.21    -0.11  -0.06  -0.00
  10   1    -0.10  -0.00   0.04     0.01  -0.13  -0.21    -0.11  -0.06  -0.00
  11   1     0.01  -0.13   0.26    -0.08   0.01  -0.00    -0.00  -0.13   0.00
  12   1    -0.01   0.13   0.27     0.08  -0.01  -0.00    -0.00  -0.12   0.00
  13   1    -0.11   0.03  -0.00    -0.03  -0.18   0.26     0.11  -0.05  -0.00
  14   1     0.10  -0.02  -0.01     0.03   0.17   0.26     0.12  -0.05   0.00
  15   1    -0.09   0.02  -0.08    -0.02  -0.15  -0.20    -0.17   0.14   0.03
                      4                      5                      6
                        a                      a                      a 
 Frequencies --   234.3257               331.7606               393.6365
 Red. masses --     2.1463                 2.5085                 9.9772
 Frc consts  --     0.0000                 0.0000                 0.0000
 IR Inten    --     0.0972               213.1251                 1.2113
 Raman Activ --     0.0000                 0.0000                 0.0000
 Depolar     --     0.0000                 0.0000                 0.0000
 Atom AN      X      Y      Z        X      Y      Z        X      Y      Z
   1   6    -0.00  -0.00   0.05     0.00  -0.04   0.01     0.54  -0.02  -0.00
   2   6     0.00   0.00  -0.27     0.07   0.08  -0.03     0.28  -0.24  -0.00
   3   6    -0.00   0.00   0.14     0.07   0.06  -0.07    -0.15   0.22   0.01
   4   6    -0.00   0.00   0.09    -0.04  -0.06   0.14    -0.36   0.13   0.00
   5   8     0.01  -0.00  -0.03     0.04  -0.18  -0.17    -0.34  -0.11   0.00
   6   1     0.00  -0.01   0.56     0.02  -0.04   0.01     0.08   0.11   0.00
   7   1    -0.30  -0.34  -0.22    -0.03  -0.01   0.00     0.24   0.00   0.00
   8   1     0.29   0.34  -0.21    -0.02  -0.02   0.01     0.23   0.00  -0.00
   9   1    -0.00   0.09  -0.14     0.02   0.02  -0.00     0.11  -0.06  -0.00
  10   1     0.00  -0.08  -0.14     0.04   0.02  -0.01     0.11  -0.06   0.00
  11   1    -0.04  -0.08   0.09    -0.00   0.07  -0.05    -0.08   0.05   0.01
  12   1     0.04   0.08   0.10     0.05  -0.04  -0.07    -0.08   0.06   0.00
  13   1    -0.02  -0.01   0.03    -0.03  -0.06   0.06    -0.15   0.03   0.00
  14   1     0.01   0.01   0.03    -0.01   0.02   0.07    -0.15   0.03   0.00
  15   1    -0.01  -0.01  -0.02    -0.52   0.60   0.47    -0.04  -0.05  -0.02
                      7                      8                      9
                        a                      a                      a 
 Frequencies --   436.4406               777.2681               832.0718
 Red. masses --    10.9206                 1.7264                 2.3510
 Frc consts  --     0.0000                 0.0000                 0.0000
 IR Inten    --    22.9277                13.5051                 2.2318
 Raman Activ --     0.0000                 0.0000                 0.0000
 Depolar     --     0.0000                 0.0000                 0.0000
 Atom AN      X      Y      Z        X      Y      Z        X      Y      Z
   1   6     0.01   0.09   0.00     0.00   0.00   0.02     0.00   0.00  -0.09
   2   6    -0.24  -0.33  -0.01     0.00   0.00   0.17     0.00   0.01  -0.22
   3   6    -0.33  -0.04  -0.01    -0.00  -0.00   0.18    -0.01   0.00   0.15
   4   6     0.04   0.39   0.05     0.00  -0.01   0.06     0.00  -0.02   0.20
   5   8     0.55  -0.18  -0.05    -0.00   0.01  -0.02     0.02   0.02  -0.05
   6   1    -0.09   0.15   0.00     0.00  -0.00  -0.06     0.00  -0.00   0.12
   7   1     0.09   0.03   0.00     0.12  -0.11  -0.08    -0.23   0.17   0.12
   8   1     0.09   0.03  -0.00    -0.12   0.11  -0.08     0.23  -0.17   0.11
   9   1    -0.09  -0.09  -0.00     0.04   0.36  -0.22     0.12  -0.27   0.14
  10   1    -0.09  -0.09   0.00    -0.04  -0.35  -0.22    -0.11   0.27   0.15
  11   1    -0.21   0.01  -0.02     0.03   0.38  -0.23    -0.19   0.20  -0.10
  12   1    -0.18  -0.03  -0.02    -0.04  -0.38  -0.24     0.18  -0.19  -0.11
  13   1    -0.02   0.10   0.02    -0.09   0.18  -0.11    -0.14   0.30  -0.16
  14   1    -0.00   0.11   0.01     0.10  -0.18  -0.12     0.14  -0.30  -0.18
  15   1     0.13   0.11   0.11    -0.01  -0.03  -0.03    -0.06  -0.06  -0.07
                     10                     11                     12
                        a                      a                      a 
 Frequencies --   942.3064               946.3235              1014.7285
 Red. masses --     5.5147                 2.7755                10.6850
 Frc consts  --     0.0000                 0.0000                 0.0000
 IR Inten    --     0.8984                11.9289                97.2093
 Raman Activ --     0.0000                 0.0000                 0.0000
 Depolar     --     0.0000                 0.0000                 0.0000
 Atom AN      X      Y      Z        X      Y      Z        X      Y      Z
   1   6    -0.33  -0.12   0.05    -0.11  -0.03  -0.17     0.21  -0.11  -0.04
   2   6    -0.08  -0.25  -0.01    -0.02  -0.08   0.05    -0.12   0.16   0.05
   3   6     0.16   0.38  -0.05     0.08   0.08   0.18    -0.38   0.21  -0.03
   4   6     0.09  -0.19   0.06     0.04   0.00  -0.23    -0.12  -0.51  -0.00
   5   8     0.02   0.05   0.01    -0.07  -0.02   0.03     0.40   0.26   0.04
   6   1    -0.40   0.40  -0.03    -0.12   0.12   0.13     0.08  -0.06   0.02
   7   1     0.30  -0.03  -0.01    -0.18   0.19   0.11     0.00  -0.00   0.01
   8   1     0.16   0.07  -0.05     0.31  -0.17   0.09     0.09  -0.07   0.02
   9   1     0.04  -0.07   0.00     0.35   0.02  -0.02     0.06   0.09  -0.02
  10   1     0.21  -0.05   0.00    -0.28  -0.07  -0.02    -0.08   0.02  -0.01
  11   1     0.05   0.05   0.02     0.33   0.17  -0.06     0.02   0.03   0.01
  12   1     0.17   0.15   0.02    -0.22  -0.13  -0.07    -0.21   0.08   0.01
  13   1     0.02   0.03  -0.04     0.06  -0.23   0.10     0.13  -0.07  -0.02
  14   1     0.00  -0.12  -0.04    -0.04   0.23   0.12    -0.14  -0.14  -0.01
  15   1    -0.12  -0.05  -0.05     0.12   0.07   0.07    -0.19  -0.05  -0.09
                     13                     14                     15
                        a                      a                      a 
 Frequencies --  1076.6039              1084.4867              1104.1938
 Red. masses --     4.5276                10.5427                 7.9103
 Frc consts  --     0.0000                 0.0000                 0.0000
 IR Inten    --    33.7059                61.7894                 2.5951
 Raman Activ --     0.0000                 0.0000                 0.0000
 Depolar     --     0.0000                 0.0000                 0.0000
 Atom AN      X      Y      Z        X      Y      Z        X      Y      Z
   1   6    -0.16   0.27  -0.05    -0.08   0.03   0.00    -0.28   0.31   0.03
   2   6     0.23  -0.27   0.09     0.04  -0.09  -0.00     0.50  -0.16  -0.05
   3   6     0.13   0.01  -0.13     0.32  -0.21  -0.01    -0.27  -0.01   0.08
   4   6     0.08   0.15   0.15    -0.68  -0.00   0.02    -0.06  -0.26  -0.11
   5   8     0.03  -0.06   0.01     0.33   0.25  -0.01     0.07   0.10   0.02
   6   1     0.06  -0.07   0.03    -0.03   0.02   0.00    -0.02   0.01  -0.01
   7   1    -0.24   0.09   0.01    -0.01   0.01   0.00    -0.13   0.06  -0.01
   8   1    -0.12   0.01   0.03    -0.01   0.01  -0.00    -0.18   0.10  -0.01
   9   1     0.10  -0.01  -0.02    -0.01  -0.03   0.00     0.21  -0.07   0.01
  10   1    -0.08  -0.14  -0.03    -0.02  -0.03  -0.00     0.29  -0.00   0.01
  11   1     0.09  -0.09   0.03     0.21  -0.07   0.00    -0.25   0.03  -0.01
  12   1    -0.27   0.08   0.04     0.20  -0.07  -0.01    -0.08  -0.06  -0.02
  13   1     0.18   0.17  -0.05    -0.16   0.05  -0.01    -0.08  -0.14   0.03
  14   1    -0.33  -0.12  -0.07    -0.22  -0.00  -0.00     0.16   0.03   0.04
  15   1    -0.45  -0.21  -0.17     0.12   0.07   0.01     0.19   0.09   0.07
                     16                     17                     18
                        a                      a                      a 
 Frequencies --  1132.0115              1207.3773              1247.7056
 Red. masses --     7.5258                 5.6451                 3.8832
 Frc consts  --     0.0000                 0.0000                 0.0000
 IR Inten    --     4.7271                14.9702                18.7112
 Raman Activ --     0.0000                 0.0000                 0.0000
 Depolar     --     0.0000                 0.0000                 0.0000
 Atom AN      X      Y      Z        X      Y      Z        X      Y      Z
   1   6     0.14   0.18   0.03    -0.01  -0.04   0.28    -0.03  -0.09  -0.19
   2   6    -0.21  -0.43  -0.06     0.02   0.07  -0.41     0.08   0.10   0.18
   3   6     0.23   0.43   0.09     0.04  -0.07   0.33     0.17  -0.07   0.13
   4   6     0.05  -0.19  -0.11     0.03   0.07  -0.20     0.07   0.01  -0.28
   5   8    -0.02   0.06   0.03     0.06  -0.00   0.06     0.09   0.05   0.12
   6   1     0.21  -0.21  -0.02    -0.03   0.03  -0.12    -0.07   0.07   0.08
   7   1    -0.17  -0.03  -0.03     0.23  -0.17  -0.07    -0.07   0.11   0.06
   8   1    -0.22   0.02   0.01    -0.18   0.17  -0.07     0.17  -0.11   0.03
   9   1    -0.28  -0.15   0.01     0.05  -0.22   0.07    -0.34   0.11  -0.02
  10   1    -0.21  -0.07   0.02    -0.08   0.24   0.07     0.11  -0.07  -0.03
  11   1    -0.03   0.17  -0.02     0.03   0.17  -0.06    -0.53   0.06  -0.02
  12   1     0.11   0.06  -0.02    -0.13  -0.21  -0.07     0.08  -0.08  -0.02
  13   1    -0.13  -0.11   0.02     0.11  -0.10   0.04    -0.21  -0.15   0.04
  14   1     0.05   0.04   0.04    -0.27   0.12   0.04    -0.23   0.16   0.06
  15   1     0.07   0.04   0.03    -0.23  -0.10  -0.08    -0.26  -0.11  -0.09
                     19                     20                     21
                        a                      a                      a 
 Frequencies --  1272.3734              1275.1922              1301.4875
 Red. masses --     2.3866                 2.4363                 3.0650
 Frc consts  --     0.0000                 0.0000                 0.0000
 IR Inten    --     5.4724                 4.0630                52.1407
 Raman Activ --     0.0000                 0.0000                 0.0000
 Depolar     --     0.0000                 0.0000                 0.0000
 Atom AN      X      Y      Z        X      Y      Z        X      Y      Z
   1   6     0.02   0.07  -0.16    -0.04  -0.10   0.02    -0.02  -0.06  -0.06
   2   6    -0.10  -0.06  -0.07     0.14   0.09  -0.12     0.12   0.03  -0.02
   3   6    -0.14  -0.01   0.20     0.19  -0.00  -0.09     0.09   0.06   0.14
   4   6    -0.04   0.08  -0.02     0.05  -0.08   0.14     0.03  -0.11   0.17
   5   8     0.03  -0.04   0.04     0.00   0.05   0.04    -0.13   0.01  -0.22
   6   1     0.06  -0.06   0.04    -0.08   0.08  -0.03    -0.05   0.05   0.02
   7   1    -0.13   0.08   0.01     0.05  -0.00   0.01    -0.02   0.04   0.03
   8   1     0.07  -0.09   0.04     0.03   0.02  -0.03     0.04  -0.02  -0.01
   9   1    -0.37  -0.05   0.01    -0.29  -0.05   0.02    -0.34  -0.01   0.01
  10   1     0.64   0.04   0.01    -0.09   0.07   0.01     0.02   0.02   0.01
  11   1     0.46   0.10  -0.03     0.12  -0.05   0.01    -0.13   0.07  -0.00
  12   1    -0.05  -0.11  -0.03    -0.66   0.03   0.02    -0.18  -0.06  -0.02
  13   1     0.10  -0.00   0.02    -0.50   0.04  -0.02     0.44   0.09  -0.03
  14   1     0.12   0.03   0.00     0.18  -0.06  -0.00    -0.44  -0.15  -0.03
  15   1    -0.13  -0.06  -0.04     0.04   0.02   0.02     0.42   0.20   0.13
                     22                     23                     24
                        a                      a                      a 
 Frequencies --  1341.0465              1366.5198              1411.8652
 Red. masses --     3.5723                 5.1717                 3.2021
 Frc consts  --     0.0000                 0.0000                 0.0000
 IR Inten    --    23.4825                14.6812                 0.2008
 Raman Activ --     0.0000                 0.0000                 0.0000
 Depolar     --     0.0000                 0.0000                 0.0000
 Atom AN      X      Y      Z        X      Y      Z        X      Y      Z
   1   6    -0.02  -0.10  -0.00     0.04   0.06   0.00    -0.38   0.21   0.01
   2   6     0.30   0.01   0.00    -0.37   0.03  -0.00     0.10   0.01   0.00
   3   6     0.00   0.09   0.01     0.42   0.01   0.01    -0.02   0.02   0.00
   4   6    -0.32   0.05  -0.07    -0.23  -0.02  -0.01    -0.02  -0.01  -0.00
   5   8     0.04  -0.08   0.05    -0.00  -0.02   0.00     0.00  -0.00   0.00
   6   1    -0.11   0.11   0.00     0.07  -0.07  -0.00     0.28  -0.42  -0.01
   7   1    -0.02   0.04   0.04     0.01  -0.04  -0.04     0.46  -0.15  -0.15
   8   1    -0.02   0.04  -0.04     0.01  -0.04   0.04     0.47  -0.16   0.14
   9   1    -0.32   0.01  -0.01     0.30  -0.02   0.02    -0.10  -0.05   0.03
  10   1    -0.34   0.01   0.01     0.32  -0.01  -0.02    -0.10  -0.05  -0.03
  11   1    -0.04  -0.01   0.02    -0.36   0.01   0.00    -0.00   0.00   0.00
  12   1     0.02  -0.02  -0.03    -0.38  -0.01   0.01     0.00   0.00  -0.00
  13   1     0.46   0.00   0.01     0.27   0.02  -0.01     0.03  -0.00   0.00
  14   1     0.52   0.07   0.01     0.25   0.03   0.01     0.03  -0.00  -0.00
  15   1    -0.15  -0.09  -0.05    -0.01  -0.02  -0.01    -0.00  -0.00  -0.00
                     25                     26                     27
                        a                      a                      a 
 Frequencies --  1479.4870              1487.8958              1495.2604
 Red. masses --     1.8498                 1.9604                 1.8089
 Frc consts  --     0.0000                 0.0000                 0.0000
 IR Inten    --     3.6548                 0.7656                 1.4047
 Raman Activ --     0.0000                 0.0000                 0.0000
 Depolar     --     0.0000                 0.0000                 0.0000
 Atom AN      X      Y      Z        X      Y      Z        X      Y      Z
   1   6     0.00   0.01  -0.00     0.00  -0.03  -0.00     0.01  -0.04  -0.01
   2   6    -0.01  -0.02   0.00    -0.04   0.10   0.00     0.01   0.25   0.00
   3   6     0.02   0.08   0.00    -0.01   0.27   0.00    -0.02  -0.08  -0.00
   4   6    -0.03   0.26  -0.00     0.04  -0.03  -0.00    -0.01   0.04   0.00
   5   8     0.02   0.03   0.01    -0.01  -0.00  -0.00     0.01   0.00   0.00
   6   1    -0.01   0.01   0.00     0.03  -0.04   0.00     0.01  -0.01   0.03
   7   1    -0.00  -0.02  -0.02     0.01   0.09   0.07    -0.00   0.10   0.07
   8   1    -0.00  -0.02   0.02     0.01   0.09  -0.06    -0.04   0.09  -0.07
   9   1     0.00   0.05  -0.04     0.03  -0.18   0.13    -0.01  -0.50   0.36
  10   1    -0.00   0.05   0.04     0.02  -0.18  -0.14    -0.01  -0.49  -0.37
  11   1    -0.03  -0.12   0.09     0.01  -0.50   0.36     0.02   0.19  -0.13
  12   1    -0.02  -0.11  -0.09     0.02  -0.48  -0.37     0.02   0.18   0.14
  13   1    -0.00  -0.55   0.37    -0.02   0.10  -0.06     0.01  -0.09   0.06
  14   1     0.02  -0.52  -0.40    -0.03   0.09   0.07     0.01  -0.09  -0.07
  15   1     0.01   0.01   0.00    -0.00  -0.01  -0.00     0.00   0.00   0.00
                     28                     29                     30
                        a                      a                      a 
 Frequencies --  1498.6827              1501.0154              2868.8219
 Red. masses --     1.5282                 1.6331                 1.7459
 Frc consts  --     0.0000                 0.0000                 0.0000
 IR Inten    --     1.6100                 0.4414               110.8324
 Raman Activ --     0.0000                 0.0000                 0.0000
 Depolar     --     0.0000                 0.0000                 0.0000
 Atom AN      X      Y      Z        X      Y      Z        X      Y      Z
   1   6     0.01   0.01   0.21     0.11   0.18  -0.02    -0.00  -0.00  -0.00
   2   6     0.01   0.02   0.05     0.05   0.10  -0.00     0.00  -0.00  -0.00
   3   6    -0.00  -0.00  -0.00    -0.02   0.02   0.00    -0.00   0.00  -0.01
   4   6     0.00   0.00  -0.00     0.01  -0.01  -0.00    -0.02   0.11   0.23
   5   8     0.00   0.00   0.00     0.00  -0.00   0.00     0.01   0.01   0.01
   6   1    -0.02   0.03  -0.71    -0.18   0.27   0.07     0.00   0.00  -0.00
   7   1    -0.45  -0.19  -0.11    -0.09  -0.48  -0.36     0.00  -0.00   0.00
   8   1     0.42   0.11  -0.05    -0.17  -0.51   0.36     0.00  -0.00  -0.00
   9   1    -0.02  -0.01   0.02    -0.03  -0.10   0.08    -0.00   0.01   0.01
  10   1     0.02  -0.05  -0.02    -0.04  -0.10  -0.08     0.00   0.01  -0.01
  11   1    -0.02  -0.00   0.00     0.01  -0.05   0.04    -0.00   0.03   0.03
  12   1     0.02   0.00   0.00     0.01  -0.05  -0.04     0.00  -0.02   0.02
  13   1     0.00  -0.00   0.00    -0.00   0.02  -0.02     0.02  -0.53  -0.80
  14   1    -0.00  -0.00  -0.00    -0.00   0.02   0.02    -0.01   0.08  -0.05
  15   1    -0.00  -0.00  -0.00    -0.00  -0.00  -0.00     0.00  -0.00  -0.00
                     31                     32                     33
                        a                      a                      a 
 Frequencies --  2957.2027              2966.4645              2971.2694
 Red. masses --     1.8563                 1.8849                 1.7501
 Frc consts  --     0.0000                 0.0000                 0.0000
 IR Inten    --     4.7781                58.4783               124.6030
 Raman Activ --     0.0000                 0.0000                 0.0000
 Depolar     --     0.0000                 0.0000                 0.0000
 Atom AN      X      Y      Z        X      Y      Z        X      Y      Z
   1   6    -0.00  -0.00  -0.01     0.00  -0.00   0.02    -0.00   0.00  -0.01
   2   6     0.00   0.01   0.14    -0.00  -0.01  -0.24    -0.00   0.04   0.07
   3   6    -0.00   0.07  -0.23    -0.00   0.05  -0.08     0.00  -0.05   0.11
   4   6     0.00  -0.04   0.03     0.01  -0.07   0.08     0.01  -0.14   0.16
   5   8    -0.00  -0.00   0.00    -0.00  -0.00   0.00    -0.01  -0.00  -0.00
   6   1     0.00   0.00  -0.00    -0.00  -0.00   0.00     0.00   0.00  -0.00
   7   1     0.00  -0.01   0.01    -0.00   0.04  -0.04    -0.00  -0.01   0.01
   8   1    -0.00   0.02   0.02     0.00  -0.03  -0.04    -0.00   0.01   0.02
   9   1     0.00  -0.21  -0.29    -0.00   0.36   0.50     0.00  -0.18  -0.26
  10   1    -0.00   0.18  -0.22     0.01  -0.30   0.38     0.00   0.02  -0.01
  11   1     0.00   0.20   0.24    -0.00   0.01  -0.01    -0.00  -0.06  -0.07
  12   1     0.01  -0.45   0.59     0.01  -0.21   0.29    -0.01   0.23  -0.31
  13   1     0.00   0.02   0.05    -0.00   0.02   0.06     0.00   0.02   0.08
  14   1    -0.01   0.15  -0.20    -0.01   0.25  -0.34    -0.02   0.48  -0.66
  15   1    -0.00  -0.00   0.00    -0.00  -0.00   0.00     0.00  -0.01   0.01
                     34                     35                     36
                        a                      a                      a 
 Frequencies --  2981.5444              2983.7444              3029.2437
 Red. masses --     1.5673                 1.5272                 1.9513
 Frc consts  --     0.0000                 0.0000                 0.0000
 IR Inten    --    32.7755               131.6807                84.8922
 Raman Activ --     0.0000                 0.0000                 0.0000
 Depolar     --     0.0000                 0.0000                 0.0000
 Atom AN      X      Y      Z        X      Y      Z        X      Y      Z
   1   6     0.01   0.00  -0.01     0.01   0.02  -0.00     0.01   0.04  -0.29
   2   6     0.00  -0.11   0.06     0.00  -0.16   0.01     0.00   0.00  -0.03
   3   6    -0.00   0.13   0.12    -0.00  -0.12  -0.06     0.00   0.00  -0.00
   4   6     0.00  -0.01   0.02     0.00  -0.03   0.02     0.00   0.00  -0.00
   5   8    -0.00  -0.00  -0.00    -0.00  -0.00  -0.00    -0.00  -0.00   0.00
   6   1    -0.02  -0.02  -0.00    -0.05  -0.04  -0.00    -0.05  -0.03  -0.04
   7   1     0.00  -0.01   0.02     0.00  -0.02   0.04     0.02  -0.46   0.60
   8   1     0.00   0.01   0.01     0.00  -0.02  -0.03    -0.00   0.35   0.45
   9   1     0.00   0.13   0.22    -0.00   0.27   0.43     0.00   0.03   0.04
  10   1    -0.01   0.31  -0.44    -0.01   0.32  -0.47    -0.00  -0.04   0.06
  11   1    -0.01  -0.41  -0.62     0.00   0.29   0.44     0.00   0.00   0.00
  12   1     0.00  -0.10   0.18    -0.01   0.13  -0.22    -0.00  -0.01   0.01
  13   1    -0.00  -0.00  -0.00    -0.00   0.02   0.04    -0.00   0.00   0.00
  14   1    -0.00   0.05  -0.07    -0.00   0.07  -0.10     0.00  -0.00   0.00
  15   1    -0.00  -0.00   0.00     0.00  -0.00   0.00    -0.00   0.00  -0.00
                     37                     38                     39
                        a                      a                      a 
 Frequencies --  3032.8707              3041.9954              3494.5381
 Red. masses --     1.8922                 1.3025                 1.8752
 Frc consts  --     0.0000                 0.0000                 0.0000
 IR Inten    --    80.9799                41.4641                61.7672
 Raman Activ --     0.0000                 0.0000                 0.0000
 Depolar     --     0.0000                 0.0000                 0.0000
 Atom AN      X      Y      Z        X      Y      Z        X      Y      Z
   1   6    -0.12  -0.25  -0.04     0.16  -0.01  -0.01    -0.00   0.00  -0.00
   2   6    -0.00  -0.02  -0.00     0.01   0.00  -0.00    -0.00   0.00  -0.00
   3   6    -0.00  -0.01  -0.00    -0.00  -0.00  -0.00    -0.00  -0.00   0.00
   4   6    -0.00  -0.00   0.00    -0.00   0.00  -0.00     0.00   0.01  -0.00
   5   8    -0.00   0.00  -0.00     0.00   0.00   0.00     0.01   0.15  -0.19
   6   1     0.47   0.34  -0.01    -0.61  -0.47  -0.00    -0.00  -0.00   0.00
   7   1    -0.03   0.22  -0.37     0.01   0.24  -0.34     0.00  -0.00   0.00
   8   1    -0.03   0.33   0.53     0.01   0.26   0.38     0.00   0.00   0.00
   9   1     0.00   0.03   0.05     0.00  -0.01  -0.01     0.00  -0.00  -0.00
  10   1     0.00   0.02  -0.04     0.00  -0.01   0.01    -0.00  -0.00   0.00
  11   1     0.00   0.02   0.03     0.00   0.00   0.01     0.00   0.00   0.00
  12   1     0.00   0.01  -0.02     0.00   0.00  -0.00     0.00  -0.00   0.00
  13   1    -0.00   0.00   0.00    -0.00  -0.00  -0.00     0.00  -0.00  -0.00
  14   1    -0.00   0.00  -0.00    -0.00  -0.00   0.00     0.00  -0.00   0.01
  15   1     0.00  -0.00   0.00    -0.00   0.00  -0.00    -0.03  -0.62   0.75
