      -----------------------------------------------------------      
     |                   =====================                   |     
     |                           x T B                           |     
     |                   =====================                   |     
     |                         S. Grimme                         |     
     |          Mulliken Center for Theoretical Chemistry        |     
     |                    University of Bonn                     |     
      -----------------------------------------------------------      

   * xtb version 6.7.1 (edcfbbe) compiled by 'albert@albert-system' on 2024-07-22

   xtb is free software: you can redistribute it and/or modify it under
   the terms of the GNU Lesser General Public License as published by
   the Free Software Foundation, either version 3 of the License, or
   (at your option) any later version.
   
   xtb is distributed in the hope that it will be useful,
   but WITHOUT ANY WARRANTY; without even the implied warranty of
   MERCHANTABILITY or FITNESS FOR A PARTICULAR PURPOSE.  See the
   GNU Lesser General Public License for more details.
   
   Cite this work as:
   * C. Bannwarth, E. Caldeweyher, S. Ehlert, A. Hansen, P. Pracht,
     J. Seibert, S. Spicher, S. Grimme, WIREs Comput. Mol. Sci., 2020, 11,
     e01493. DOI: 10.1002/wcms.1493
   
   for GFN2-xTB:
   * C. Bannwarth, S. Ehlert and S. Grimme., J. Chem. Theory Comput., 2019,
     15, 1652-1671. DOI: 10.1021/acs.jctc.8b01176
   for GFN1-xTB:
   * S. Grimme, C. Bannwarth, P. Shushkov, J. Chem. Theory Comput., 2017,
     13, 1989-2009. DOI: 10.1021/acs.jctc.7b00118
   for GFN0-xTB:
   * P. Pracht, E. Caldeweyher, S. Ehlert, S. Grimme, ChemRxiv, 2019, preprint.
     DOI: 10.26434/chemrxiv.8326202.v1
   for GFN-FF:
   * S. Spicher and S. Grimme, Angew. Chem. Int. Ed., 2020, 59, 15665-15673.
     DOI: 10.1002/anie.202004239
   
   for ALPB and GBSA implicit solvation:
   * S. Ehlert, M. Stahn, S. Spicher, S. Grimme, J. Chem. Theory Comput.,
     2021, 17, 4250-4261. DOI: 10.1021/acs.jctc.1c00471
   
   for ddCOSMO and CPCM-X implicit solvation:
   * M. Stahn, S. Ehlert, S. Grimme, J. Phys. Chem. A,
     2023, XX, XXXX-XXXX. DOI: 10.1021/acs.jpca.3c04382
   
   for DFT-D4:
   * E. Caldeweyher, C. Bannwarth and S. Grimme, J. Chem. Phys., 2017,
     147, 034112. DOI: 10.1063/1.4993215
   * E. Caldeweyher, S. Ehlert, A. Hansen, H. Neugebauer, S. Spicher,
     C. Bannwarth and S. Grimme, J. Chem. Phys., 2019, 150, 154122.
     DOI: 10.1063/1.5090222
   * E. Caldeweyher, J.-M. Mewes, S. Ehlert and S. Grimme, Phys. Chem. Chem. Phys.
     2020, 22, 8499-8512. DOI: 10.1039/D0CP00502A
   
   for sTDA-xTB:
   * S. Grimme and C. Bannwarth, J. Chem. Phys., 2016, 145, 054103.
     DOI: 10.1063/1.4959605
   
   in the mass-spec context:
   * V. Asgeirsson, C. Bauer and S. Grimme, Chem. Sci., 2017, 8, 4879.
     DOI: 10.1039/c7sc00601b
   * J. Koopman and S. Grimme, ACS Omega 2019, 4, 12, 15120-15133.
     DOI: 10.1021/acsomega.9b02011
   
   for metadynamics refer to:
   * S. Grimme, J. Chem. Theory Comput., 2019, 155, 2847-2862
     DOI: 10.1021/acs.jctc.9b00143
   
   for SPH calculations refer to:
   * S. Spicher and S. Grimme, J. Chem. Theory Comput., 2021, 17, 1701-1714
     DOI: 10.1021/acs.jctc.0c01306
   
   for ONIOM refer to:
   * C. Plett, A. Katbashev, S. Ehlert, S. Grimme, M. Bursch,
     Phys. Chem. Chem. Phys., 2023, 25, 17860-17868. DOI: 10.1039/D3CP02178E
   
   for DIPRO refer to:
   * J. Kohn, N. Gildemeister, S. Grimme, D. Fazzi, A. Hansen,
     J. Chem. Phys., 2023, just accepted.
   
   for PTB refer to:
   * S. Grimme, M. Mueller, A. Hansen, J. Chem. Phys., 2023, 158, 124111.
     DOI: 10.1063/5.0137838
   
   with help from (in alphabetical order)
   P. Atkinson, C. Bannwarth, F. Bohle, G. Brandenburg, E. Caldeweyher
   M. Checinski, S. Dohm, S. Ehlert, S. Ehrlich, I. Gerasimov, C. Hölzer
   A. Katbashev, J. Kohn, J. Koopman, C. Lavigne, S. Lehtola, F. März, M. Müller,
   F. Musil, H. Neugebauer, J. Pisarek, C. Plett, P. Pracht, F. Pultar,
   J. Seibert, P. Shushkov, S. Spicher, M. Stahn, M. Steiner, T. Strunk,
   J. Stückrath, T. Rose, and J. Unsleber
   
 * started run on 2025/04/06 at 22:38:50.624     
   ID    Z sym.   atoms
    1    6 C      1-4
    2    8 O      5
    3    1 H      6-15

           -------------------------------------------------
          |                Calculation Setup                |
           -------------------------------------------------

          program call               : /srv/scratch/z5358697/.xtb/bin/xtb xtb_rrho.coord --gfn2 --ohess vtight --chrg 0 --enso --norestart -I rrho-xcontrol-inp --parallel 1 --alpb water
          hostname                   : k159
          coordinate file            : xtb_rrho.coord
          omp threads                :                     1


           -------------------------------------------------
          |                 G F N 2 - x T B                 |
           -------------------------------------------------

        Reference                      10.1021/acs.jctc.8b01176
      * Hamiltonian:
        H0-scaling (s, p, d)           1.850000    2.230000    2.230000
        zeta-weighting                 0.500000
      * Dispersion:
        s8                             2.700000
        a1                             0.520000
        a2                             5.000000
        s9                             5.000000
      * Repulsion:
        kExp                           1.500000    1.000000
        rExp                           1.000000
      * Coulomb:
        alpha                          2.000000
        third order                    shell-resolved
        anisotropic                    true
        a3                             3.000000
        a5                             4.000000
        cn-shift                       1.200000
        cn-exp                         4.000000
        max-rad                        5.000000

      * Solvation model:               ALPB
        Solvent                        water
        Parameter file                 internal GFN2-xTB/ALPB
        Dielectric constant                8.0200E+01
        Reference state                gsolv [1 M gas/solution]
        Free energy shift                  1.0808E-03 Eh       6.7819E-01 kcal/mol
        Temperature                        2.9815E+02 K
        Density                            1.0000E+00 kg/L
        Solvent mass                       1.8000E+01 g/mol
        Interaction kernel             P16
        Born radius scaling (c1)           1.4744E+00
        Born radii integrator          GBOBC
        Born offset                        0.0000E+00 a0       0.0000E+00 AA
        H-bond correction              true
        Ion screening                  false
        Surface tension                    1.0000E-05 Eh       1.5569E+01 dyn/cm
        Grid points                               974 per atom

          ...................................................
          :                      SETUP                      :
          :.................................................:
          :  # basis functions                  30          :
          :  # atomic orbitals                  30          :
          :  # shells                           20          :
          :  # electrons                        32          :
          :  max. iterations                   250          :
          :  Hamiltonian                  GFN2-xTB          :
          :  restarted?                      false          :
          :  GBSA solvation                   true          :
          :  PC potential                    false          :
          :  electronic temp.          300.0000000     K    :
          :  accuracy                    1.0000000          :
          :  -> integral cutoff          0.2500000E+02      :
          :  -> integral neglect         0.1000000E-07      :
          :  -> SCF convergence          0.1000000E-05 Eh   :
          :  -> wf. convergence          0.1000000E-03 e    :
          :  Broyden damping             0.4000000          :
          :  net charge                          0          :
          :  unpaired electrons                  0          :
          ...................................................

 iter      E             dE          RMSdq      gap      omega  full diag
   1    -17.9062083 -0.179062E+02  0.346E+00   11.92       0.0  T
   2    -17.9344627 -0.282544E-01  0.185E+00   11.64       1.0  T
   3    -17.9352663 -0.803588E-03  0.649E-01   11.62       1.0  T
   4    -17.9354305 -0.164254E-03  0.120E-01   11.63       1.0  T
   5    -17.9354489 -0.183459E-04  0.692E-02   11.65       1.0  T
   6    -17.9354517 -0.287163E-05  0.126E-02   11.65       2.0  T
   7    -17.9354520 -0.275100E-06  0.587E-03   11.65       4.4  T
   8    -17.9354521 -0.601281E-07  0.212E-03   11.65      12.2  T
   9    -17.9354521 -0.613674E-08  0.367E-04   11.65      70.3  T
  10    -17.9354521 -0.614826E-09  0.182E-04   11.65     141.8  T

   *** convergence criteria satisfied after 10 iterations ***

         #    Occupation            Energy/Eh            Energy/eV
      -------------------------------------------------------------
         1        2.0000           -0.6851988             -18.6452
       ...           ...                  ...                  ...
        10        2.0000           -0.4762915             -12.9606
        11        2.0000           -0.4717781             -12.8377
        12        2.0000           -0.4582004             -12.4683
        13        2.0000           -0.4391423             -11.9497
        14        2.0000           -0.4355988             -11.8532
        15        2.0000           -0.4237992             -11.5322
        16        2.0000           -0.4116278             -11.2010 (HOMO)
        17                          0.0164401               0.4474 (LUMO)
        18                          0.0932383               2.5371
        19                          0.1083771               2.9491
        20                          0.1271205               3.4591
        21                          0.1451593               3.9500
       ...                                ...                  ...
        30                          0.2955481               8.0423
      -------------------------------------------------------------
                  HL-Gap            0.4280679 Eh           11.6483 eV
             Fermi-level           -0.1975939 Eh           -5.3768 eV

 SCC (total)                   0 d,  0 h,  0 min,  0.021 sec
 SCC setup                      ...        0 min,  0.001 sec (  3.537%)
 Dispersion                     ...        0 min,  0.000 sec (  0.288%)
 classical contributions        ...        0 min,  0.000 sec (  0.088%)
 integral evaluation            ...        0 min,  0.001 sec (  3.459%)
 iterations                     ...        0 min,  0.017 sec ( 82.997%)
 molecular gradient             ...        0 min,  0.002 sec (  9.113%)
 printout                       ...        0 min,  0.000 sec (  0.477%)

         :::::::::::::::::::::::::::::::::::::::::::::::::::::
         ::                     SUMMARY                     ::
         :::::::::::::::::::::::::::::::::::::::::::::::::::::
         :: total energy             -17.728621625922 Eh    ::
         :: total w/o Gsasa/hb       -17.724814646640 Eh    ::
         :: gradient norm              0.027168520766 Eh/a0 ::
         :: HOMO-LUMO gap             11.648320592204 eV    ::
         ::.................................................::
         :: SCC energy               -17.935447410771 Eh    ::
         :: -> isotropic ES            0.036336410604 Eh    ::
         :: -> anisotropic ES          0.003491849842 Eh    ::
         :: -> anisotropic XC          0.006786253611 Eh    ::
         :: -> dispersion             -0.006833317690 Eh    ::
         :: -> Gsolv                  -0.008743393754 Eh    ::
         ::    -> Gelec               -0.004936414473 Eh    ::
         ::    -> Gsasa                0.000845559218 Eh    ::
         ::    -> Ghb                 -0.005733298198 Eh    ::
         ::    -> Gshift               0.001080759698 Eh    ::
         :: repulsion energy           0.206825784849 Eh    ::
         :: add. restraining           0.000000000000 Eh    ::
         :: total charge              -0.000000000000 e     ::
         :::::::::::::::::::::::::::::::::::::::::::::::::::::

      ----------------------------------------------------------- 
     |                   =====================                   |
     |                        A N C O P T                        |
     |                   =====================                   |
     |               Approximate Normal Coordinate               |
     |                Rational Function Optimizer                |
      ----------------------------------------------------------- 
      ----------------------------------------------------------- 
     |                   =====================                   |
     |                        A N C O P T                        |
     |                   =====================                   |
     |               Approximate Normal Coordinate               |
     |                Rational Function Optimizer                |
      ----------------------------------------------------------- 

          ...................................................
          :                      SETUP                      :
          :.................................................:
          :   optimization level         verytight          :
          :   max. optcycles                   300          :
          :   ANC micro-cycles                  20          :
          :   degrees of freedom                39          :
          :.................................................:
          :   RF solver                   davidson          :
          :   write xtbopt.log                true          :
          :   linear?                        false          :
          :   energy convergence         0.1000000E-06 Eh   :
          :   grad. convergence          0.2000000E-03 Eh/α :
          :   maxmium RF displ.          1.0000000          :
          :   Hlow (freq-cutoff)         0.1000000E-01      :
          :   Hmax (freq-cutoff)         5.0000000          :
          :   S6 in model hess.         20.0000000          :
          ...................................................

generating ANC from exact Hessian ...
Using Lindh-Hessian (1995)
 Shifting diagonal of input Hessian by   6.159247405175820E-003
 Lowest  eigenvalues of input Hessian
    0.000000    0.000000    0.000000    0.000000    0.000000    0.000000
    0.010000    0.010859    0.011876    0.016870    0.022563    0.024666
    0.044557    0.047872    0.054370    0.057165    0.059903    0.060548
 Highest eigenvalues
    1.143547    1.171377    1.205967    1.223681    1.292063    1.413415
 

........................................................................
.............................. CYCLE    1 ..............................
........................................................................

 iter      E             dE          RMSdq      gap      omega  full diag
   1    -17.9354521 -0.179355E+02  0.461E-05   11.65       0.0  T
   2    -17.9354521 -0.130207E-10  0.175E-05   11.65    1479.4  T
   3    -17.9354521 -0.493827E-12  0.112E-05   11.65    2313.3  T
     SCC iter.                  ...        0 min,  0.001 sec
     gradient                   ...        0 min,  0.002 sec
 * total energy  :   -17.7286216 Eh     change       -0.5915268E-10 Eh
   gradient norm :     0.0271693 Eh/α   predicted     0.0000000E+00 (-100.00%)
   displ. norm   :     0.0827364 α      lambda       -0.1115861E-02
   maximum displ.:     0.0384647 α      in ANC's #5, #12, #26, ...

........................................................................
.............................. CYCLE    2 ..............................
........................................................................

 iter      E             dE          RMSdq      gap      omega  full diag
   1    -17.9416607 -0.179417E+02  0.103E-01   11.99       0.0  T
   2    -17.9416676 -0.691904E-05  0.594E-02   11.99       1.0  T
   3    -17.9416681 -0.421177E-06  0.125E-02   11.99       2.1  T
   4    -17.9416684 -0.344739E-06  0.302E-03   11.99       8.5  T
   5    -17.9416684 -0.159324E-07  0.180E-03   11.99      14.3  T
   6    -17.9416684 -0.542711E-08  0.605E-04   11.99      42.7  T
   7    -17.9416684 -0.712053E-09  0.211E-04   11.99     122.6  T
     SCC iter.                  ...        0 min,  0.001 sec
     gradient                   ...        0 min,  0.002 sec
 * total energy  :   -17.7293377 Eh     change       -0.7161057E-03 Eh
   gradient norm :     0.0125006 Eh/α   predicted    -0.5617474E-03 ( -21.56%)
   displ. norm   :     0.0462339 α      lambda       -0.2572229E-03
   maximum displ.:     0.0283249 α      in ANC's #2, #9, #4, ...

........................................................................
.............................. CYCLE    3 ..............................
........................................................................

 iter      E             dE          RMSdq      gap      omega  full diag
   1    -17.9444011 -0.179444E+02  0.432E-02   12.17       0.0  T
   2    -17.9444051 -0.393001E-05  0.250E-02   12.17       1.0  T
   3    -17.9444053 -0.192047E-06  0.102E-02   12.17       2.5  T
   4    -17.9444054 -0.100583E-06  0.177E-03   12.17      14.6  T
   5    -17.9444054 -0.619972E-08  0.940E-04   12.17      27.5  T
   6    -17.9444054 -0.120714E-08  0.400E-04   12.17      64.5  T
     SCC iter.                  ...        0 min,  0.001 sec
     gradient                   ...        0 min,  0.002 sec
 * total energy  :   -17.7294854 Eh     change       -0.1476287E-03 Eh
   gradient norm :     0.0036008 Eh/α   predicted    -0.1288862E-03 ( -12.70%)
   displ. norm   :     0.0292537 α      lambda       -0.3280050E-04
   maximum displ.:     0.0226726 α      in ANC's #2, #4, #9, ...

........................................................................
.............................. CYCLE    4 ..............................
........................................................................

 iter      E             dE          RMSdq      gap      omega  full diag
   1    -17.9440455 -0.179440E+02  0.187E-02   12.22       0.0  T
   2    -17.9440457 -0.242833E-06  0.112E-02   12.22       2.3  T
   3    -17.9440457 -0.795082E-08  0.268E-03   12.22       9.6  T
   4    -17.9440457 -0.166272E-07  0.536E-04   12.22      48.2  T
   5    -17.9440457 -0.353548E-09  0.230E-04   12.22     112.1  T
     SCC iter.                  ...        0 min,  0.001 sec
     gradient                   ...        0 min,  0.002 sec
 * total energy  :   -17.7295073 Eh     change       -0.2189252E-04 Eh
   gradient norm :     0.0014786 Eh/α   predicted    -0.1641218E-04 ( -25.03%)
   displ. norm   :     0.0452750 α      lambda       -0.1164703E-04
   maximum displ.:     0.0380540 α      in ANC's #2, #4, #3, ...

........................................................................
.............................. CYCLE    5 ..............................
........................................................................

 iter      E             dE          RMSdq      gap      omega  full diag
   1    -17.9432568 -0.179433E+02  0.232E-02   12.23       0.0  T
   2    -17.9432569 -0.108592E-06  0.138E-02   12.23       1.9  T
   3    -17.9432569 -0.987639E-08  0.155E-03   12.23      16.7  T
   4    -17.9432569 -0.941069E-08  0.510E-04   12.23      50.6  T
   5    -17.9432569 -0.300588E-09  0.220E-04   12.23     117.6  T
     SCC iter.                  ...        0 min,  0.001 sec
     gradient                   ...        0 min,  0.002 sec
 * total energy  :   -17.7295155 Eh     change       -0.8203539E-05 Eh
   gradient norm :     0.0012830 Eh/α   predicted    -0.5828309E-05 ( -28.95%)
   displ. norm   :     0.0182004 α      lambda       -0.3205861E-05
   maximum displ.:     0.0157211 α      in ANC's #2, #4, #6, ...

........................................................................
.............................. CYCLE    6 ..............................
........................................................................

 iter      E             dE          RMSdq      gap      omega  full diag
   1    -17.9433385 -0.179433E+02  0.815E-03   12.23       0.0  T
   2    -17.9433385 -0.129626E-07  0.492E-03   12.23       5.2  T
   3    -17.9433385 -0.175207E-08  0.470E-04   12.23      55.0  T
   4    -17.9433385 -0.103838E-08  0.208E-04   12.23     124.0  T
     SCC iter.                  ...        0 min,  0.001 sec
     gradient                   ...        0 min,  0.002 sec
 * total energy  :   -17.7295194 Eh     change       -0.3947786E-05 Eh
   gradient norm :     0.0007009 Eh/α   predicted    -0.1601937E-05 ( -59.42%)
   displ. norm   :     0.0333746 α      lambda       -0.3783695E-05
   maximum displ.:     0.0286254 α      in ANC's #2, #4, #6, ...

........................................................................
.............................. CYCLE    7 ..............................
........................................................................

 iter      E             dE          RMSdq      gap      omega  full diag
   1    -17.9436132 -0.179436E+02  0.137E-02   12.22       0.0  T
   2    -17.9436132 -0.130126E-07  0.823E-03   12.22       3.1  T
   3    -17.9436132 -0.524786E-08  0.540E-04   12.22      47.8  T
   4    -17.9436132 -0.898872E-09  0.324E-04   12.22      79.6  T
     SCC iter.                  ...        0 min,  0.001 sec
     gradient                   ...        0 min,  0.002 sec
 * total energy  :   -17.7295233 Eh     change       -0.3939512E-05 Eh
   gradient norm :     0.0002978 Eh/α   predicted    -0.1893836E-05 ( -51.93%)
   displ. norm   :     0.0251218 α      lambda       -0.1436498E-05
   maximum displ.:     0.0220820 α      in ANC's #2, #4, #1, ...

........................................................................
.............................. CYCLE    8 ..............................
........................................................................

 iter      E             dE          RMSdq      gap      omega  full diag
   1    -17.9436024 -0.179436E+02  0.998E-03   12.22       0.0  T
   2    -17.9436024 -0.365313E-08  0.599E-03   12.22       4.3  T
   3    -17.9436024 -0.220388E-08  0.291E-04   12.22      88.8  T
   4    -17.9436024 -0.156884E-09  0.185E-04   12.22     139.8  T
     SCC iter.                  ...        0 min,  0.001 sec
     gradient                   ...        0 min,  0.002 sec
 * total energy  :   -17.7295250 Eh     change       -0.1619803E-05 Eh
   gradient norm :     0.0002709 Eh/α   predicted    -0.7192752E-06 ( -55.59%)
   displ. norm   :     0.0145244 α      lambda       -0.6761386E-06
   maximum displ.:     0.0131553 α      in ANC's #2, #1, #4, ...

........................................................................
.............................. CYCLE    9 ..............................
........................................................................

 iter      E             dE          RMSdq      gap      omega  full diag
   1    -17.9435915 -0.179436E+02  0.596E-03   12.22       0.0  T
   2    -17.9435915 -0.155229E-08  0.357E-03   12.22       7.2  T
   3    -17.9435915 -0.810658E-09  0.178E-04   12.22     144.7  T
   4    -17.9435915 -0.577955E-10  0.115E-04   12.22     223.8  T
     SCC iter.                  ...        0 min,  0.001 sec
     gradient                   ...        0 min,  0.002 sec
 * total energy  :   -17.7295258 Eh     change       -0.8326061E-06 Eh
   gradient norm :     0.0001729 Eh/α   predicted    -0.3366377E-06 ( -59.57%)
   displ. norm   :     0.0110277 α      lambda       -0.4162889E-06
   maximum displ.:     0.0099126 α      in ANC's #2, #1, #6, ...

........................................................................
.............................. CYCLE   10 ..............................
........................................................................

 iter      E             dE          RMSdq      gap      omega  full diag
   1    -17.9435800 -0.179436E+02  0.420E-03   12.22       0.0  T
   2    -17.9435800 -0.109432E-08  0.253E-03   12.22      10.2  T
   3    -17.9435800 -0.374428E-09  0.144E-04   12.22     179.4  T
   4    -17.9435800 -0.791900E-10  0.819E-05   12.22     315.4  T
     SCC iter.                  ...        0 min,  0.001 sec
     gradient                   ...        0 min,  0.002 sec
 * total energy  :   -17.7295263 Eh     change       -0.5390117E-06 Eh
   gradient norm :     0.0000632 Eh/α   predicted    -0.2090265E-06 ( -61.22%)
   displ. norm   :     0.0109388 α      lambda       -0.3267995E-06
   maximum displ.:     0.0091837 α      in ANC's #2, #1, #3, ...

........................................................................
.............................. CYCLE   11 ..............................
........................................................................

 iter      E             dE          RMSdq      gap      omega  full diag
   1    -17.9435578 -0.179436E+02  0.406E-03   12.22       0.0  T
   2    -17.9435578 -0.660247E-09  0.245E-03   12.22      10.5  T
   3    -17.9435578 -0.430738E-09  0.120E-04   12.22     214.8  T
   4    -17.9435578 -0.166231E-10  0.690E-05   12.22     374.3  T
     SCC iter.                  ...        0 min,  0.001 sec
     gradient                   ...        0 min,  0.002 sec
 * total energy  :   -17.7295268 Eh     change       -0.4293019E-06 Eh
   gradient norm :     0.0000663 Eh/α   predicted    -0.1652468E-06 ( -61.51%)
   displ. norm   :     0.0122304 α      lambda       -0.2861279E-06
   maximum displ.:     0.0096936 α      in ANC's #2, #1, #3, ...

........................................................................
.............................. CYCLE   12 ..............................
........................................................................

 iter      E             dE          RMSdq      gap      omega  full diag
   1    -17.9435622 -0.179436E+02  0.438E-03   12.22       0.0  T
   2    -17.9435622 -0.681233E-09  0.264E-03   12.22       9.8  T
   3    -17.9435622 -0.449546E-09  0.124E-04   12.22     208.9  T
   4    -17.9435622 -0.186198E-10  0.715E-05   12.22     361.0  T
     SCC iter.                  ...        0 min,  0.001 sec
     gradient                   ...        0 min,  0.002 sec
 * total energy  :   -17.7295271 Eh     change       -0.3516281E-06 Eh
   gradient norm :     0.0000684 Eh/α   predicted    -0.1429725E-06 ( -59.34%)
   displ. norm   :     0.0110437 α      lambda       -0.1751083E-06
   maximum displ.:     0.0086563 α      in ANC's #2, #1, #3, ...

........................................................................
.............................. CYCLE   13 ..............................
........................................................................

 iter      E             dE          RMSdq      gap      omega  full diag
   1    -17.9435640 -0.179436E+02  0.389E-03   12.22       0.0  T
   2    -17.9435640 -0.517076E-09  0.234E-03   12.22      11.0  T
   3    -17.9435640 -0.358067E-09  0.107E-04   12.22     242.3  T
   4    -17.9435640 -0.131948E-10  0.545E-05   12.22     474.1  T
     SCC iter.                  ...        0 min,  0.001 sec
     gradient                   ...        0 min,  0.002 sec
 * total energy  :   -17.7295273 Eh     change       -0.1992297E-06 Eh
   gradient norm :     0.0000494 Eh/α   predicted    -0.8706384E-07 ( -56.30%)
   displ. norm   :     0.0070711 α      lambda       -0.6685050E-07
   maximum displ.:     0.0057094 α      in ANC's #2, #1, #3, ...

........................................................................
.............................. CYCLE   14 ..............................
........................................................................

 iter      E             dE          RMSdq      gap      omega  full diag
   1    -17.9435698 -0.179436E+02  0.254E-03   12.22       0.0  T
   2    -17.9435698 -0.227885E-09  0.153E-03   12.22      16.9  T
   3    -17.9435698 -0.157851E-09  0.734E-05   12.22     351.6  T
   4    -17.9435698 -0.691713E-11  0.447E-05   12.22     577.9  T
     SCC iter.                  ...        0 min,  0.001 sec
     gradient                   ...        0 min,  0.002 sec
 * total energy  :   -17.7295274 Eh     change       -0.7667269E-07 Eh
   gradient norm :     0.0000342 Eh/α   predicted    -0.3438088E-07 ( -55.16%)
   displ. norm   :     0.0039107 α      lambda       -0.2800670E-07
   maximum displ.:     0.0033041 α      in ANC's #2, #1, #3, ...

   *** GEOMETRY OPTIMIZATION CONVERGED AFTER 14 ITERATIONS ***

------------------------------------------------------------------------
 total energy gain   :        -0.0009058 Eh       -0.5684 kcal/mol
 total RMSD          :         0.0693712 a0        0.0367 Å
 total power (kW/mol):        -0.1698635 (step)  -36.6491 (real)
------------------------------------------------------------------------

 ANCopt (total)                0 d,  0 h,  0 min,  0.065 sec
 optimizer setup                ...        0 min,  0.000 sec (  0.382%)
 model hessian                  ...        0 min,  0.003 sec (  3.924%)
 ANC generation                 ...        0 min,  0.000 sec (  0.330%)
 coordinate transformation      ...        0 min,  0.000 sec (  0.076%)
 single point calculation       ...        0 min,  0.055 sec ( 84.979%)
 optimization log               ...        0 min,  0.005 sec (  7.368%)
 hessian update                 ...        0 min,  0.000 sec (  0.086%)
 rational function              ...        0 min,  0.001 sec (  2.162%)

================
 final structure:
================
$coord
        4.85186094639425       -0.59868435967218       -0.01843922331062      C
        2.44961554013712        0.99063332529352        0.00905212140316      C
        0.08199449742064       -0.65740460285736       -0.00090412673346      C
       -2.32730625329887        0.93512910241009        0.04874228045036      C
       -4.55419076684437       -0.52852921384358       -0.11134663997793      O
        6.51302064134888        0.60927744899481       -0.01408167700259      H
        4.92940206332811       -1.81698653574771        1.63474647142644      H
        4.91169883883135       -1.78134065768768       -1.69786997867798      H
        2.43554107114360        2.18904377840546        1.68940651455308      H
        2.42326009266898        2.22842378962467       -1.64148954746892      H
        0.05899070725641       -1.83916373579676       -1.69255357680290      H
        0.11039788673658       -1.90432220041095        1.64522403575298      H
       -2.36611111801432        2.10946921000052        1.76151765079016      H
       -2.38369952259410        2.18847300730899       -1.59194907889473      H
       -4.60487221987055       -1.69075988827295        1.29886658430290      H
$end
 
 Bond Distances (Angstroems)
 ---------------------------
C1-C2=1.5243         C1-H6=1.0869         C1-H7=1.0875         C1-H8=1.0874         C2-C1=1.5243         C2-C3=1.5265         
C2-H9=1.0922         C2-H10=1.0918        C3-C2=1.5265         C3-C4=1.5285         C3-H11=1.0921        C3-H12=1.0929        
C4-C3=1.5285         C4-O5=1.4127         C4-H13=1.0991        C4-H14=1.0930        O5-C4=1.4127         O5-H15=0.9674        
H6-C1=1.0869         H7-C1=1.0875         H8-C1=1.0874         H9-C2=1.0922         H10-C2=1.0918        H11-C3=1.0921        
H12-C3=1.0929        H13-C4=1.0991        H14-C4=1.0930        H15-O5=0.9674        
 C  H  Rav=1.0914 sigma=0.0036  Rmin=1.0869  Rmax=1.0991     9
 C  C  Rav=1.5265 sigma=0.0017  Rmin=1.5243  Rmax=1.5285     3
 O  H  Rav=0.9674 sigma=0.0000  Rmin=0.9674  Rmax=0.9674     1
 O  C  Rav=1.4127 sigma=0.0000  Rmin=1.4127  Rmax=1.4127     1
 
 selected bond angles (degree)
 --------------------
H6-C1-C2=110.49                H7-C1-C2=110.54                H7-C1-H6=108.45                H8-C1-C2=110.46                
H8-C1-H6=108.46                H8-C1-H7=108.37                C3-C2-C1=111.67                H9-C2-C1=109.50                
H9-C2-C3=109.20                H10-C2-C1=109.51               H10-C2-C3=109.24               H10-C2-H9=107.63               
C4-C3-C2=111.69                H11-C3-C2=109.82               H11-C3-C4=108.69               H12-C3-C2=109.32               
H12-C3-C4=109.31               H12-C3-H11=107.93              O5-C4-C3=113.11                H13-C4-C3=109.97               
H13-C4-O5=110.11               H14-C4-C3=110.10               H14-C4-O5=105.21               H14-C4-H13=108.15              
H15-O5-C4=108.99               
 
 selected dihedral angles (degree)
 ---------------------------------
C3-C2-C1-H6=179.90            C3-C2-C1-H7=299.95            C3-C2-C1-H8= 59.89            H9-C2-C1-H6=300.98            
H9-C2-C1-H7= 61.03            H9-C2-C1-H8=180.96            H10-C2-C1-H6= 58.78           H10-C2-C1-H7=178.83           
H10-C2-C1-H8=298.76           C4-C3-C2-C1=179.53            C4-C3-C2-H9= 58.28            C4-C3-C2-H10=300.81           
H11-C3-C2-C1=300.19           H11-C3-C2-H9=178.95           H11-C3-C2-H10= 61.48          H12-C3-C2-C1= 58.43           
H12-C3-C2-H9=297.18           H12-C3-C2-H10=179.72          O5-C4-C3-C2=176.44            O5-C4-C3-H11= 55.12           
O5-C4-C3-H12=297.55           H13-C4-C3-C2=300.00           H13-C4-C3-H11=178.68          H13-C4-C3-H12= 61.11          
H14-C4-C3-C2= 59.07           H14-C4-C3-H11=297.75          H14-C4-C3-H12=180.18          H15-O5-C4-C3= 59.47           
H15-O5-C4-H13=295.99          H15-O5-C4-H14=179.68          
           -------------------------------------------------
          |                Final Singlepoint                |
           -------------------------------------------------

          ...................................................
          :                      SETUP                      :
          :.................................................:
          :  # basis functions                  30          :
          :  # atomic orbitals                  30          :
          :  # shells                           20          :
          :  # electrons                        32          :
          :  max. iterations                   250          :
          :  Hamiltonian                  GFN2-xTB          :
          :  restarted?                      false          :
          :  GBSA solvation                   true          :
          :  PC potential                    false          :
          :  electronic temp.          300.0000000     K    :
          :  accuracy                    1.0000000          :
          :  -> integral cutoff          0.2500000E+02      :
          :  -> integral neglect         0.1000000E-07      :
          :  -> SCF convergence          0.1000000E-05 Eh   :
          :  -> wf. convergence          0.1000000E-03 e    :
          :  Broyden damping             0.4000000          :
          :  net charge                          0          :
          :  unpaired electrons                  0          :
          ...................................................

 iter      E             dE          RMSdq      gap      omega  full diag
   1    -17.9435698 -0.179436E+02  0.940E-06   12.22       0.0  T
   2    -17.9435698 -0.113687E-12  0.643E-06   12.22    4015.9  T
   3    -17.9435698 -0.817124E-13  0.183E-06   12.22   14094.7  T

   *** convergence criteria satisfied after 3 iterations ***

         #    Occupation            Energy/Eh            Energy/eV
      -------------------------------------------------------------
         1        2.0000           -0.6881114             -18.7245
       ...           ...                  ...                  ...
        10        2.0000           -0.4775100             -12.9937
        11        2.0000           -0.4702755             -12.7968
        12        2.0000           -0.4580662             -12.4646
        13        2.0000           -0.4381129             -11.9217
        14        2.0000           -0.4352688             -11.8443
        15        2.0000           -0.4244072             -11.5487
        16        2.0000           -0.4090637             -11.1312 (HOMO)
        17                          0.0399389               1.0868 (LUMO)
        18                          0.0913931               2.4869
        19                          0.1171945               3.1890
        20                          0.1353559               3.6832
        21                          0.1508118               4.1038
       ...                                ...                  ...
        30                          0.3084303               8.3928
      -------------------------------------------------------------
                  HL-Gap            0.4490026 Eh           12.2180 eV
             Fermi-level           -0.1845624 Eh           -5.0222 eV

 SCC (total)                   0 d,  0 h,  0 min,  0.004 sec
 SCC setup                      ...        0 min,  0.001 sec ( 13.831%)
 Dispersion                     ...        0 min,  0.000 sec (  0.673%)
 classical contributions        ...        0 min,  0.000 sec (  0.232%)
 integral evaluation            ...        0 min,  0.001 sec ( 14.471%)
 iterations                     ...        0 min,  0.001 sec ( 14.520%)
 molecular gradient             ...        0 min,  0.002 sec ( 54.035%)
 printout                       ...        0 min,  0.000 sec (  1.968%)

         :::::::::::::::::::::::::::::::::::::::::::::::::::::
         ::                     SUMMARY                     ::
         :::::::::::::::::::::::::::::::::::::::::::::::::::::
         :: total energy             -17.729527391981 Eh    ::
         :: total w/o Gsasa/hb       -17.725572449909 Eh    ::
         :: gradient norm              0.000034916649 Eh/a0 ::
         :: HOMO-LUMO gap             12.217981499880 eV    ::
         ::.................................................::
         :: SCC energy               -17.943565151886 Eh    ::
         :: -> isotropic ES            0.035601249151 Eh    ::
         :: -> anisotropic ES          0.003127417412 Eh    ::
         :: -> anisotropic XC          0.006231918197 Eh    ::
         :: -> dispersion             -0.006862866167 Eh    ::
         :: -> Gsolv                  -0.008671802857 Eh    ::
         ::    -> Gelec               -0.004716860784 Eh    ::
         ::    -> Gsasa                0.000799273090 Eh    ::
         ::    -> Ghb                 -0.005834974860 Eh    ::
         ::    -> Gshift               0.001080759698 Eh    ::
         :: repulsion energy           0.214037759905 Eh    ::
         :: add. restraining           0.000000000000 Eh    ::
         :: total charge               0.000000000000 e     ::
         :::::::::::::::::::::::::::::::::::::::::::::::::::::

           ------------------------------------------------- 
          |                Numerical Hessian                |
           ------------------------------------------------- 
step length          :   0.00500
SCC accuracy         :   0.30000
Hessian scale factor :   1.00000
frozen atoms in %    :   0.00000    0
RMS gradient         :   0.00003
estimated CPU  time      0.01 min
estimated wall time      0.01 min

writing file <hessian>.

 projected vibrational frequencies (cm⁻¹)
eigval :       -0.00    -0.00    -0.00     0.00     0.00     0.00
eigval :      100.34   105.02   187.07   234.33   331.76   393.64
eigval :      436.44   777.27   832.07   942.31   946.32  1014.73
eigval :     1076.60  1084.49  1104.19  1132.01  1207.38  1247.71
eigval :     1272.37  1275.19  1301.49  1341.05  1366.52  1411.87
eigval :     1479.49  1487.90  1495.26  1498.68  1501.02  2868.82
eigval :     2957.20  2966.46  2971.27  2981.54  2983.74  3029.24
eigval :     3032.87  3042.00  3494.54
           -------------------------------------------------
          |                Property Printout                |
           -------------------------------------------------

    * Orbital Energies and Occupations

         #    Occupation            Energy/Eh            Energy/eV
      -------------------------------------------------------------
         1        2.0000           -0.6881114             -18.7245
       ...           ...                  ...                  ...
         4        2.0000           -0.5885742             -16.0159
         5        2.0000           -0.5613622             -15.2754
         6        2.0000           -0.5536185             -15.0647
         7        2.0000           -0.5231314             -14.2351
         8        2.0000           -0.5173682             -14.0783
         9        2.0000           -0.5051531             -13.7459
        10        2.0000           -0.4775100             -12.9937
        11        2.0000           -0.4702755             -12.7968
        12        2.0000           -0.4580662             -12.4646
        13        2.0000           -0.4381129             -11.9217
        14        2.0000           -0.4352688             -11.8443
        15        2.0000           -0.4244072             -11.5487
        16        2.0000           -0.4090637             -11.1312 (HOMO)
        17                          0.0399389               1.0868 (LUMO)
        18                          0.0913931               2.4869
        19                          0.1171945               3.1890
        20                          0.1353559               3.6832
        21                          0.1508118               4.1038
        22                          0.1611030               4.3838
        23                          0.1701688               4.6305
        24                          0.1854983               5.0477
        25                          0.1994344               5.4269
        26                          0.2128855               5.7929
        27                          0.2469853               6.7208
       ...                                ...                  ...
        30                          0.3084303               8.3928
      -------------------------------------------------------------
                  HL-Gap            0.4490026 Eh           12.2180 eV
             Fermi-level           -0.1845624 Eh           -5.0222 eV

     #   Z          covCN         q      C6AA      α(0)
     1   6 C        3.752    -0.114    22.735     6.799
     2   6 C        3.801    -0.060    21.661     6.626
     3   6 C        3.801    -0.077    21.971     6.674
     4   6 C        3.675     0.079    19.482     6.325
     5   8 O        1.654    -0.521    23.355     6.524
     6   1 H        0.925     0.042     2.426     2.436
     7   1 H        0.925     0.041     2.437     2.441
     8   1 H        0.925     0.040     2.444     2.445
     9   1 H        0.924     0.034     2.526     2.485
    10   1 H        0.924     0.034     2.536     2.490
    11   1 H        0.924     0.045     2.380     2.413
    12   1 H        0.924     0.041     2.431     2.438
    13   1 H        0.923     0.020     2.735     2.586
    14   1 H        0.924     0.041     2.433     2.439
    15   1 H        0.805     0.355     0.577     1.194

 Mol. C6AA /au·bohr⁶  :       1459.897671
 Mol. C8AA /au·bohr⁸  :      29902.561179
 Mol. α(0) /au        :         56.315617


Wiberg/Mayer (AO) data.
largest (>0.10) Wiberg bond orders for each atom

 ---------------------------------------------------------------------------
     #   Z sym  total        # sym  WBO       # sym  WBO       # sym  WBO
 ---------------------------------------------------------------------------
     1   6 C    3.996 --     2 C    1.019     8 H    0.988     7 H    0.987
                             6 H    0.987
     2   6 C    3.997 --     1 C    1.019     3 C    1.007    10 H    0.978
                             9 H    0.978
     3   6 C    3.996 --     2 C    1.007     4 C    0.998    11 H    0.977
                            12 H    0.976
     4   6 C    3.952 --     3 C    0.998     5 O    0.993    14 H    0.974
                            13 H    0.971
     5   8 O    1.909 --     4 C    0.993    15 H    0.860
     6   1 H    0.998 --     1 C    0.987
     7   1 H    0.998 --     1 C    0.987
     8   1 H    0.998 --     1 C    0.988
     9   1 H    0.999 --     2 C    0.978
    10   1 H    0.999 --     2 C    0.978
    11   1 H    0.998 --     3 C    0.977
    12   1 H    0.998 --     3 C    0.976
    13   1 H    1.000 --     4 C    0.971
    14   1 H    0.998 --     4 C    0.974
    15   1 H    0.874 --     5 O    0.860
 ---------------------------------------------------------------------------

Topologies differ in total number of bonds
Writing topology from bond orders to xtbtopo.mol

molecular dipole:
                 x           y           z       tot (Debye)
 q only:        0.549      -0.192       0.486
   full:        0.617      -0.205       0.624       2.290
molecular quadrupole (traceless):
                xx          xy          yy          xz          yz          zz
 q only:       -3.125       1.507       2.005      -3.470      -1.293       1.121
  q+dip:       -6.067       1.401       2.636      -4.494      -1.637       3.430
   full:       -5.244       1.654       2.626      -4.469      -1.749       2.618

           -------------------------------------------------
          |                Geometry Summary                 |
           -------------------------------------------------

      molecular mass/u    :       74.1217560
   center of mass at/Å    :       -0.0000924      -0.0008456       0.0005941
  moments of inertia/u·Å² :        0.2707049E+02   0.2555058E+03   0.2688991E+03
rotational constants/cm⁻¹ :        0.6227310E+00   0.6597750E-01   0.6269130E-01

 * 14 selected distances

     #   Z          #   Z                                           value/Å
     1   6 C        2   6 C                                       1.5243125
     2   6 C        3   6 C                                       1.5265418
     3   6 C        4   6 C                                       1.5285218 (max)
     4   6 C        5   8 O                                       1.4127089
     1   6 C        6   1 H                                       1.0868948
     1   6 C        7   1 H                                       1.0874941
     1   6 C        8   1 H                                       1.0874231
     2   6 C        9   1 H                                       1.0922066
     2   6 C       10   1 H                                       1.0918387
     3   6 C       11   1 H                                       1.0920508
     3   6 C       12   1 H                                       1.0928949
     4   6 C       13   1 H                                       1.0991331
     4   6 C       14   1 H                                       1.0929681
     5   8 O       15   1 H                                       0.9674035 (min)

 * 4 distinct bonds (by element types)

   Z      Z             #   av. dist./Å        max./Å        min./Å
   1 H    6 C           9     1.0914338     1.0991331     1.0868948
   6 C    6 C           3     1.5264587     1.5285218     1.5243125
   1 H    8 O           1     0.9674035     0.9674035     0.9674035
   6 C    8 O           1     1.4127089     1.4127089     1.4127089

           -------------------------------------------------
          |               Frequency Printout                |
           -------------------------------------------------
 projected vibrational frequencies (cm⁻¹)
eigval :       -0.00    -0.00    -0.00     0.00     0.00     0.00
eigval :      100.34   105.02   187.07   234.33   331.76   393.64
eigval :      436.44   777.27   832.07   942.31   946.32  1014.73
eigval :     1076.60  1084.49  1104.19  1132.01  1207.38  1247.71
eigval :     1272.37  1275.19  1301.49  1341.05  1366.52  1411.87
eigval :     1479.49  1487.90  1495.26  1498.68  1501.02  2868.82
eigval :     2957.20  2966.46  2971.27  2981.54  2983.74  3029.24
eigval :     3032.87  3042.00  3494.54
 reduced masses (amu)
   1:  8.47   2: 11.25   3:  9.86   4: 12.05   5: 11.49   6:  9.32   7:  9.16   8:  6.26
   9:  9.90  10:  2.15  11:  2.51  12:  9.98  13: 10.92  14:  1.73  15:  2.35  16:  5.51
  17:  2.78  18: 10.68  19:  4.53  20: 10.54  21:  7.91  22:  7.53  23:  5.65  24:  3.88
  25:  2.39  26:  2.44  27:  3.06  28:  3.57  29:  5.17  30:  3.20  31:  1.85  32:  1.96
  33:  1.81  34:  1.53  35:  1.63  36:  1.75  37:  1.86  38:  1.88  39:  1.75  40:  1.57
  41:  1.53  42:  1.95  43:  1.89  44:  1.30  45:  1.88
 IR intensities (km·mol⁻¹)
   1:  2.22   2:  0.76   3:  0.47   4:  0.05   5:  0.02   6:  2.12   7:  3.18   8:  5.50
   9:  1.16  10:  0.10  11:213.13  12:  1.21  13: 22.93  14: 13.51  15:  2.23  16:  0.90
  17: 11.93  18: 97.21  19: 33.71  20: 61.79  21:  2.60  22:  4.73  23: 14.97  24: 18.71
  25:  5.47  26:  4.06  27: 52.14  28: 23.48  29: 14.68  30:  0.20  31:  3.65  32:  0.77
  33:  1.40  34:  1.61  35:  0.44  36:110.83  37:  4.78  38: 58.48  39:124.60  40: 32.78
  41:131.68  42: 84.89  43: 80.98  44: 41.46  45: 61.77
 Raman intensities (Ä⁴*amu⁻¹)
   1:  0.00   2:  0.00   3:  0.00   4:  0.00   5:  0.00   6:  0.00   7:  0.00   8:  0.00
   9:  0.00  10:  0.00  11:  0.00  12:  0.00  13:  0.00  14:  0.00  15:  0.00  16:  0.00
  17:  0.00  18:  0.00  19:  0.00  20:  0.00  21:  0.00  22:  0.00  23:  0.00  24:  0.00
  25:  0.00  26:  0.00  27:  0.00  28:  0.00  29:  0.00  30:  0.00  31:  0.00  32:  0.00
  33:  0.00  34:  0.00  35:  0.00  36:  0.00  37:  0.00  38:  0.00  39:  0.00  40:  0.00
  41:  0.00  42:  0.00  43:  0.00  44:  0.00  45:  0.00
 output can be read by thermo (or use thermo option).
 writing <g98.out> molden fake output.
 recommended (thermochemical) frequency scaling factor: 1.0
           -------------------------------------------------
          |             Thermodynamic Functions             |
           -------------------------------------------------

Molecule has no symmetry elements
It seems to be the C1 point group
c1  symmetry found (for desy threshold:  0.10E+00) used in thermo

          ...................................................
          :                      SETUP                      :
          :.................................................:
          :  # frequencies                          39      :
          :  # imaginary freq.                       0      :
          :  linear?                             false      :
          :  only rotor calc.                    false      :
          :  symmetry                               c1      :
          :  rotational number                       1      :
          :  scaling factor                  1.0000000      :
          :  rotor cutoff                    0.0000000 cm⁻¹ :
          :  imag. cutoff                 -100.0000000 cm⁻¹ :
          :.................................................:

    mode    ω/cm⁻¹     T·S(HO)/kcal·mol⁻¹    T·S(FR)/kcal·mol⁻¹   T·S(vib)
   ------------------------------------------------------------------------
       1    100.34    -1.02796 (100.00%)    -0.84995 (  0.00%)    -1.02796
       2    105.02    -1.00145 (100.00%)    -0.83643 (  0.00%)    -1.00145
       3    187.07    -0.67284 (100.00%)    -0.66553 (  0.00%)    -0.67284
       4    234.33    -0.55025 (100.00%)    -0.59883 (  0.00%)    -0.55025
   ------------------------------------------------------------------------

   temp. (K)  partition function   enthalpy   heat capacity  entropy
                                   cal/mol     cal/K/mol   cal/K/mol   J/K/mol
 298.15  VIB   30.5                 2522.764     17.267     15.251
         ROT  0.104E+06              888.752      2.981     25.941
         INT  0.317E+07             3411.517     20.248     41.193
         TR   0.617E+27             1481.254      4.968     38.808
         TOT                        4892.7706    25.2165    80.0005   334.7223

       T/K    H(0)-H(T)+PV         H(T)/Eh          T*S/Eh         G(T)/Eh
   ------------------------------------------------------------------------
    298.15    0.779713E-02    0.142009E+00    0.380108E-01    0.103998E+00
   ------------------------------------------------------------------------

         :::::::::::::::::::::::::::::::::::::::::::::::::::::
         ::                  THERMODYNAMIC                  ::
         :::::::::::::::::::::::::::::::::::::::::::::::::::::
         :: total free energy         -17.625529267294 Eh   ::
         ::.................................................::
         :: total energy              -17.729527392072 Eh   ::
         :: zero point energy           0.134211836686 Eh   ::
         :: G(RRHO) w/o ZPVE           -0.030213711909 Eh   ::
         :: G(RRHO) contrib.            0.103998124778 Eh   ::
         :::::::::::::::::::::::::::::::::::::::::::::::::::::

optimized geometry written to: xtbopt.coord


           -------------------------------------------------
          | TOTAL ENERGY              -17.729527392072 Eh   |
          | TOTAL ENTHALPY            -17.587518429141 Eh   |
          | TOTAL FREE ENERGY         -17.625529267294 Eh   |
          | GRADIENT NORM               0.000034944337 Eh/α |
          | HOMO-LUMO GAP              12.217981580574 eV   |
           -------------------------------------------------

------------------------------------------------------------------------
 * finished run on 2025/04/06 at 22:38:51.146     
------------------------------------------------------------------------
 total:
 * wall-time:     0 d,  0 h,  0 min,  0.521 sec
 *  cpu-time:     0 d,  0 h,  0 min,  0.438 sec
 * ratio c/w:     0.841 speedup
 SCF:
 * wall-time:     0 d,  0 h,  0 min,  0.021 sec
 *  cpu-time:     0 d,  0 h,  0 min,  0.007 sec
 * ratio c/w:     0.341 speedup
 ANC optimizer:
 * wall-time:     0 d,  0 h,  0 min,  0.080 sec
 *  cpu-time:     0 d,  0 h,  0 min,  0.066 sec
 * ratio c/w:     0.827 speedup
 analytical hessian:
 * wall-time:     0 d,  0 h,  0 min,  0.366 sec
 *  cpu-time:     0 d,  0 h,  0 min,  0.356 sec
 * ratio c/w:     0.975 speedup

