15
 xtb: 6.7.1 (edcfbbe)
C            2.09974633110603        0.41642686925980        0.35164259988957
C            1.02582718871443       -0.01746455684925       -0.63000872353414
O           -0.00001371222549       -0.80735804133249        0.00045852670038
C           -1.02581059795660       -0.01674583290787        0.63009450528129
C           -2.09973016485013        0.41612718267125       -0.35200672662188
H            2.56997750285178       -0.45476922804095        0.81836520858186
H            2.87446923617328        0.98368135864847       -0.17542328833342
H            1.69160356327574        1.05755182452233        1.13906463369694
H            1.45942988321839       -0.65745292189189       -1.40591413584673
H            0.57920337115363        0.85280487619534       -1.12962003794280
H           -1.45942169209792       -0.65587997493915        1.40669938764297
H           -0.57914778761170        0.85404594386469        1.12876166964367
H           -2.87441018501177        0.98400483266299        0.17445127261884
H           -1.69156905884824        1.05636782704101       -1.14013950553684
H           -2.57001968834483       -0.45555408900622       -0.81776451795485
