      -----------------------------------------------------------      
     |                   =====================                   |     
     |                           x T B                           |     
     |                   =====================                   |     
     |                         S. Grimme                         |     
     |          Mulliken Center for Theoretical Chemistry        |     
     |                    University of Bonn                     |     
      -----------------------------------------------------------      

   * xtb version 6.7.1 (edcfbbe) compiled by 'albert@albert-system' on 2024-07-22

   xtb is free software: you can redistribute it and/or modify it under
   the terms of the GNU Lesser General Public License as published by
   the Free Software Foundation, either version 3 of the License, or
   (at your option) any later version.
   
   xtb is distributed in the hope that it will be useful,
   but WITHOUT ANY WARRANTY; without even the implied warranty of
   MERCHANTABILITY or FITNESS FOR A PARTICULAR PURPOSE.  See the
   GNU Lesser General Public License for more details.
   
   Cite this work as:
   * C. Bannwarth, E. Caldeweyher, S. Ehlert, A. Hansen, P. Pracht,
     J. Seibert, S. Spicher, S. Grimme, WIREs Comput. Mol. Sci., 2020, 11,
     e01493. DOI: 10.1002/wcms.1493
   
   for GFN2-xTB:
   * C. Bannwarth, S. Ehlert and S. Grimme., J. Chem. Theory Comput., 2019,
     15, 1652-1671. DOI: 10.1021/acs.jctc.8b01176
   for GFN1-xTB:
   * S. Grimme, C. Bannwarth, P. Shushkov, J. Chem. Theory Comput., 2017,
     13, 1989-2009. DOI: 10.1021/acs.jctc.7b00118
   for GFN0-xTB:
   * P. Pracht, E. Caldeweyher, S. Ehlert, S. Grimme, ChemRxiv, 2019, preprint.
     DOI: 10.26434/chemrxiv.8326202.v1
   for GFN-FF:
   * S. Spicher and S. Grimme, Angew. Chem. Int. Ed., 2020, 59, 15665-15673.
     DOI: 10.1002/anie.202004239
   
   for ALPB and GBSA implicit solvation:
   * S. Ehlert, M. Stahn, S. Spicher, S. Grimme, J. Chem. Theory Comput.,
     2021, 17, 4250-4261. DOI: 10.1021/acs.jctc.1c00471
   
   for ddCOSMO and CPCM-X implicit solvation:
   * M. Stahn, S. Ehlert, S. Grimme, J. Phys. Chem. A,
     2023, XX, XXXX-XXXX. DOI: 10.1021/acs.jpca.3c04382
   
   for DFT-D4:
   * E. Caldeweyher, C. Bannwarth and S. Grimme, J. Chem. Phys., 2017,
     147, 034112. DOI: 10.1063/1.4993215
   * E. Caldeweyher, S. Ehlert, A. Hansen, H. Neugebauer, S. Spicher,
     C. Bannwarth and S. Grimme, J. Chem. Phys., 2019, 150, 154122.
     DOI: 10.1063/1.5090222
   * E. Caldeweyher, J.-M. Mewes, S. Ehlert and S. Grimme, Phys. Chem. Chem. Phys.
     2020, 22, 8499-8512. DOI: 10.1039/D0CP00502A
   
   for sTDA-xTB:
   * S. Grimme and C. Bannwarth, J. Chem. Phys., 2016, 145, 054103.
     DOI: 10.1063/1.4959605
   
   in the mass-spec context:
   * V. Asgeirsson, C. Bauer and S. Grimme, Chem. Sci., 2017, 8, 4879.
     DOI: 10.1039/c7sc00601b
   * J. Koopman and S. Grimme, ACS Omega 2019, 4, 12, 15120-15133.
     DOI: 10.1021/acsomega.9b02011
   
   for metadynamics refer to:
   * S. Grimme, J. Chem. Theory Comput., 2019, 155, 2847-2862
     DOI: 10.1021/acs.jctc.9b00143
   
   for SPH calculations refer to:
   * S. Spicher and S. Grimme, J. Chem. Theory Comput., 2021, 17, 1701-1714
     DOI: 10.1021/acs.jctc.0c01306
   
   for ONIOM refer to:
   * C. Plett, A. Katbashev, S. Ehlert, S. Grimme, M. Bursch,
     Phys. Chem. Chem. Phys., 2023, 25, 17860-17868. DOI: 10.1039/D3CP02178E
   
   for DIPRO refer to:
   * J. Kohn, N. Gildemeister, S. Grimme, D. Fazzi, A. Hansen,
     J. Chem. Phys., 2023, just accepted.
   
   for PTB refer to:
   * S. Grimme, M. Mueller, A. Hansen, J. Chem. Phys., 2023, 158, 124111.
     DOI: 10.1063/5.0137838
   
   with help from (in alphabetical order)
   P. Atkinson, C. Bannwarth, F. Bohle, G. Brandenburg, E. Caldeweyher
   M. Checinski, S. Dohm, S. Ehlert, S. Ehrlich, I. Gerasimov, C. Hölzer
   A. Katbashev, J. Kohn, J. Koopman, C. Lavigne, S. Lehtola, F. März, M. Müller,
   F. Musil, H. Neugebauer, J. Pisarek, C. Plett, P. Pracht, F. Pultar,
   J. Seibert, P. Shushkov, S. Spicher, M. Stahn, M. Steiner, T. Strunk,
   J. Stückrath, T. Rose, and J. Unsleber
   
 * started run on 2025/04/06 at 22:31:19.760     
   ID    Z sym.   atoms
    1    6 C      1-4
    2    8 O      5
    3    1 H      6-15

           -------------------------------------------------
          |                Calculation Setup                |
           -------------------------------------------------

          program call               : /srv/scratch/z5358697/.xtb/bin/xtb gas.coord --gfn2 --sp --chrg 0 --norestart --parallel 1
          hostname                   : k159
          coordinate file            : gas.coord
          omp threads                :                     1


           -------------------------------------------------
          |                 G F N 2 - x T B                 |
           -------------------------------------------------

        Reference                      10.1021/acs.jctc.8b01176
      * Hamiltonian:
        H0-scaling (s, p, d)           1.850000    2.230000    2.230000
        zeta-weighting                 0.500000
      * Dispersion:
        s8                             2.700000
        a1                             0.520000
        a2                             5.000000
        s9                             5.000000
      * Repulsion:
        kExp                           1.500000    1.000000
        rExp                           1.000000
      * Coulomb:
        alpha                          2.000000
        third order                    shell-resolved
        anisotropic                    true
        a3                             3.000000
        a5                             4.000000
        cn-shift                       1.200000
        cn-exp                         4.000000
        max-rad                        5.000000


          ...................................................
          :                      SETUP                      :
          :.................................................:
          :  # basis functions                  30          :
          :  # atomic orbitals                  30          :
          :  # shells                           20          :
          :  # electrons                        32          :
          :  max. iterations                   250          :
          :  Hamiltonian                  GFN2-xTB          :
          :  restarted?                      false          :
          :  GBSA solvation                  false          :
          :  PC potential                    false          :
          :  electronic temp.          300.0000000     K    :
          :  accuracy                    1.0000000          :
          :  -> integral cutoff          0.2500000E+02      :
          :  -> integral neglect         0.1000000E-07      :
          :  -> SCF convergence          0.1000000E-05 Eh   :
          :  -> wf. convergence          0.1000000E-03 e    :
          :  Broyden damping             0.4000000          :
          :  net charge                          0          :
          :  unpaired electrons                  0          :
          ...................................................

 iter      E             dE          RMSdq      gap      omega  full diag
   1    -17.8980589 -0.178981E+02  0.321E+00   12.62       0.0  T
   2    -17.9323959 -0.343370E-01  0.172E+00   12.34       1.0  T
   3    -17.9329384 -0.542473E-03  0.754E-01   12.39       1.0  T
   4    -17.9330944 -0.156020E-03  0.104E-01   12.38       1.0  T
   5    -17.9331146 -0.202143E-04  0.598E-02   12.39       1.0  T
   6    -17.9331157 -0.105102E-05  0.775E-03   12.40       3.3  T
   7    -17.9331159 -0.186608E-06  0.401E-03   12.40       6.4  T
   8    -17.9331159 -0.854390E-08  0.986E-04   12.40      26.2  T
   9    -17.9331159 -0.136161E-08  0.234E-04   12.40     110.3  T

   *** convergence criteria satisfied after 9 iterations ***

         #    Occupation            Energy/Eh            Energy/eV
      -------------------------------------------------------------
         1        2.0000           -0.6828514             -18.5813
       ...           ...                  ...                  ...
        10        2.0000           -0.4927338             -13.4080
        11        2.0000           -0.4773697             -12.9899
        12        2.0000           -0.4606631             -12.5353
        13        2.0000           -0.4437412             -12.0748
        14        2.0000           -0.4379313             -11.9167
        15        2.0000           -0.4275145             -11.6333
        16        2.0000           -0.4059734             -11.0471 (HOMO)
        17                          0.0496554               1.3512 (LUMO)
        18                          0.0793100               2.1581
        19                          0.0992453               2.7006
        20                          0.1211811               3.2975
        21                          0.1296973               3.5292
       ...                                ...                  ...
        30                          0.3096365               8.4256
      -------------------------------------------------------------
                  HL-Gap            0.4556288 Eh           12.3983 eV
             Fermi-level           -0.1781590 Eh           -4.8480 eV

 SCC (total)                   0 d,  0 h,  0 min,  0.013 sec
 SCC setup                      ...        0 min,  0.000 sec (  0.864%)
 Dispersion                     ...        0 min,  0.000 sec (  0.399%)
 classical contributions        ...        0 min,  0.000 sec (  0.091%)
 integral evaluation            ...        0 min,  0.001 sec (  5.423%)
 iterations                     ...        0 min,  0.010 sec ( 77.015%)
 molecular gradient             ...        0 min,  0.002 sec ( 15.419%)
 printout                       ...        0 min,  0.000 sec (  0.711%)

         :::::::::::::::::::::::::::::::::::::::::::::::::::::
         ::                     SUMMARY                     ::
         :::::::::::::::::::::::::::::::::::::::::::::::::::::
         :: total energy             -17.719849800053 Eh    ::
         :: gradient norm              0.006204039406 Eh/a0 ::
         :: HOMO-LUMO gap             12.398292010510 eV    ::
         ::.................................................::
         :: SCC energy               -17.933103669841 Eh    ::
         :: -> isotropic ES            0.026750011215 Eh    ::
         :: -> anisotropic ES          0.004058808425 Eh    ::
         :: -> anisotropic XC          0.005943904105 Eh    ::
         :: -> dispersion             -0.007386603170 Eh    ::
         :: repulsion energy           0.213253869788 Eh    ::
         :: add. restraining           0.000000000000 Eh    ::
         :: total charge              -0.000000000000 e     ::
         :::::::::::::::::::::::::::::::::::::::::::::::::::::

           -------------------------------------------------
          |                Property Printout                |
           -------------------------------------------------

    * Orbital Energies and Occupations

         #    Occupation            Energy/Eh            Energy/eV
      -------------------------------------------------------------
         1        2.0000           -0.6828514             -18.5813
       ...           ...                  ...                  ...
         4        2.0000           -0.5900393             -16.0558
         5        2.0000           -0.5652260             -15.3806
         6        2.0000           -0.5588138             -15.2061
         7        2.0000           -0.5292031             -14.4003
         8        2.0000           -0.5141621             -13.9911
         9        2.0000           -0.4949440             -13.4681
        10        2.0000           -0.4927338             -13.4080
        11        2.0000           -0.4773697             -12.9899
        12        2.0000           -0.4606631             -12.5353
        13        2.0000           -0.4437412             -12.0748
        14        2.0000           -0.4379313             -11.9167
        15        2.0000           -0.4275145             -11.6333
        16        2.0000           -0.4059734             -11.0471 (HOMO)
        17                          0.0496554               1.3512 (LUMO)
        18                          0.0793100               2.1581
        19                          0.0992453               2.7006
        20                          0.1211811               3.2975
        21                          0.1296973               3.5292
        22                          0.1455908               3.9617
        23                          0.1629555               4.4342
        24                          0.1805871               4.9140
        25                          0.1905561               5.1853
        26                          0.2187235               5.9518
        27                          0.2449526               6.6655
       ...                                ...                  ...
        30                          0.3096365               8.4256
      -------------------------------------------------------------
                  HL-Gap            0.4556288 Eh           12.3983 eV
             Fermi-level           -0.1781590 Eh           -4.8480 eV

     #   Z          covCN         q      C6AA      α(0)
     1   6 C        3.751    -0.105    22.561     6.774
     2   6 C        3.799    -0.052    21.504     6.603
     3   6 C        3.799    -0.074    21.919     6.666
     4   6 C        3.673     0.081    19.455     6.321
     5   8 O        1.654    -0.444    21.732     6.293
     6   1 H        0.925     0.031     2.575     2.510
     7   1 H        0.925     0.043     2.412     2.429
     8   1 H        0.925     0.035     2.510     2.478
     9   1 H        0.924     0.027     2.632     2.537
    10   1 H        0.924     0.030     2.581     2.512
    11   1 H        0.924     0.032     2.564     2.504
    12   1 H        0.924     0.050     2.319     2.381
    13   1 H        0.923     0.014     2.829     2.630
    14   1 H        0.924     0.044     2.400     2.423
    15   1 H        0.805     0.288     0.757     1.367

 Mol. C6AA /au·bohr⁶  :       1463.163891
 Mol. C8AA /au·bohr⁸  :      29864.865607
 Mol. α(0) /au        :         56.427083


Wiberg/Mayer (AO) data.
largest (>0.10) Wiberg bond orders for each atom

 ---------------------------------------------------------------------------
     #   Z sym  total        # sym  WBO       # sym  WBO       # sym  WBO
 ---------------------------------------------------------------------------
     1   6 C    3.996 --     2 C    1.020     8 H    0.988     6 H    0.988
                             7 H    0.984
     2   6 C    3.998 --     1 C    1.020     3 C    1.005    10 H    0.980
                             9 H    0.977
     3   6 C    3.996 --     2 C    1.005     4 C    0.998    11 H    0.978
                            12 H    0.976
     4   6 C    3.957 --     5 O    0.999     3 C    0.998    14 H    0.973
                            13 H    0.972
     5   8 O    1.960 --     4 C    0.999    15 H    0.900
     6   1 H    0.999 --     1 C    0.988
     7   1 H    0.998 --     1 C    0.984
     8   1 H    0.999 --     1 C    0.988
     9   1 H    0.999 --     2 C    0.977
    10   1 H    0.999 --     2 C    0.980
    11   1 H    0.999 --     3 C    0.978
    12   1 H    0.997 --     3 C    0.976
    13   1 H    1.000 --     4 C    0.972
    14   1 H    0.998 --     4 C    0.973
    15   1 H    0.917 --     5 O    0.900
 ---------------------------------------------------------------------------

Topologies differ in total number of bonds
Writing topology from bond orders to xtbtopo.mol

molecular dipole:
                 x           y           z       tot (Debye)
 q only:        0.430       0.315       0.127
   full:        0.569       0.453       0.243       1.948
molecular quadrupole (traceless):
                xx          xy          yy          xz          yz          zz
 q only:       -2.385      -2.308       0.122       0.250      -0.939       2.263
  q+dip:       -3.199      -3.022      -0.565       0.089      -0.219       3.765
   full:       -3.246      -3.079      -0.264       0.264      -0.734       3.510


           -------------------------------------------------
          | TOTAL ENERGY              -17.719849800053 Eh   |
          | GRADIENT NORM               0.006204039406 Eh/α |
          | HOMO-LUMO GAP              12.398292010510 eV   |
           -------------------------------------------------

------------------------------------------------------------------------
 * finished run on 2025/04/06 at 22:31:19.797     
------------------------------------------------------------------------
 total:
 * wall-time:     0 d,  0 h,  0 min,  0.037 sec
 *  cpu-time:     0 d,  0 h,  0 min,  0.011 sec
 * ratio c/w:     0.309 speedup
 SCF:
 * wall-time:     0 d,  0 h,  0 min,  0.013 sec
 *  cpu-time:     0 d,  0 h,  0 min,  0.006 sec
 * ratio c/w:     0.463 speedup

