! pbe def2-sv(p) def2/J RI DEFGRID1 loosescf d4 GCP(DFT/SV(P)) printgap
%output
    printlevel normal
end
* xyz 0 1
C -1.6780857433 -1.3218581217 -0.5879218739
C -1.1452263338 -0.4945314471 0.5999397949
H -1.8996806978 -0.4973531827 1.3954075882
C -0.8774188517 0.9816732994 0.2129362036
H -1.2689637882 1.1688709505 -0.7928101586
C 0.6296143939 1.2685571199 0.2052670747
H 0.9846113664 1.3809842181 1.2443596996
C 1.381309239 0.0862967036 -0.418412899
H 0.9822095806 -0.1013308414 -1.4239693739
C 1.1646779621 -1.1656746742 0.4501823358
H 1.9660689056 -1.209077811 1.2050876223
O -0.0169544568 -1.1096977599 1.2108140024
O 1.2091653877 -2.2800083347 -0.3865671079
O 2.7407397838 0.4379699303 -0.4828537395
O 0.8605990571 2.4513758549 -0.5111922607
O -1.58220597 1.8683734787 1.0432258406
O -2.7828886619 -0.723057624 -1.2112644057
H -1.9225166592 -2.3293186354 -0.2283241164
H -0.9109999135 -1.4100307161 -1.3593734246
H 1.1765622877 -3.09599302 0.1356409124
H 3.2263005985 -0.2179045874 -1.0026229817
H 1.8173375332 2.5373259683 -0.6494817146
H -1.1736065523 1.8953188279 1.9209677617
H -3.5207265095 -0.6667391161 -0.5875244375
*
