! wb97x-v def2-tzvp def2/J RIJCOSX DEFGRID2 scfconv7 GCP(DFT/TZ) printgap
%output
    printlevel normal
end
* xyz 0 1
C 1.690734624208423 -1.073917143517953 0.15059248003678022
C 1.040799054476385 0.2606294264526488 -0.1906780347891376
C -0.45764462508222314 0.34732816430487956 -0.06304586341976715
O -1.0743090074593327 1.3943959218085882 -0.15549895402130198
O -1.1553727725083378 -0.7927566946949488 0.14477581509044202
H 1.360958355783357 -1.8735497857337533 -0.5220739211274649
H 2.7748567819233396 -0.9911684671119394 0.04083732251713646
H 1.4841732963675855 -1.3701311375440108 1.1840697875754085
H 1.441366022709768 1.0661085084414577 0.43355193558657484
H 1.2622950963211008 0.5470784761006477 -1.2265785568753873
H -0.5586049801942781 -1.5564954865707974 0.1971457172962887
*
