! r2scan-3c def2/J RI DEFGRID2 scfconv6 printgap
%output
    printlevel normal
end
%cpcm
    smd true
    smdsolvent "water"
end
* xyz 0 1
C 1.9200876703 0.1291586918 -0.5249392444
C 0.788119832 0.0525236867 0.4985025437
H 1.2200657085 -0.012337451 1.5058711889
C -0.1991391235 1.2227501959 0.3774724513
C -1.2874020054 0.6469343916 -0.5266177498
C -1.3083011564 -0.8131495234 -0.0805946378
O 0.0246738438 -1.1426068772 0.2888701353
H 1.5153991408 0.2410510635 -1.5272835169
H 2.5660370826 0.9727239422 -0.3001162666
H 2.5038222845 -0.7866386226 -0.4883523307
H -0.6143913696 1.4675837874 1.3551382928
H 0.2754640185 2.1067794441 -0.0392782072
H -2.2518580625 1.1291918192 -0.3947129626
H -0.9917159701 0.7169581042 -1.5731559017
H -1.9617620761 -0.9461321245 0.7931484689
H -1.6203676605 -1.5069103179 -0.863968234
*
