! wb97x-v def2-tzvp def2/J RIJCOSX DEFGRID2 scfconv7 GCP(DFT/TZ) printgap
%output
    printlevel normal
end
* xyz 0 1
C -3.450734149136826 -1.196696019754661 -0.0026764396343965722
C -2.062688605629423 -0.6176133785541432 0.0024266177496694266
C -1.8735503848937507 0.7855378997444079 0.0005506615602712756
C -0.6232216404322248 1.3705080070278293 -0.0005370209712924071
C 0.5308273013951914 0.5305665749237296 -0.00022085780912241187
C 1.8509960228497195 1.0479281410065489 -0.0001076551793243121
C 2.9417433675105786 0.20861532190598256 -0.000189485774523675
C 2.7650273262449567 -1.1916510827770657 -0.00042801815213516255
C 1.4991338043529214 -1.7273715863200232 0.00031758907599618375
C 0.3535612255447544 -0.8915820328129234 0.0007879290062464813
C -0.9523959406562928 -1.4341625195814869 0.0030052093438694086
C -0.4832964349673333 2.8653728008131085 -0.0006044665020933963
H -4.208602585121949 -0.4126212103502725 0.06707009980705719
H -3.63468237705794 -1.7651892141508476 -0.9209588275072501
H -3.5928121663546717 -1.886676161293736 0.8356153209705516
H -2.7522636807446985 1.4261949034524501 0.0009818922497409311
H 2.002020643442657 2.1220460000586634 4.329226456038945e-05
H 3.9450501230790707 0.6231814580344387 -9.819263586412272e-05
H 3.6332833383203034 -1.8434107327340066 -0.0010365679962250774
H 1.3551236073976942 -2.8045101750203174 0.0003921697954302524
H -1.0677331642227426 -2.5157294803082264 0.004611797143333978
H 0.06327051292961458 3.216949895753079 0.8819522469075499
H 0.07036123820914876 3.2163552530566313 -0.8789021433129173
H -1.4659760336280554 3.342335738977824 -0.004675871271880339
*
