! r2scan-3c def2/J RI DEFGRID2 scfconv6 printgap
%output
    printlevel normal
end
%cpcm
    smd true
    smdsolvent "water"
end
* xyz 0 1
C -3.0949823347 0.0111913695 -0.6892117899
O -2.3266613551 -0.1865328663 0.4844847181
C -0.9490588626 -0.0899695499 0.2744841368
C -0.2038114249 -1.231598267 0.0099253782
C 1.1615291153 -1.144849982 -0.1655720887
C 1.8173299706 0.0876772714 -0.0848956379
C 1.0537917912 1.2291792917 0.1793296714
C -0.3114193304 1.1412884496 0.3551841707
N 3.1824613171 0.1652617137 -0.1936637723
H -4.1354314361 -0.0803808398 -0.3858862231
H -2.8593397429 -0.7470157864 -1.4432368356
H -2.9170259413 1.0047723379 -1.1129037897
H -0.7056905276 -2.1859423293 -0.0493597761
H 1.7341461329 -2.0381702515 -0.3655683705
H 1.5424167213 2.189546728 0.2494188615
H -0.8952479218 2.025665349 0.5636399581
H 3.5714248803 1.0727532152 -0.3849983412
H 3.6474350993 -0.6116147781 -0.6314509633
*
