      -----------------------------------------------------------      
     |                   =====================                   |     
     |                           x T B                           |     
     |                   =====================                   |     
     |                         S. Grimme                         |     
     |          Mulliken Center for Theoretical Chemistry        |     
     |                    University of Bonn                     |     
      -----------------------------------------------------------      

   * xtb version 6.7.1 (edcfbbe) compiled by 'albert@albert-system' on 2024-07-22

   xtb is free software: you can redistribute it and/or modify it under
   the terms of the GNU Lesser General Public License as published by
   the Free Software Foundation, either version 3 of the License, or
   (at your option) any later version.
   
   xtb is distributed in the hope that it will be useful,
   but WITHOUT ANY WARRANTY; without even the implied warranty of
   MERCHANTABILITY or FITNESS FOR A PARTICULAR PURPOSE.  See the
   GNU Lesser General Public License for more details.
   
   Cite this work as:
   * C. Bannwarth, E. Caldeweyher, S. Ehlert, A. Hansen, P. Pracht,
     J. Seibert, S. Spicher, S. Grimme, WIREs Comput. Mol. Sci., 2020, 11,
     e01493. DOI: 10.1002/wcms.1493
   
   for GFN2-xTB:
   * C. Bannwarth, S. Ehlert and S. Grimme., J. Chem. Theory Comput., 2019,
     15, 1652-1671. DOI: 10.1021/acs.jctc.8b01176
   for GFN1-xTB:
   * S. Grimme, C. Bannwarth, P. Shushkov, J. Chem. Theory Comput., 2017,
     13, 1989-2009. DOI: 10.1021/acs.jctc.7b00118
   for GFN0-xTB:
   * P. Pracht, E. Caldeweyher, S. Ehlert, S. Grimme, ChemRxiv, 2019, preprint.
     DOI: 10.26434/chemrxiv.8326202.v1
   for GFN-FF:
   * S. Spicher and S. Grimme, Angew. Chem. Int. Ed., 2020, 59, 15665-15673.
     DOI: 10.1002/anie.202004239
   
   for ALPB and GBSA implicit solvation:
   * S. Ehlert, M. Stahn, S. Spicher, S. Grimme, J. Chem. Theory Comput.,
     2021, 17, 4250-4261. DOI: 10.1021/acs.jctc.1c00471
   
   for ddCOSMO and CPCM-X implicit solvation:
   * M. Stahn, S. Ehlert, S. Grimme, J. Phys. Chem. A,
     2023, XX, XXXX-XXXX. DOI: 10.1021/acs.jpca.3c04382
   
   for DFT-D4:
   * E. Caldeweyher, C. Bannwarth and S. Grimme, J. Chem. Phys., 2017,
     147, 034112. DOI: 10.1063/1.4993215
   * E. Caldeweyher, S. Ehlert, A. Hansen, H. Neugebauer, S. Spicher,
     C. Bannwarth and S. Grimme, J. Chem. Phys., 2019, 150, 154122.
     DOI: 10.1063/1.5090222
   * E. Caldeweyher, J.-M. Mewes, S. Ehlert and S. Grimme, Phys. Chem. Chem. Phys.
     2020, 22, 8499-8512. DOI: 10.1039/D0CP00502A
   
   for sTDA-xTB:
   * S. Grimme and C. Bannwarth, J. Chem. Phys., 2016, 145, 054103.
     DOI: 10.1063/1.4959605
   
   in the mass-spec context:
   * V. Asgeirsson, C. Bauer and S. Grimme, Chem. Sci., 2017, 8, 4879.
     DOI: 10.1039/c7sc00601b
   * J. Koopman and S. Grimme, ACS Omega 2019, 4, 12, 15120-15133.
     DOI: 10.1021/acsomega.9b02011
   
   for metadynamics refer to:
   * S. Grimme, J. Chem. Theory Comput., 2019, 155, 2847-2862
     DOI: 10.1021/acs.jctc.9b00143
   
   for SPH calculations refer to:
   * S. Spicher and S. Grimme, J. Chem. Theory Comput., 2021, 17, 1701-1714
     DOI: 10.1021/acs.jctc.0c01306
   
   for ONIOM refer to:
   * C. Plett, A. Katbashev, S. Ehlert, S. Grimme, M. Bursch,
     Phys. Chem. Chem. Phys., 2023, 25, 17860-17868. DOI: 10.1039/D3CP02178E
   
   for DIPRO refer to:
   * J. Kohn, N. Gildemeister, S. Grimme, D. Fazzi, A. Hansen,
     J. Chem. Phys., 2023, just accepted.
   
   for PTB refer to:
   * S. Grimme, M. Mueller, A. Hansen, J. Chem. Phys., 2023, 158, 124111.
     DOI: 10.1063/5.0137838
   
   with help from (in alphabetical order)
   P. Atkinson, C. Bannwarth, F. Bohle, G. Brandenburg, E. Caldeweyher
   M. Checinski, S. Dohm, S. Ehlert, S. Ehrlich, I. Gerasimov, C. Hölzer
   A. Katbashev, J. Kohn, J. Koopman, C. Lavigne, S. Lehtola, F. März, M. Müller,
   F. Musil, H. Neugebauer, J. Pisarek, C. Plett, P. Pracht, F. Pultar,
   J. Seibert, P. Shushkov, S. Spicher, M. Stahn, M. Steiner, T. Strunk,
   J. Stückrath, T. Rose, and J. Unsleber
   
 * started run on 2025/04/07 at 02:42:52.497     
   ID    Z sym.   atoms
    1    6 C      1, 2, 4, 5
    2    8 O      3
    3    1 H      6-15

           -------------------------------------------------
          |                Calculation Setup                |
           -------------------------------------------------

          program call               : /srv/scratch/z5358697/.xtb/bin/xtb gas.coord --gfn2 --sp --chrg 0 --norestart --parallel 1
          hostname                   : k140
          coordinate file            : gas.coord
          omp threads                :                     1


           -------------------------------------------------
          |                 G F N 2 - x T B                 |
           -------------------------------------------------

        Reference                      10.1021/acs.jctc.8b01176
      * Hamiltonian:
        H0-scaling (s, p, d)           1.850000    2.230000    2.230000
        zeta-weighting                 0.500000
      * Dispersion:
        s8                             2.700000
        a1                             0.520000
        a2                             5.000000
        s9                             5.000000
      * Repulsion:
        kExp                           1.500000    1.000000
        rExp                           1.000000
      * Coulomb:
        alpha                          2.000000
        third order                    shell-resolved
        anisotropic                    true
        a3                             3.000000
        a5                             4.000000
        cn-shift                       1.200000
        cn-exp                         4.000000
        max-rad                        5.000000


          ...................................................
          :                      SETUP                      :
          :.................................................:
          :  # basis functions                  30          :
          :  # atomic orbitals                  30          :
          :  # shells                           20          :
          :  # electrons                        32          :
          :  max. iterations                   250          :
          :  Hamiltonian                  GFN2-xTB          :
          :  restarted?                      false          :
          :  GBSA solvation                  false          :
          :  PC potential                    false          :
          :  electronic temp.          300.0000000     K    :
          :  accuracy                    1.0000000          :
          :  -> integral cutoff          0.2500000E+02      :
          :  -> integral neglect         0.1000000E-07      :
          :  -> SCF convergence          0.1000000E-05 Eh   :
          :  -> wf. convergence          0.1000000E-03 e    :
          :  Broyden damping             0.4000000          :
          :  net charge                          0          :
          :  unpaired electrons                  0          :
          ...................................................

 iter      E             dE          RMSdq      gap      omega  full diag
   1    -17.8814282 -0.178814E+02  0.349E+00   11.75       0.0  T
   2    -17.9290460 -0.476178E-01  0.172E+00   11.29       1.0  T
   3    -17.9296166 -0.570622E-03  0.817E-01   11.41       1.0  T
   4    -17.9298075 -0.190894E-03  0.113E-01   11.43       1.0  T
   5    -17.9298346 -0.270987E-04  0.622E-02   11.45       1.0  T
   6    -17.9298353 -0.719628E-06  0.527E-03   11.46       4.9  T
   7    -17.9298354 -0.204281E-07  0.225E-03   11.46      11.5  T
   8    -17.9298354 -0.383746E-08  0.500E-04   11.46      51.6  T
   9    -17.9298354 -0.220709E-09  0.567E-05   11.46     455.3  T

   *** convergence criteria satisfied after 9 iterations ***

         #    Occupation            Energy/Eh            Energy/eV
      -------------------------------------------------------------
         1        2.0000           -0.6874685             -18.7070
       ...           ...                  ...                  ...
        10        2.0000           -0.4945768             -13.4581
        11        2.0000           -0.4704893             -12.8027
        12        2.0000           -0.4633264             -12.6078
        13        2.0000           -0.4629072             -12.5963
        14        2.0000           -0.4446448             -12.0994
        15        2.0000           -0.4247087             -11.5569
        16        2.0000           -0.3937556             -10.7146 (HOMO)
        17                          0.0273066               0.7431 (LUMO)
        18                          0.0901517               2.4532
        19                          0.1181803               3.2158
        20                          0.1213466               3.3020
        21                          0.1224504               3.3320
       ...                                ...                  ...
        30                          0.2982320               8.1153
      -------------------------------------------------------------
                  HL-Gap            0.4210623 Eh           11.4577 eV
             Fermi-level           -0.1832245 Eh           -4.9858 eV

 SCC (total)                   0 d,  0 h,  0 min,  0.021 sec
 SCC setup                      ...        0 min,  0.000 sec (  0.537%)
 Dispersion                     ...        0 min,  0.000 sec (  0.249%)
 classical contributions        ...        0 min,  0.000 sec (  0.057%)
 integral evaluation            ...        0 min,  0.001 sec (  3.791%)
 iterations                     ...        0 min,  0.018 sec ( 86.269%)
 molecular gradient             ...        0 min,  0.002 sec (  8.598%)
 printout                       ...        0 min,  0.000 sec (  0.441%)

         :::::::::::::::::::::::::::::::::::::::::::::::::::::
         ::                     SUMMARY                     ::
         :::::::::::::::::::::::::::::::::::::::::::::::::::::
         :: total energy             -17.720069980809 Eh    ::
         :: gradient norm              0.008994987764 Eh/a0 ::
         :: HOMO-LUMO gap             11.457688070177 eV    ::
         ::.................................................::
         :: SCC energy               -17.929824264254 Eh    ::
         :: -> isotropic ES            0.021361150708 Eh    ::
         :: -> anisotropic ES          0.004068629342 Eh    ::
         :: -> anisotropic XC          0.005866518826 Eh    ::
         :: -> dispersion             -0.007189327928 Eh    ::
         :: repulsion energy           0.209754283445 Eh    ::
         :: add. restraining           0.000000000000 Eh    ::
         :: total charge               0.000000000000 e     ::
         :::::::::::::::::::::::::::::::::::::::::::::::::::::

           -------------------------------------------------
          |                Property Printout                |
           -------------------------------------------------

    * Orbital Energies and Occupations

         #    Occupation            Energy/Eh            Energy/eV
      -------------------------------------------------------------
         1        2.0000           -0.6874685             -18.7070
       ...           ...                  ...                  ...
         4        2.0000           -0.5967478             -16.2383
         5        2.0000           -0.5656547             -15.3922
         6        2.0000           -0.5464807             -14.8705
         7        2.0000           -0.5431119             -14.7788
         8        2.0000           -0.5143922             -13.9973
         9        2.0000           -0.4960756             -13.4989
        10        2.0000           -0.4945768             -13.4581
        11        2.0000           -0.4704893             -12.8027
        12        2.0000           -0.4633264             -12.6078
        13        2.0000           -0.4629072             -12.5963
        14        2.0000           -0.4446448             -12.0994
        15        2.0000           -0.4247087             -11.5569
        16        2.0000           -0.3937556             -10.7146 (HOMO)
        17                          0.0273066               0.7431 (LUMO)
        18                          0.0901517               2.4532
        19                          0.1181803               3.2158
        20                          0.1213466               3.3020
        21                          0.1224504               3.3320
        22                          0.1488497               4.0504
        23                          0.1672802               4.5519
        24                          0.1944164               5.2903
        25                          0.1979020               5.3852
        26                          0.2040770               5.5532
        27                          0.2431445               6.6163
       ...                                ...                  ...
        30                          0.2982320               8.1153
      -------------------------------------------------------------
                  HL-Gap            0.4210623 Eh           11.4577 eV
             Fermi-level           -0.1832245 Eh           -4.9858 eV

     #   Z          covCN         q      C6AA      α(0)
     1   6 C        3.750    -0.114    22.741     6.801
     2   6 C        3.685     0.081    19.414     6.308
     3   8 O        1.698    -0.330    19.524     5.966
     4   6 C        3.685     0.081    19.414     6.308
     5   6 C        3.750    -0.114    22.741     6.801
     6   1 H        0.925     0.039     2.459     2.452
     7   1 H        0.925     0.039     2.461     2.453
     8   1 H        0.925     0.049     2.330     2.387
     9   1 H        0.924     0.023     2.692     2.566
    10   1 H        0.924     0.047     2.358     2.401
    11   1 H        0.924     0.023     2.692     2.566
    12   1 H        0.924     0.047     2.358     2.401
    13   1 H        0.925     0.039     2.461     2.453
    14   1 H        0.925     0.049     2.330     2.387
    15   1 H        0.925     0.039     2.459     2.452

 Mol. C6AA /au·bohr⁶  :       1471.673214
 Mol. C8AA /au·bohr⁸  :      29827.519051
 Mol. α(0) /au        :         56.703343


Wiberg/Mayer (AO) data.
largest (>0.10) Wiberg bond orders for each atom

 ---------------------------------------------------------------------------
     #   Z sym  total        # sym  WBO       # sym  WBO       # sym  WBO
 ---------------------------------------------------------------------------
     1   6 C    3.996 --     2 C    1.009     8 H    0.987     7 H    0.986
                             6 H    0.985
     2   6 C    3.957 --     1 C    1.009     3 O    0.983    10 H    0.972
                             9 H    0.969
     3   8 O    2.069 --     2 C    0.983     4 C    0.983
     4   6 C    3.957 --     5 C    1.009     3 O    0.983    12 H    0.972
                            11 H    0.969
     5   6 C    3.996 --     4 C    1.009    14 H    0.987    13 H    0.986
                            15 H    0.985
     6   1 H    0.998 --     1 C    0.985
     7   1 H    0.998 --     1 C    0.986
     8   1 H    0.998 --     1 C    0.987
     9   1 H    0.999 --     2 C    0.969
    10   1 H    0.998 --     2 C    0.972
    11   1 H    0.999 --     4 C    0.969
    12   1 H    0.998 --     4 C    0.972
    13   1 H    0.998 --     5 C    0.986
    14   1 H    0.998 --     5 C    0.987
    15   1 H    0.998 --     5 C    0.985
 ---------------------------------------------------------------------------

Topologies differ in total number of bonds
Writing topology from bond orders to xtbtopo.mol

molecular dipole:
                 x           y           z       tot (Debye)
 q only:        0.000       0.483      -0.000
   full:        0.000       0.659      -0.000       1.674
molecular quadrupole (traceless):
                xx          xy          yy          xz          yz          zz
 q only:        2.324      -0.001      -2.362       0.950      -0.000       0.038
  q+dip:        1.716      -0.001      -2.248       0.762       0.001       0.532
   full:        2.153      -0.001      -2.543       1.051       0.000       0.391


           -------------------------------------------------
          | TOTAL ENERGY              -17.720069980809 Eh   |
          | GRADIENT NORM               0.008994987764 Eh/α |
          | HOMO-LUMO GAP              11.457688070177 eV   |
           -------------------------------------------------

------------------------------------------------------------------------
 * finished run on 2025/04/07 at 02:42:52.546     
------------------------------------------------------------------------
 total:
 * wall-time:     0 d,  0 h,  0 min,  0.049 sec
 *  cpu-time:     0 d,  0 h,  0 min,  0.013 sec
 * ratio c/w:     0.271 speedup
 SCF:
 * wall-time:     0 d,  0 h,  0 min,  0.021 sec
 *  cpu-time:     0 d,  0 h,  0 min,  0.007 sec
 * ratio c/w:     0.316 speedup

