15
 xtb: 6.7.1 (edcfbbe)
C            2.10489300381127        0.41070929467657        0.35486936371146
C            1.02683471554699       -0.01072538156638       -0.62768101084483
O           -0.00000020377853       -0.80113942019550        0.00030060037784
C           -1.02684899337580       -0.01026019752382        0.62767347151794
C           -2.10491332933856        0.41040393039805       -0.35520144285958
H            2.87579325661477        0.98818260956158       -0.16724427629891
H            1.69808331241829        1.03881219879914        1.15391323857323
H            2.57951856480660       -0.46640354784288        0.80649666239804
H            1.45576898956646       -0.64600268110055       -1.41023104392080
H            0.58178747640706        0.86526151893912       -1.11893212755132
H           -1.45577391880084       -0.64494489745577        1.41071012172278
H           -0.58181905503855        0.86611076884027        1.11825700562174
H           -1.69810820647706        1.03788391224479       -1.15473784621256
H           -2.57953704397938       -0.46706542192726       -0.80613967985875
H           -2.87581460679437        0.98828581079918        0.16646003396458
