      -----------------------------------------------------------      
     |                   =====================                   |     
     |                           x T B                           |     
     |                   =====================                   |     
     |                         S. Grimme                         |     
     |          Mulliken Center for Theoretical Chemistry        |     
     |                    University of Bonn                     |     
      -----------------------------------------------------------      

   * xtb version 6.7.1 (edcfbbe) compiled by 'albert@albert-system' on 2024-07-22

   xtb is free software: you can redistribute it and/or modify it under
   the terms of the GNU Lesser General Public License as published by
   the Free Software Foundation, either version 3 of the License, or
   (at your option) any later version.
   
   xtb is distributed in the hope that it will be useful,
   but WITHOUT ANY WARRANTY; without even the implied warranty of
   MERCHANTABILITY or FITNESS FOR A PARTICULAR PURPOSE.  See the
   GNU Lesser General Public License for more details.
   
   Cite this work as:
   * C. Bannwarth, E. Caldeweyher, S. Ehlert, A. Hansen, P. Pracht,
     J. Seibert, S. Spicher, S. Grimme, WIREs Comput. Mol. Sci., 2020, 11,
     e01493. DOI: 10.1002/wcms.1493
   
   for GFN2-xTB:
   * C. Bannwarth, S. Ehlert and S. Grimme., J. Chem. Theory Comput., 2019,
     15, 1652-1671. DOI: 10.1021/acs.jctc.8b01176
   for GFN1-xTB:
   * S. Grimme, C. Bannwarth, P. Shushkov, J. Chem. Theory Comput., 2017,
     13, 1989-2009. DOI: 10.1021/acs.jctc.7b00118
   for GFN0-xTB:
   * P. Pracht, E. Caldeweyher, S. Ehlert, S. Grimme, ChemRxiv, 2019, preprint.
     DOI: 10.26434/chemrxiv.8326202.v1
   for GFN-FF:
   * S. Spicher and S. Grimme, Angew. Chem. Int. Ed., 2020, 59, 15665-15673.
     DOI: 10.1002/anie.202004239
   
   for ALPB and GBSA implicit solvation:
   * S. Ehlert, M. Stahn, S. Spicher, S. Grimme, J. Chem. Theory Comput.,
     2021, 17, 4250-4261. DOI: 10.1021/acs.jctc.1c00471
   
   for ddCOSMO and CPCM-X implicit solvation:
   * M. Stahn, S. Ehlert, S. Grimme, J. Phys. Chem. A,
     2023, XX, XXXX-XXXX. DOI: 10.1021/acs.jpca.3c04382
   
   for DFT-D4:
   * E. Caldeweyher, C. Bannwarth and S. Grimme, J. Chem. Phys., 2017,
     147, 034112. DOI: 10.1063/1.4993215
   * E. Caldeweyher, S. Ehlert, A. Hansen, H. Neugebauer, S. Spicher,
     C. Bannwarth and S. Grimme, J. Chem. Phys., 2019, 150, 154122.
     DOI: 10.1063/1.5090222
   * E. Caldeweyher, J.-M. Mewes, S. Ehlert and S. Grimme, Phys. Chem. Chem. Phys.
     2020, 22, 8499-8512. DOI: 10.1039/D0CP00502A
   
   for sTDA-xTB:
   * S. Grimme and C. Bannwarth, J. Chem. Phys., 2016, 145, 054103.
     DOI: 10.1063/1.4959605
   
   in the mass-spec context:
   * V. Asgeirsson, C. Bauer and S. Grimme, Chem. Sci., 2017, 8, 4879.
     DOI: 10.1039/c7sc00601b
   * J. Koopman and S. Grimme, ACS Omega 2019, 4, 12, 15120-15133.
     DOI: 10.1021/acsomega.9b02011
   
   for metadynamics refer to:
   * S. Grimme, J. Chem. Theory Comput., 2019, 155, 2847-2862
     DOI: 10.1021/acs.jctc.9b00143
   
   for SPH calculations refer to:
   * S. Spicher and S. Grimme, J. Chem. Theory Comput., 2021, 17, 1701-1714
     DOI: 10.1021/acs.jctc.0c01306
   
   for ONIOM refer to:
   * C. Plett, A. Katbashev, S. Ehlert, S. Grimme, M. Bursch,
     Phys. Chem. Chem. Phys., 2023, 25, 17860-17868. DOI: 10.1039/D3CP02178E
   
   for DIPRO refer to:
   * J. Kohn, N. Gildemeister, S. Grimme, D. Fazzi, A. Hansen,
     J. Chem. Phys., 2023, just accepted.
   
   for PTB refer to:
   * S. Grimme, M. Mueller, A. Hansen, J. Chem. Phys., 2023, 158, 124111.
     DOI: 10.1063/5.0137838
   
   with help from (in alphabetical order)
   P. Atkinson, C. Bannwarth, F. Bohle, G. Brandenburg, E. Caldeweyher
   M. Checinski, S. Dohm, S. Ehlert, S. Ehrlich, I. Gerasimov, C. Hölzer
   A. Katbashev, J. Kohn, J. Koopman, C. Lavigne, S. Lehtola, F. März, M. Müller,
   F. Musil, H. Neugebauer, J. Pisarek, C. Plett, P. Pracht, F. Pultar,
   J. Seibert, P. Shushkov, S. Spicher, M. Stahn, M. Steiner, T. Strunk,
   J. Stückrath, T. Rose, and J. Unsleber
   
 * started run on 2025/04/07 at 02:42:52.585     
   ID    Z sym.   atoms
    1    6 C      1, 2, 4, 5
    2    8 O      3
    3    1 H      6-15

           -------------------------------------------------
          |                Calculation Setup                |
           -------------------------------------------------

          program call               : /srv/scratch/z5358697/.xtb/bin/xtb solv.coord --gfn2 --sp --chrg 0 --norestart --parallel 1 --alpb water reference -I xtb_sp-xcontrol-inp
          hostname                   : k140
          coordinate file            : solv.coord
          omp threads                :                     1


           -------------------------------------------------
          |                 G F N 2 - x T B                 |
           -------------------------------------------------

        Reference                      10.1021/acs.jctc.8b01176
      * Hamiltonian:
        H0-scaling (s, p, d)           1.850000    2.230000    2.230000
        zeta-weighting                 0.500000
      * Dispersion:
        s8                             2.700000
        a1                             0.520000
        a2                             5.000000
        s9                             5.000000
      * Repulsion:
        kExp                           1.500000    1.000000
        rExp                           1.000000
      * Coulomb:
        alpha                          2.000000
        third order                    shell-resolved
        anisotropic                    true
        a3                             3.000000
        a5                             4.000000
        cn-shift                       1.200000
        cn-exp                         4.000000
        max-rad                        5.000000

      * Solvation model:               ALPB
        Solvent                        water
        Parameter file                 internal GFN2-xTB/ALPB
        Dielectric constant                8.0200E+01
        Reference state                gsolv=reference [X=1]
        Free energy shift                  2.8945E-03 Eh       1.8164E+00 kcal/mol
        Temperature                        2.9815E+02 K
        Density                            1.0000E+00 kg/L
        Solvent mass                       1.8000E+01 g/mol
        Interaction kernel             P16
        Born radius scaling (c1)           1.4744E+00
        Born radii integrator          GBOBC
        Born offset                        0.0000E+00 a0       0.0000E+00 AA
        H-bond correction              true
        Ion screening                  false
        Surface tension                    1.0000E-05 Eh       1.5569E+01 dyn/cm
        Grid points                               974 per atom

          ...................................................
          :                      SETUP                      :
          :.................................................:
          :  # basis functions                  30          :
          :  # atomic orbitals                  30          :
          :  # shells                           20          :
          :  # electrons                        32          :
          :  max. iterations                   250          :
          :  Hamiltonian                  GFN2-xTB          :
          :  restarted?                      false          :
          :  GBSA solvation                   true          :
          :  PC potential                    false          :
          :  electronic temp.          300.0000000     K    :
          :  accuracy                    1.0000000          :
          :  -> integral cutoff          0.2500000E+02      :
          :  -> integral neglect         0.1000000E-07      :
          :  -> SCF convergence          0.1000000E-05 Eh   :
          :  -> wf. convergence          0.1000000E-03 e    :
          :  Broyden damping             0.4000000          :
          :  net charge                          0          :
          :  unpaired electrons                  0          :
          ...................................................

 iter      E             dE          RMSdq      gap      omega  full diag
   1    -17.8931772 -0.178932E+02  0.355E+00   11.76       0.0  T
   2    -17.9296250 -0.364479E-01  0.175E+00   11.38       1.0  T
   3    -17.9303046 -0.679604E-03  0.702E-01   11.43       1.0  T
   4    -17.9304646 -0.159952E-03  0.115E-01   11.45       1.0  T
   5    -17.9304806 -0.160325E-04  0.618E-02   11.47       1.0  T
   6    -17.9304818 -0.112574E-05  0.668E-03   11.48       3.9  T
   7    -17.9304819 -0.115811E-06  0.237E-03   11.48      10.9  T
   8    -17.9304819 -0.598085E-08  0.112E-03   11.48      23.0  T
   9    -17.9304819 -0.490414E-08  0.152E-04   11.48     169.5  T
  10    -17.9304819  0.729479E-10  0.119E-04   11.48     216.3  T

   *** convergence criteria satisfied after 10 iterations ***

         #    Occupation            Energy/Eh            Energy/eV
      -------------------------------------------------------------
         1        2.0000           -0.6966808             -18.9576
       ...           ...                  ...                  ...
        10        2.0000           -0.4929282             -13.4133
        11        2.0000           -0.4678829             -12.7317
        12        2.0000           -0.4623869             -12.5822
        13        2.0000           -0.4601428             -12.5211
        14        2.0000           -0.4439065             -12.0793
        15        2.0000           -0.4258506             -11.5880
        16        2.0000           -0.3989578             -10.8562 (HOMO)
        17                          0.0228870               0.6228 (LUMO)
        18                          0.0880067               2.3948
        19                          0.1178713               3.2074
        20                          0.1214623               3.3052
        21                          0.1232600               3.3541
       ...                                ...                  ...
        30                          0.2975857               8.0977
      -------------------------------------------------------------
                  HL-Gap            0.4218448 Eh           11.4790 eV
             Fermi-level           -0.1880354 Eh           -5.1167 eV

 SCC (total)                   0 d,  0 h,  0 min,  0.012 sec
 SCC setup                      ...        0 min,  0.001 sec (  5.847%)
 Dispersion                     ...        0 min,  0.000 sec (  0.416%)
 classical contributions        ...        0 min,  0.000 sec (  0.092%)
 integral evaluation            ...        0 min,  0.001 sec (  5.690%)
 iterations                     ...        0 min,  0.008 sec ( 70.219%)
 molecular gradient             ...        0 min,  0.002 sec ( 16.915%)
 printout                       ...        0 min,  0.000 sec (  0.735%)

         :::::::::::::::::::::::::::::::::::::::::::::::::::::
         ::                     SUMMARY                     ::
         :::::::::::::::::::::::::::::::::::::::::::::::::::::
         :: total energy             -17.720851897457 Eh    ::
         :: total w/o Gsasa/hb       -17.722922748657 Eh    ::
         :: gradient norm              0.000327175718 Eh/a0 ::
         :: HOMO-LUMO gap             11.478980025535 eV    ::
         ::.................................................::
         :: SCC energy               -17.930470635018 Eh    ::
         :: -> isotropic ES            0.026437858131 Eh    ::
         :: -> anisotropic ES          0.003572738084 Eh    ::
         :: -> anisotropic XC          0.006279979983 Eh    ::
         :: -> dispersion             -0.007136604502 Eh    ::
         :: -> Gsolv                  -0.001449736309 Eh    ::
         ::    -> Gelec               -0.003520587510 Eh    ::
         ::    -> Gsasa                0.000131423599 Eh    ::
         ::    -> Ghb                 -0.000955121558 Eh    ::
         ::    -> Gshift               0.002894549160 Eh    ::
         :: repulsion energy           0.209618737561 Eh    ::
         :: add. restraining           0.000000000000 Eh    ::
         :: total charge               0.000000000000 e     ::
         :::::::::::::::::::::::::::::::::::::::::::::::::::::

           -------------------------------------------------
          |                Property Printout                |
           -------------------------------------------------

    * Orbital Energies and Occupations

         #    Occupation            Energy/Eh            Energy/eV
      -------------------------------------------------------------
         1        2.0000           -0.6966808             -18.9576
       ...           ...                  ...                  ...
         4        2.0000           -0.5960868             -16.2203
         5        2.0000           -0.5656853             -15.3931
         6        2.0000           -0.5491650             -14.9435
         7        2.0000           -0.5454261             -14.8418
         8        2.0000           -0.5163033             -14.0493
         9        2.0000           -0.4958229             -13.4920
        10        2.0000           -0.4929282             -13.4133
        11        2.0000           -0.4678829             -12.7317
        12        2.0000           -0.4623869             -12.5822
        13        2.0000           -0.4601428             -12.5211
        14        2.0000           -0.4439065             -12.0793
        15        2.0000           -0.4258506             -11.5880
        16        2.0000           -0.3989578             -10.8562 (HOMO)
        17                          0.0228870               0.6228 (LUMO)
        18                          0.0880067               2.3948
        19                          0.1178713               3.2074
        20                          0.1214623               3.3052
        21                          0.1232600               3.3541
        22                          0.1492927               4.0625
        23                          0.1686914               4.5903
        24                          0.1964707               5.3462
        25                          0.2009193               5.4673
        26                          0.2043850               5.5616
        27                          0.2466482               6.7116
       ...                                ...                  ...
        30                          0.2975857               8.0977
      -------------------------------------------------------------
                  HL-Gap            0.4218448 Eh           11.4790 eV
             Fermi-level           -0.1880354 Eh           -5.1167 eV

     #   Z          covCN         q      C6AA      α(0)
     1   6 C        3.750    -0.126    22.975     6.836
     2   6 C        3.685     0.077    19.484     6.319
     3   8 O        1.698    -0.370    20.260     6.077
     4   6 C        3.685     0.077    19.484     6.319
     5   6 C        3.750    -0.126    22.975     6.836
     6   1 H        0.925     0.047     2.362     2.403
     7   1 H        0.925     0.052     2.299     2.371
     8   1 H        0.925     0.054     2.272     2.357
     9   1 H        0.924     0.052     2.299     2.371
    10   1 H        0.924     0.030     2.592     2.518
    11   1 H        0.924     0.052     2.299     2.371
    12   1 H        0.924     0.030     2.592     2.518
    13   1 H        0.925     0.052     2.299     2.371
    14   1 H        0.925     0.054     2.272     2.357
    15   1 H        0.925     0.047     2.362     2.403

 Mol. C6AA /au·bohr⁶  :       1459.575885
 Mol. C8AA /au·bohr⁸  :      29709.717663
 Mol. α(0) /au        :         56.429514


Wiberg/Mayer (AO) data.
largest (>0.10) Wiberg bond orders for each atom

 ---------------------------------------------------------------------------
     #   Z sym  total        # sym  WBO       # sym  WBO       # sym  WBO
 ---------------------------------------------------------------------------
     1   6 C    3.994 --     2 C    1.010     7 H    0.987     6 H    0.985
                             8 H    0.984
     2   6 C    3.948 --     1 C    1.010     3 O    0.973     9 H    0.971
                            10 H    0.969
     3   8 O    2.047 --     4 C    0.973     2 C    0.973
     4   6 C    3.948 --     5 C    1.010     3 O    0.973    11 H    0.971
                            12 H    0.969
     5   6 C    3.994 --     4 C    1.010    13 H    0.987    15 H    0.985
                            14 H    0.984
     6   1 H    0.998 --     1 C    0.985
     7   1 H    0.997 --     1 C    0.987
     8   1 H    0.997 --     1 C    0.984
     9   1 H    0.997 --     2 C    0.971
    10   1 H    0.999 --     2 C    0.969
    11   1 H    0.997 --     4 C    0.971
    12   1 H    0.999 --     4 C    0.969
    13   1 H    0.997 --     5 C    0.987
    14   1 H    0.997 --     5 C    0.984
    15   1 H    0.998 --     5 C    0.985
 ---------------------------------------------------------------------------

Topologies differ in total number of bonds
Writing topology from bond orders to xtbtopo.mol

molecular dipole:
                 x           y           z       tot (Debye)
 q only:       -0.000       0.621       0.000
   full:        0.000       0.741       0.000       1.884
molecular quadrupole (traceless):
                xx          xy          yy          xz          yz          zz
 q only:        2.953       0.001      -2.732      -1.099      -0.001      -0.221
  q+dip:        2.122       0.003      -2.490      -0.842      -0.001       0.368
   full:        2.563       0.002      -2.784      -1.143      -0.001       0.221


           -------------------------------------------------
          | TOTAL ENERGY              -17.720851897457 Eh   |
          | GRADIENT NORM               0.000327175718 Eh/α |
          | HOMO-LUMO GAP              11.478980025535 eV   |
           -------------------------------------------------

------------------------------------------------------------------------
 * finished run on 2025/04/07 at 02:42:52.625     
------------------------------------------------------------------------
 total:
 * wall-time:     0 d,  0 h,  0 min,  0.040 sec
 *  cpu-time:     0 d,  0 h,  0 min,  0.016 sec
 * ratio c/w:     0.397 speedup
 SCF:
 * wall-time:     0 d,  0 h,  0 min,  0.012 sec
 *  cpu-time:     0 d,  0 h,  0 min,  0.009 sec
 * ratio c/w:     0.702 speedup

