15
 xtb: 6.7.1 (edcfbbe)
C            2.57278073320557       -0.31361293930765       -0.00509391072913
C            1.29509905091099        0.52077570677806        0.01369971994034
C            0.03496963438864       -0.34373586740700       -0.02311168229762
C           -1.23253137625975        0.49357271791403        0.00719791131106
O           -2.42903463451908       -0.31113745635194       -0.03233975552186
H            3.46501719981507        0.32045884190438        0.01609463900696
H            2.61550429739895       -0.98242405983651        0.86180220277551
H            2.62276207152160       -0.93350815512344       -0.90723922578072
H            1.27797578459252        1.14753480258157        0.91461610466780
H            1.28878046591070        1.20643231431630       -0.84349241798259
H            0.03576022009564       -0.96370847028537       -0.92911295920575
H            0.03305365327676       -1.02699248877610        0.83773541144539
H           -1.24181212572562        1.13572181122045        0.90020783402186
H           -1.28337394791860        1.14325667255874       -0.87315084467027
H           -2.42457097246181       -0.86336292262142        0.76013033773542
