 Entering Gaussian System
 *********************************************
 Gaussian 98:
 frequency output generated by the xtb code
 *********************************************
                         Standard orientation:
 --------------------------------------------------------------------
  Center     Atomic     Atomic              Coordinates (Angstroms)
  Number     Number      Type              X           Y           Z
 --------------------------------------------------------------------
    1          6             0       -4.518324   -0.800574   -0.002253
    2          8             0       -3.089465   -0.835608   -0.002612
    3          6             0       -2.455100    0.327123    0.002082
    4          8             0       -3.022862    1.401036    0.006396
    5          6             0       -0.973544    0.177551    0.001194
    6          6             0       -0.195518    1.335348    0.001168
    7          6             0        1.181110    1.243084    0.000394
    8          6             0        1.771197   -0.018466   -0.000236
    9          6             0        1.004524   -1.181388   -0.000071
   10          6             0       -0.372258   -1.081063    0.000620
   11          7             0        3.198758   -0.122342   -0.000941
   12          8             0        3.697297   -1.233979   -0.001525
   13          8             0        3.853236    0.905332   -0.001160
   14          1             0       -4.878764   -0.267506   -0.882760
   15          1             0       -4.878630   -0.290625    0.891889
   16          1             0       -4.836491   -1.838079   -0.015598
   17          1             0       -0.691283    2.293413    0.001669
   18          1             0        1.806880    2.121625    0.000217
   19          1             0        1.499925   -2.139705   -0.000508
   20          1             0       -0.986338   -1.966336    0.000755
 --------------------------------------------------------------------
     1 basis functions        1 primitive gaussians
     1 alpha electrons        1 beta electrons
 
 Harmonic frequencies (cm**-1), IR intensities (km*mol⁻¹),
 Raman scattering activities (A**4/amu), Raman depolarization ratios,
 reduced masses (AMU), force constants (mDyne/A) and normal coordinates:
                      1                      2                      3
                        a                      a                      a 
 Frequencies --    29.6000                38.5280                50.1657
 Red. masses --    10.0767                 5.9624                12.5113
 Frc consts  --     0.0000                 0.0000                 0.0000
 IR Inten    --     1.1360                 0.4913                 0.0001
 Raman Activ --     0.0000                 0.0000                 0.0000
 Depolar     --     0.0000                 0.0000                 0.0000
 Atom AN      X      Y      Z        X      Y      Z        X      Y      Z
   1   6     0.00  -0.00  -0.27    -0.00   0.01  -0.21    -0.00  -0.00   0.21
   2   8     0.00   0.00  -0.28    -0.00  -0.00  -0.18    -0.00  -0.00   0.11
   3   6    -0.00   0.00   0.10     0.00  -0.00   0.06    -0.00   0.00  -0.05
   4   8    -0.00  -0.00   0.43    -0.00  -0.00   0.29     0.00   0.00  -0.13
   5   6    -0.00   0.00   0.07     0.00  -0.00   0.07    -0.00   0.00  -0.09
   6   6     0.00   0.00  -0.07    -0.00  -0.00   0.09     0.00   0.00   0.18
   7   6     0.00   0.00  -0.11    -0.00  -0.00   0.06     0.00  -0.00   0.21
   8   6    -0.00   0.00   0.01     0.00  -0.00   0.01     0.00   0.00  -0.03
   9   6    -0.00   0.00   0.17     0.00  -0.00   0.01    -0.00   0.00  -0.34
  10   6    -0.00   0.00   0.19     0.00  -0.00   0.03    -0.00   0.00  -0.38
  11   7    -0.00  -0.00  -0.04     0.00   0.00  -0.04     0.00  -0.00   0.05
  12   8    -0.00  -0.00   0.26     0.00   0.00   0.21     0.00  -0.00   0.56
  13   8    -0.00  -0.00  -0.39    -0.00   0.00  -0.34    -0.00  -0.00  -0.36
  14   1     0.01   0.27   0.08     0.01  -0.39  -0.30    -0.02   0.08   0.12
  15   1    -0.01  -0.28   0.08    -0.01   0.40  -0.29     0.02  -0.09   0.12
  16   1     0.00   0.00  -0.40    -0.00  -0.00   0.39    -0.00   0.00  -0.03
  17   1     0.00   0.00  -0.04    -0.00  -0.00   0.04     0.00  -0.00   0.11
  18   1     0.00   0.00  -0.07    -0.00  -0.00   0.02     0.00  -0.00   0.13
  19   1    -0.00   0.00   0.07     0.00  -0.00  -0.01    -0.00   0.00  -0.16
  20   1    -0.00   0.00   0.09     0.00  -0.00   0.01    -0.00   0.00  -0.18
                      4                      5                      6
                        a                      a                      a 
 Frequencies --    64.3687               114.5049               152.5322
 Red. masses --    12.9568                11.9885                11.5792
 Frc consts  --     0.0000                 0.0000                 0.0000
 IR Inten    --     7.9886                 1.6802                10.9701
 Raman Activ --     0.0000                 0.0000                 0.0000
 Depolar     --     0.0000                 0.0000                 0.0000
 Atom AN      X      Y      Z        X      Y      Z        X      Y      Z
   1   6     0.00  -0.00  -0.25     0.23  -0.45   0.00     0.00  -0.00  -0.39
   2   8     0.00  -0.00   0.16     0.26  -0.02  -0.00     0.00  -0.00   0.55
   3   6    -0.00   0.00  -0.01    -0.03   0.12  -0.00    -0.00   0.00   0.28
   4   8    -0.00   0.00  -0.47    -0.26   0.02   0.00    -0.00   0.00   0.01
   5   6     0.00   0.00   0.25    -0.01   0.27  -0.00    -0.00   0.00   0.17
   6   6     0.00   0.00   0.37     0.06   0.23   0.00    -0.00   0.00  -0.03
   7   6     0.00   0.00   0.32     0.06   0.13   0.00    -0.00   0.00  -0.26
   8   6    -0.00  -0.00   0.15    -0.02   0.09  -0.00    -0.00   0.00  -0.27
   9   6    -0.00   0.00   0.16    -0.10   0.14  -0.00    -0.00   0.00  -0.27
  10   6    -0.00   0.00   0.21    -0.08   0.24  -0.00    -0.00   0.00  -0.04
  11   7    -0.00  -0.00  -0.14    -0.04  -0.12   0.00    -0.00  -0.00  -0.02
  12   8    -0.00  -0.00  -0.24    -0.25  -0.22   0.00    -0.00  -0.00   0.17
  13   8    -0.00  -0.00  -0.37     0.15  -0.25   0.00     0.00  -0.00   0.17
  14   1     0.07   0.05  -0.07     0.02  -0.17  -0.00     0.16   0.01  -0.18
  15   1    -0.07  -0.05  -0.07     0.02  -0.16  -0.00    -0.17  -0.01  -0.18
  16   1     0.00   0.00  -0.15     0.16  -0.16   0.00     0.00   0.00  -0.18
  17   1     0.00   0.00   0.13     0.04   0.08   0.00    -0.00   0.00   0.01
  18   1     0.00  -0.00   0.11     0.04   0.03   0.00    -0.00   0.00  -0.10
  19   1    -0.00   0.00   0.02    -0.05   0.03  -0.00    -0.00   0.00  -0.11
  20   1    -0.00   0.00   0.05    -0.04   0.08  -0.00     0.00   0.00   0.00
                      7                      8                      9
                        a                      a                      a 
 Frequencies --   223.1878               260.9041               271.3012
 Red. masses --    13.0512                11.9596                14.1169
 Frc consts  --     0.0000                 0.0000                 0.0000
 IR Inten    --    16.5544                 0.0422                 0.0986
 Raman Activ --     0.0000                 0.0000                 0.0000
 Depolar     --     0.0000                 0.0000                 0.0000
 Atom AN      X      Y      Z        X      Y      Z        X      Y      Z
   1   6    -0.13   0.26  -0.00     0.00   0.00   0.15     0.29   0.09   0.00
   2   8    -0.14  -0.20   0.00     0.00   0.00  -0.39     0.30  -0.05   0.00
   3   6    -0.02  -0.22  -0.00     0.00  -0.00   0.01     0.25  -0.06  -0.00
   4   8    -0.08  -0.28  -0.00    -0.00  -0.00  -0.20     0.43   0.00   0.00
   5   6    -0.00  -0.06  -0.00     0.00  -0.00   0.40     0.14  -0.10  -0.00
   6   6    -0.10   0.02  -0.00    -0.00  -0.00   0.30    -0.07   0.01  -0.00
   7   6    -0.06   0.23   0.00    -0.00   0.00  -0.19    -0.10   0.11   0.00
   8   6     0.07   0.29   0.00    -0.00   0.00  -0.43    -0.20   0.08   0.00
   9   6     0.15   0.24   0.00     0.00   0.00  -0.21    -0.01  -0.03   0.00
  10   6     0.15   0.02  -0.00     0.00  -0.00   0.31     0.02  -0.14  -0.00
  11   7     0.07   0.03   0.00    -0.00   0.00  -0.15    -0.31   0.05   0.00
  12   8    -0.32  -0.15  -0.00    -0.00  -0.00   0.17    -0.47  -0.01  -0.00
  13   8     0.44  -0.21  -0.00     0.00  -0.00   0.17    -0.29   0.01  -0.00
  14   1     0.02   0.11   0.00    -0.10  -0.00   0.08     0.10   0.04   0.00
  15   1     0.01   0.11  -0.00     0.10   0.01   0.08     0.10   0.04  -0.00
  16   1    -0.14   0.11  -0.00    -0.00   0.00   0.09     0.05   0.04  -0.00
  17   1    -0.06  -0.01  -0.00    -0.00  -0.00   0.14    -0.07  -0.02  -0.00
  18   1    -0.05   0.09   0.00    -0.00   0.00  -0.09    -0.02   0.03   0.00
  19   1     0.08   0.08   0.00     0.00   0.00  -0.10     0.04   0.01   0.00
  20   1     0.08  -0.02  -0.00     0.00  -0.00   0.15    -0.00  -0.03  -0.00
                     10                     11                     12
                        a                      a                      a 
 Frequencies --   291.7555               358.9782               429.9133
 Red. masses --    12.1847                 8.7531                10.4780
 Frc consts  --     0.0000                 0.0000                 0.0000
 IR Inten    --    23.2866                 0.0036                 3.1482
 Raman Activ --     0.0000                 0.0000                 0.0000
 Depolar     --     0.0000                 0.0000                 0.0000
 Atom AN      X      Y      Z        X      Y      Z        X      Y      Z
   1   6    -0.23  -0.39  -0.00     0.00  -0.00   0.00     0.01   0.00   0.03
   2   8    -0.23   0.22  -0.00     0.00   0.00  -0.00     0.00   0.00  -0.17
   3   6    -0.05   0.09   0.00     0.00   0.00  -0.00    -0.00   0.00   0.22
   4   8     0.42   0.36   0.00    -0.00   0.00  -0.01    -0.01   0.00  -0.13
   5   6    -0.04  -0.20   0.00     0.00   0.00   0.01    -0.00  -0.00   0.51
   6   6    -0.11  -0.15   0.00     0.00  -0.00   0.43    -0.00  -0.00  -0.16
   7   6    -0.09   0.07  -0.00    -0.00   0.00  -0.42    -0.00  -0.00  -0.20
   8   6     0.03   0.13  -0.00    -0.00  -0.00  -0.00     0.00   0.00   0.49
   9   6     0.11   0.07  -0.00     0.00  -0.00   0.41     0.00  -0.00  -0.20
  10   6     0.08  -0.14   0.00    -0.00   0.00  -0.41    -0.00  -0.00  -0.15
  11   7     0.04   0.06  -0.00    -0.00  -0.00  -0.00     0.00   0.00   0.25
  12   8    -0.13  -0.02   0.00     0.00  -0.00  -0.01    -0.00   0.00  -0.11
  13   8     0.22  -0.05   0.00    -0.00   0.00   0.01     0.00  -0.00  -0.11
  14   1    -0.14  -0.17  -0.01    -0.00   0.00   0.00    -0.04  -0.00   0.03
  15   1    -0.14  -0.17   0.00     0.00  -0.00   0.00     0.04   0.00   0.03
  16   1     0.08  -0.16   0.00     0.00  -0.00   0.00     0.00   0.00   0.03
  17   1    -0.07  -0.06   0.00     0.00  -0.00   0.26    -0.00  -0.00  -0.20
  18   1    -0.06   0.05  -0.00    -0.00   0.00  -0.28    -0.00   0.00  -0.21
  19   1     0.06   0.04  -0.00     0.00  -0.00   0.27     0.00   0.00  -0.22
  20   1     0.06  -0.06   0.00    -0.00   0.00  -0.27     0.00  -0.00  -0.19
                     13                     14                     15
                        a                      a                      a 
 Frequencies --   450.3722               511.5432               543.9704
 Red. masses --    12.6606                13.3485                13.1765
 Frc consts  --     0.0000                 0.0000                 0.0000
 IR Inten    --     1.6129                13.0025                 1.2630
 Raman Activ --     0.0000                 0.0000                 0.0000
 Depolar     --     0.0000                 0.0000                 0.0000
 Atom AN      X      Y      Z        X      Y      Z        X      Y      Z
   1   6    -0.36  -0.11   0.00    -0.10  -0.01  -0.00    -0.04  -0.01  -0.00
   2   8    -0.29  -0.17  -0.00    -0.07   0.20   0.00    -0.02  -0.09  -0.00
   3   6     0.07  -0.24   0.00    -0.02   0.15   0.00     0.03  -0.08  -0.00
   4   8     0.35  -0.15  -0.00    -0.42  -0.02   0.00     0.16  -0.03  -0.00
   5   6     0.17   0.24   0.01     0.17  -0.08  -0.00    -0.00   0.15   0.00
   6   6     0.22   0.29  -0.00     0.29  -0.14  -0.00     0.03   0.11   0.00
   7   6     0.22   0.10  -0.00     0.27  -0.06   0.00    -0.01  -0.31  -0.00
   8   6     0.01  -0.02   0.01     0.11  -0.05  -0.00    -0.05  -0.25   0.00
   9   6     0.03   0.03  -0.00     0.29  -0.15   0.00    -0.14  -0.30  -0.00
  10   6     0.07   0.24  -0.00     0.29  -0.11  -0.00    -0.13   0.10   0.00
  11   7    -0.10  -0.10   0.00    -0.11   0.12  -0.00     0.04   0.34   0.00
  12   8    -0.00  -0.06  -0.00    -0.44  -0.00   0.00    -0.35   0.22   0.00
  13   8    -0.31   0.01  -0.00    -0.15   0.15   0.00     0.48   0.12  -0.00
  14   1    -0.10  -0.04  -0.00    -0.06  -0.02  -0.00    -0.00   0.00  -0.00
  15   1    -0.10  -0.04   0.00    -0.06  -0.02   0.00    -0.00   0.00   0.00
  16   1    -0.09  -0.04   0.00     0.03  -0.02  -0.00    -0.03   0.00   0.00
  17   1     0.10   0.10  -0.00     0.09  -0.03   0.00     0.08   0.06  -0.00
  18   1     0.11  -0.01  -0.00     0.10  -0.03   0.00     0.07  -0.14  -0.00
  19   1    -0.01  -0.00  -0.00     0.11  -0.03   0.00    -0.12  -0.12  -0.00
  20   1    -0.03   0.10  -0.00     0.09  -0.04   0.00    -0.11   0.08  -0.00
                     16                     17                     18
                        a                      a                      a 
 Frequencies --   598.0591               629.2885               686.8398
 Red. masses --    11.4748                11.3754                12.8445
 Frc consts  --     0.0000                 0.0000                 0.0000
 IR Inten    --     0.0610                 1.7462                 6.7516
 Raman Activ --     0.0000                 0.0000                 0.0000
 Depolar     --     0.0000                 0.0000                 0.0000
 Atom AN      X      Y      Z        X      Y      Z        X      Y      Z
   1   6    -0.02  -0.01  -0.00     0.00   0.00  -0.00     0.12   0.00  -0.00
   2   8    -0.02  -0.06   0.00     0.00   0.00   0.14     0.05  -0.25  -0.00
   3   6     0.02  -0.03  -0.00    -0.00   0.00  -0.42    -0.23  -0.03   0.00
   4   8     0.03  -0.04   0.00    -0.00  -0.00   0.14     0.16   0.20   0.00
   5   6    -0.00  -0.11   0.00    -0.00  -0.00  -0.27    -0.31   0.03  -0.00
   6   6     0.37  -0.29   0.00    -0.00  -0.00   0.34     0.02  -0.26   0.00
   7   6     0.40   0.21  -0.00    -0.00  -0.00  -0.32     0.02  -0.26  -0.00
   8   6    -0.00   0.09   0.00     0.00  -0.00   0.28     0.32  -0.03  -0.00
   9   6    -0.39   0.26  -0.00     0.00  -0.00  -0.32     0.03   0.26  -0.00
  10   6    -0.43  -0.25   0.00     0.00  -0.00   0.34     0.04   0.28   0.00
  11   7     0.01   0.08   0.00     0.00  -0.00   0.29     0.19  -0.01   0.00
  12   8    -0.05   0.08  -0.00     0.00  -0.00  -0.09    -0.24  -0.23  -0.00
  13   8     0.08   0.06  -0.00    -0.00  -0.00  -0.09    -0.20   0.27  -0.00
  14   1    -0.00   0.00   0.00     0.03   0.00  -0.01     0.08   0.04   0.00
  15   1    -0.00   0.00  -0.00    -0.03  -0.00  -0.01     0.08   0.04  -0.00
  16   1    -0.02   0.00  -0.00     0.00   0.00  -0.02    -0.08   0.04   0.00
  17   1     0.08  -0.10   0.00    -0.00  -0.00   0.13     0.10  -0.03   0.00
  18   1     0.09   0.08  -0.00    -0.00   0.00  -0.17    -0.07  -0.02   0.00
  19   1    -0.08   0.09  -0.00     0.00  -0.00  -0.17    -0.08   0.03   0.00
  20   1    -0.10  -0.09   0.00     0.00  -0.00   0.13     0.09   0.03   0.00
                     19                     20                     21
                        a                      a                      a 
 Frequencies --   690.1488               755.0586               794.6507
 Red. masses --    10.3869                12.5818                13.3959
 Frc consts  --     0.0000                 0.0000                 0.0000
 IR Inten    --   134.8191                 0.1320               132.2282
 Raman Activ --     0.0000                 0.0000                 0.0000
 Depolar     --     0.0000                 0.0000                 0.0000
 Atom AN      X      Y      Z        X      Y      Z        X      Y      Z
   1   6     0.00  -0.00   0.00    -0.00  -0.00   0.01     0.05  -0.05  -0.00
   2   8     0.00  -0.00   0.14     0.00  -0.00   0.12     0.02  -0.38  -0.00
   3   6    -0.00   0.00  -0.51    -0.00   0.00  -0.49    -0.34   0.05   0.00
   4   8     0.00  -0.00   0.16     0.00  -0.00   0.14     0.02   0.35   0.00
   5   6    -0.00  -0.00   0.22     0.00  -0.00   0.43    -0.11   0.01  -0.00
   6   6    -0.00  -0.00   0.01    -0.00  -0.00  -0.12     0.13  -0.07  -0.00
   7   6    -0.00  -0.00   0.12    -0.00  -0.00   0.09     0.15   0.10  -0.00
   8   6     0.00   0.00   0.15    -0.00   0.00  -0.42    -0.12   0.01   0.00
   9   6     0.00   0.00   0.11     0.00  -0.00   0.09     0.14  -0.12  -0.00
  10   6     0.00   0.00   0.03     0.00  -0.00  -0.12     0.14   0.04   0.00
  11   7     0.00   0.00  -0.55     0.00  -0.00   0.50    -0.37   0.03   0.00
  12   8    -0.00  -0.00   0.17    -0.00   0.00  -0.15     0.12   0.33   0.00
  13   8    -0.00   0.00   0.17    -0.00   0.00  -0.15     0.07  -0.34  -0.00
  14   1     0.03   0.00  -0.01     0.02   0.00  -0.00     0.10   0.06   0.01
  15   1    -0.03  -0.00  -0.01    -0.02  -0.00  -0.00     0.10   0.06  -0.01
  16   1     0.00   0.00  -0.02    -0.00   0.00  -0.01    -0.19   0.05   0.00
  17   1    -0.00  -0.00  -0.26    -0.00  -0.00  -0.05     0.06  -0.01  -0.00
  18   1    -0.00   0.00  -0.22    -0.00  -0.00   0.09     0.08   0.00  -0.00
  19   1    -0.00   0.00  -0.23     0.00  -0.00   0.09     0.08  -0.01  -0.00
  20   1     0.00  -0.00  -0.26     0.00  -0.00  -0.04     0.06  -0.01  -0.00
                     22                     23                     24
                        a                      a                      a 
 Frequencies --   848.4130               861.0069               868.3754
 Red. masses --     6.3668                12.7955                 3.3667
 Frc consts  --     0.0000                 0.0000                 0.0000
 IR Inten    --     6.1453                21.6960                 0.0336
 Raman Activ --     0.0000                 0.0000                 0.0000
 Depolar     --     0.0000                 0.0000                 0.0000
 Atom AN      X      Y      Z        X      Y      Z        X      Y      Z
   1   6     0.00   0.00  -0.00    -0.05  -0.06  -0.00    -0.00  -0.00   0.00
   2   8    -0.00   0.00  -0.04     0.03  -0.30  -0.00     0.00  -0.00  -0.00
   3   6     0.00  -0.00   0.22    -0.17   0.10   0.00    -0.00   0.00   0.02
   4   8    -0.00  -0.00  -0.05    -0.05   0.28   0.00    -0.00   0.00  -0.00
   5   6    -0.00   0.00  -0.28     0.12  -0.01  -0.00     0.00  -0.00  -0.03
   6   6     0.00  -0.00   0.16    -0.05   0.31  -0.00    -0.00   0.00   0.20
   7   6     0.00  -0.00   0.18     0.04   0.27  -0.00     0.00   0.00   0.29
   8   6     0.00   0.00  -0.32    -0.09   0.01  -0.00    -0.00   0.00  -0.03
   9   6     0.00   0.00   0.21     0.02  -0.28   0.00    -0.00  -0.00  -0.24
  10   6     0.00   0.00   0.23    -0.08  -0.32   0.00    -0.00  -0.00  -0.17
  11   7    -0.00   0.00   0.26     0.33  -0.02   0.00     0.00  -0.00   0.02
  12   8     0.00   0.00  -0.07    -0.04  -0.32  -0.00    -0.00  -0.00  -0.00
  13   8    -0.00  -0.00  -0.07     0.00   0.32  -0.00     0.00   0.00  -0.01
  14   1    -0.00  -0.00   0.00     0.07   0.05   0.00     0.00  -0.00  -0.00
  15   1     0.00   0.00   0.00     0.07   0.05  -0.00    -0.00   0.00  -0.00
  16   1     0.00  -0.00   0.00    -0.19   0.04   0.00    -0.00   0.00  -0.00
  17   1     0.00   0.00  -0.31    -0.09   0.05   0.00    -0.00   0.00  -0.41
  18   1    -0.00  -0.00  -0.32     0.07   0.04   0.00    -0.00   0.00  -0.54
  19   1    -0.00   0.00  -0.40     0.08  -0.05  -0.00     0.00  -0.00   0.43
  20   1    -0.00   0.00  -0.42    -0.08  -0.05  -0.00     0.00  -0.00   0.37
                     25                     26                     27
                        a                      a                      a 
 Frequencies --   923.7740               929.8743               976.7179
 Red. masses --     3.3423                 3.9044                11.6388
 Frc consts  --     0.0000                 0.0000                 0.0000
 IR Inten    --     0.0217                 0.0011                17.9838
 Raman Activ --     0.0000                 0.0000                 0.0000
 Depolar     --     0.0000                 0.0000                 0.0000
 Atom AN      X      Y      Z        X      Y      Z        X      Y      Z
   1   6     0.00   0.00  -0.00     0.00  -0.00  -0.00    -0.50  -0.09  -0.00
   2   8    -0.00   0.00  -0.00     0.00   0.00   0.00     0.41  -0.18  -0.00
   3   6    -0.00  -0.00   0.01    -0.00   0.00  -0.02     0.25   0.22   0.00
   4   8     0.00   0.00  -0.00     0.00  -0.00   0.00    -0.09   0.10   0.00
   5   6     0.00  -0.00  -0.00     0.00   0.00   0.01     0.20   0.00  -0.00
   6   6     0.00   0.00   0.04    -0.00  -0.00  -0.37    -0.03   0.07   0.00
   7   6    -0.00   0.00  -0.06     0.00  -0.00   0.30    -0.14  -0.30   0.00
   8   6    -0.00   0.00   0.02     0.00  -0.00   0.00     0.12   0.00  -0.00
   9   6    -0.00   0.00  -0.32    -0.00   0.00  -0.10    -0.06   0.29   0.00
  10   6     0.00  -0.00   0.32     0.00   0.00   0.15    -0.03  -0.14   0.00
  11   7     0.00  -0.00  -0.03    -0.00   0.00   0.01    -0.06   0.00   0.00
  12   8    -0.00  -0.00   0.00    -0.00   0.00  -0.00    -0.01   0.08   0.00
  13   8     0.00   0.00   0.00    -0.00  -0.00  -0.00    -0.03  -0.08  -0.00
  14   1     0.00   0.00  -0.00    -0.00   0.00   0.00    -0.01   0.05  -0.00
  15   1    -0.00  -0.00  -0.00     0.00  -0.00   0.00    -0.01   0.05   0.00
  16   1     0.00  -0.00   0.00    -0.00  -0.00   0.00    -0.28   0.03  -0.00
  17   1    -0.00   0.00  -0.16     0.00  -0.00   0.66     0.04   0.04  -0.00
  18   1     0.00  -0.00   0.20    -0.00   0.00  -0.52    -0.03  -0.09  -0.00
  19   1     0.00  -0.00   0.60    -0.00  -0.00   0.09     0.03   0.10   0.00
  20   1    -0.00   0.00  -0.61    -0.00   0.00  -0.18     0.05  -0.08  -0.00
                     28                     29                     30
                        a                      a                      a 
 Frequencies --  1009.8871              1109.8938              1110.5115
 Red. masses --     9.6531                 3.9848                 7.3051
 Frc consts  --     0.0000                 0.0000                 0.0000
 IR Inten    --     3.8615                 3.6262                38.8516
 Raman Activ --     0.0000                 0.0000                 0.0000
 Depolar     --     0.0000                 0.0000                 0.0000
 Atom AN      X      Y      Z        X      Y      Z        X      Y      Z
   1   6     0.32   0.02   0.00    -0.05   0.05  -0.42    -0.24   0.21   0.09
   2   8    -0.32   0.01  -0.00     0.08   0.01   0.23     0.40   0.03  -0.05
   3   6    -0.15  -0.08  -0.00    -0.04  -0.03  -0.01    -0.19  -0.14   0.00
   4   8     0.01   0.03   0.00     0.01  -0.01   0.01     0.07  -0.04  -0.00
   5   6     0.06  -0.02   0.00    -0.06  -0.00  -0.01    -0.28  -0.02   0.00
   6   6    -0.02   0.40   0.00    -0.01   0.01   0.00    -0.04   0.07  -0.00
   7   6    -0.03  -0.29  -0.00     0.02   0.01   0.00     0.11   0.06  -0.00
   8   6     0.15  -0.02  -0.00    -0.05  -0.01  -0.00    -0.24  -0.03   0.00
   9   6    -0.01   0.30   0.00    -0.00   0.00  -0.00    -0.01   0.02   0.00
  10   6    -0.08  -0.36  -0.00     0.01   0.00   0.00     0.05   0.01  -0.00
  11   7    -0.06   0.00   0.00     0.01  -0.00   0.00     0.05  -0.01  -0.00
  12   8    -0.02   0.07   0.00     0.00  -0.01  -0.00     0.02  -0.06  -0.00
  13   8    -0.03  -0.07   0.00     0.01   0.01  -0.00     0.04   0.07   0.00
  14   1     0.03  -0.01   0.01    -0.58   0.04   0.16    -0.03  -0.09  -0.07
  15   1     0.03  -0.01  -0.01     0.53  -0.07   0.17    -0.25  -0.07   0.00
  16   1     0.10  -0.00   0.00     0.05  -0.01   0.25     0.28  -0.05  -0.05
  17   1     0.16   0.20   0.00    -0.00   0.01  -0.00    -0.01   0.02   0.00
  18   1     0.16  -0.20  -0.00     0.07  -0.04  -0.00     0.36  -0.22   0.00
  19   1     0.17   0.17  -0.00     0.01   0.00  -0.00     0.03   0.02   0.00
  20   1     0.13  -0.20   0.00     0.06  -0.04  -0.00     0.32  -0.21  -0.00
                     31                     32                     33
                        a                      a                      a 
 Frequencies --  1118.1500              1130.8670              1157.0507
 Red. masses --     3.2973                 7.7624                 7.0917
 Frc consts  --     0.0000                 0.0000                 0.0000
 IR Inten    --     8.2822               234.8132                64.2857
 Raman Activ --     0.0000                 0.0000                 0.0000
 Depolar     --     0.0000                 0.0000                 0.0000
 Atom AN      X      Y      Z        X      Y      Z        X      Y      Z
   1   6     0.07  -0.10  -0.00     0.10  -0.20  -0.00    -0.05  -0.28  -0.00
   2   8    -0.11   0.04   0.00    -0.18   0.09   0.00     0.12   0.43   0.00
   3   6     0.03   0.02   0.00     0.15   0.08   0.00    -0.05  -0.12  -0.00
   4   8    -0.04   0.03   0.00    -0.02  -0.03  -0.00     0.08  -0.19  -0.00
   5   6     0.14  -0.13  -0.00     0.04  -0.03  -0.00    -0.28   0.00   0.00
   6   6    -0.11   0.12   0.00     0.04  -0.19  -0.00    -0.00   0.10  -0.00
   7   6     0.09   0.09  -0.00    -0.04  -0.12   0.00     0.04   0.12   0.00
   8   6     0.19  -0.11  -0.00    -0.54   0.03   0.00     0.03  -0.00  -0.00
   9   6    -0.10   0.11   0.00    -0.03   0.15   0.00     0.01  -0.12  -0.00
  10   6     0.09   0.07  -0.00     0.10   0.20  -0.00    -0.02  -0.07   0.00
  11   7    -0.04  -0.00   0.00     0.13  -0.01  -0.00    -0.03   0.00   0.00
  12   8    -0.02   0.06   0.00     0.04  -0.11  -0.00     0.01  -0.02  -0.00
  13   8    -0.02  -0.03  -0.00     0.06   0.10  -0.00     0.01   0.01  -0.00
  14   1     0.07   0.04   0.02     0.12   0.08   0.03     0.19   0.14   0.04
  15   1     0.07   0.04  -0.02     0.12   0.08  -0.03     0.19   0.14  -0.04
  16   1    -0.14   0.02   0.00    -0.27   0.04   0.00    -0.40   0.05  -0.00
  17   1    -0.48  -0.20  -0.00    -0.05  -0.09  -0.00     0.31   0.19   0.00
  18   1     0.27  -0.14  -0.00     0.32  -0.28  -0.00    -0.09   0.10   0.00
  19   1    -0.53  -0.22   0.00     0.25   0.18  -0.00    -0.09  -0.08   0.00
  20   1     0.24  -0.13  -0.00     0.02   0.07   0.00     0.23  -0.19  -0.00
                     34                     35                     36
                        a                      a                      a 
 Frequencies --  1175.5349              1234.0183              1240.6878
 Red. masses --     6.3791                10.4801                 3.9850
 Frc consts  --     0.0000                 0.0000                 0.0000
 IR Inten    --   263.2148               463.0714                66.0242
 Raman Activ --     0.0000                 0.0000                 0.0000
 Depolar     --     0.0000                 0.0000                 0.0000
 Atom AN      X      Y      Z        X      Y      Z        X      Y      Z
   1   6    -0.09  -0.08   0.00     0.03  -0.00  -0.00    -0.03   0.02   0.00
   2   8     0.21   0.28   0.00    -0.13  -0.17  -0.00     0.08   0.05   0.00
   3   6    -0.29  -0.21  -0.00     0.48   0.28   0.00    -0.17  -0.07  -0.00
   4   8     0.07  -0.08  -0.00    -0.01  -0.05  -0.00    -0.01   0.03   0.00
   5   6    -0.03   0.02   0.00    -0.50  -0.04   0.00     0.15  -0.24  -0.00
   6   6    -0.10   0.05   0.00    -0.19   0.01   0.00    -0.05  -0.08  -0.00
   7   6     0.12  -0.03  -0.00     0.08   0.17   0.00    -0.15   0.05   0.00
   8   6     0.30  -0.02  -0.00     0.24   0.06  -0.00    -0.05   0.22   0.00
   9   6     0.11  -0.01  -0.00     0.18  -0.12  -0.00     0.08   0.13  -0.00
  10   6    -0.14  -0.03   0.00    -0.13  -0.05   0.00     0.14  -0.09  -0.00
  11   7    -0.04   0.01   0.00     0.05  -0.01  -0.00    -0.02  -0.02   0.00
  12   8    -0.04   0.06   0.00    -0.05   0.10   0.00     0.04  -0.04  -0.00
  13   8    -0.04  -0.06   0.00    -0.08  -0.10   0.00     0.01   0.03   0.00
  14   1     0.08   0.06   0.01    -0.04  -0.03   0.00     0.01   0.00  -0.01
  15   1     0.08   0.06  -0.01    -0.04  -0.03  -0.00     0.01   0.00   0.01
  16   1    -0.10   0.01  -0.00    -0.03   0.01   0.00     0.03  -0.01  -0.00
  17   1    -0.35  -0.15  -0.00     0.09   0.08   0.00     0.40   0.19  -0.00
  18   1     0.19  -0.11  -0.00     0.32  -0.15  -0.00     0.26  -0.20  -0.00
  19   1     0.32   0.14  -0.00     0.06  -0.04  -0.00    -0.42  -0.18   0.00
  20   1    -0.41   0.24   0.00    -0.13   0.04  -0.00    -0.38   0.27   0.00
                     37                     38                     39
                        a                      a                      a 
 Frequencies --  1316.3709              1340.0693              1375.0400
 Red. masses --    14.6637                11.9984                 2.6065
 Frc consts  --     0.0000                 0.0000                 0.0000
 IR Inten    --  1059.8136                21.2053                16.7978
 Raman Activ --     0.0000                 0.0000                 0.0000
 Depolar     --     0.0000                 0.0000                 0.0000
 Atom AN      X      Y      Z        X      Y      Z        X      Y      Z
   1   6     0.02   0.00   0.00     0.01  -0.01  -0.00     0.32   0.07   0.00
   2   8    -0.03  -0.04  -0.00    -0.02   0.00  -0.00     0.13   0.05   0.00
   3   6     0.08   0.06   0.00     0.01  -0.01   0.00    -0.08  -0.02   0.00
   4   8    -0.00  -0.02  -0.00     0.02  -0.01  -0.00     0.02  -0.04  -0.00
   5   6    -0.04   0.01   0.00     0.01   0.39   0.00     0.02   0.01  -0.00
   6   6    -0.00  -0.02   0.00    -0.40  -0.17   0.00     0.01  -0.00  -0.00
   7   6    -0.04   0.02   0.00     0.36  -0.19  -0.00    -0.01  -0.01   0.00
   8   6     0.18  -0.01  -0.00     0.03   0.36   0.00    -0.01   0.01   0.00
   9   6    -0.03  -0.01   0.00    -0.38  -0.14   0.00     0.01   0.00  -0.00
  10   6    -0.01   0.02   0.00     0.38  -0.22  -0.00    -0.00  -0.01  -0.00
  11   7    -0.69   0.05   0.00    -0.01  -0.02   0.00     0.02  -0.00  -0.00
  12   8     0.23  -0.42  -0.00     0.02  -0.00  -0.00    -0.01   0.01   0.00
  13   8     0.29   0.38  -0.00    -0.02   0.00   0.00    -0.01  -0.01   0.00
  14   1    -0.02  -0.01   0.00    -0.00   0.00   0.00    -0.47  -0.20   0.08
  15   1    -0.02  -0.01  -0.00    -0.00   0.00  -0.00    -0.47  -0.20  -0.09
  16   1    -0.02   0.01   0.00    -0.00   0.00   0.00    -0.54   0.19   0.00
  17   1    -0.01  -0.01  -0.00     0.01   0.02   0.00     0.00  -0.00   0.00
  18   1     0.06  -0.04  -0.00     0.02   0.01   0.00    -0.00  -0.00   0.00
  19   1     0.06   0.03  -0.00    -0.01   0.01   0.00    -0.01  -0.01  -0.00
  20   1     0.00   0.00  -0.00    -0.01   0.02   0.00    -0.01   0.00  -0.00
                     40                     41                     42
                        a                      a                      a 
 Frequencies --  1406.6232              1420.2898              1433.9047
 Red. masses --    10.4753                 1.5055                 9.2251
 Frc consts  --     0.0000                 0.0000                 0.0000
 IR Inten    --     2.6860                15.8601                28.7014
 Raman Activ --     0.0000                 0.0000                 0.0000
 Depolar     --     0.0000                 0.0000                 0.0000
 Atom AN      X      Y      Z        X      Y      Z        X      Y      Z
   1   6    -0.00   0.01   0.00    -0.00  -0.00   0.21    -0.01   0.00  -0.00
   2   8     0.03  -0.01  -0.00    -0.00  -0.00   0.04     0.01   0.01   0.00
   3   6     0.04   0.03  -0.00     0.00   0.00   0.00     0.07   0.04   0.00
   4   8    -0.04   0.03   0.00     0.00  -0.00  -0.00     0.03  -0.05  -0.00
   5   6    -0.07  -0.47  -0.00    -0.00   0.00  -0.00    -0.39   0.06   0.00
   6   6    -0.25   0.20   0.00     0.00   0.00   0.00     0.20   0.23  -0.00
   7   6     0.32   0.09  -0.00     0.00  -0.00   0.00     0.21  -0.28  -0.00
   8   6    -0.05  -0.43  -0.00    -0.00   0.00  -0.00    -0.33   0.05   0.00
   9   6    -0.28   0.16   0.00     0.00   0.00   0.00     0.29   0.23  -0.00
  10   6     0.30   0.13  -0.00     0.00  -0.00   0.00     0.13  -0.27  -0.00
  11   7    -0.01  -0.01  -0.00    -0.00  -0.00  -0.00    -0.05   0.00   0.00
  12   8    -0.03   0.04   0.00     0.00  -0.00   0.00     0.04  -0.07  -0.00
  13   8     0.05   0.04  -0.00     0.00   0.00   0.00     0.05   0.05  -0.00
  14   1    -0.01  -0.02  -0.01    -0.28  -0.36  -0.09     0.01  -0.01  -0.01
  15   1    -0.01  -0.02   0.01     0.29   0.36  -0.07     0.01  -0.01   0.01
  16   1    -0.01   0.01   0.00     0.00   0.01  -0.72    -0.01   0.00   0.00
  17   1     0.09   0.14   0.00    -0.00  -0.00  -0.00    -0.25  -0.09   0.00
  18   1    -0.11   0.17   0.00    -0.00   0.00  -0.00    -0.22   0.11   0.00
  19   1     0.11   0.15  -0.00    -0.00  -0.00  -0.00    -0.24  -0.10   0.00
  20   1    -0.10   0.17   0.00    -0.00  -0.00  -0.00    -0.22   0.09   0.00
                     43                     44                     45
                        a                      a                      a 
 Frequencies --  1443.9548              1565.5476              1574.8165
 Red. masses --     1.6093                13.6145                11.5893
 Frc consts  --     0.0000                 0.0000                 0.0000
 IR Inten    --     1.7890               424.4071                 6.9282
 Raman Activ --     0.0000                 0.0000                 0.0000
 Depolar     --     0.0000                 0.0000                 0.0000
 Atom AN      X      Y      Z        X      Y      Z        X      Y      Z
   1   6     0.05  -0.21  -0.00     0.00  -0.00  -0.00     0.00   0.00  -0.00
   2   8     0.04  -0.05  -0.00    -0.01   0.00  -0.00    -0.01  -0.01  -0.00
   3   6     0.02  -0.03  -0.00    -0.02   0.00   0.00    -0.02  -0.00  -0.00
   4   8    -0.01   0.04   0.00     0.02  -0.02  -0.00    -0.01   0.02   0.00
   5   6    -0.01  -0.01   0.00     0.01   0.33   0.00     0.26  -0.05  -0.00
   6   6     0.00   0.01  -0.00    -0.07  -0.16  -0.00    -0.46  -0.08   0.00
   7   6     0.01  -0.00  -0.00    -0.11   0.20   0.00     0.43  -0.15  -0.00
   8   6    -0.01  -0.01   0.00    -0.02  -0.33  -0.00    -0.16   0.05   0.00
   9   6     0.00   0.01   0.00     0.11   0.17  -0.00     0.42   0.06  -0.00
  10   6     0.01  -0.01   0.00     0.07  -0.18  -0.00    -0.45   0.18   0.00
  11   7    -0.00  -0.00   0.00    -0.04  -0.62  -0.00    -0.06  -0.07   0.00
  12   8     0.00  -0.00  -0.00    -0.14   0.31   0.00     0.01  -0.00   0.00
  13   8     0.00   0.00  -0.00     0.18   0.28  -0.00     0.04   0.07  -0.00
  14   1    -0.27   0.46   0.40     0.00   0.00  -0.00    -0.00   0.00   0.00
  15   1    -0.27   0.47  -0.38     0.00   0.00   0.00    -0.00   0.00  -0.00
  16   1     0.22  -0.09  -0.00    -0.00  -0.00   0.00     0.00  -0.00   0.00
  17   1    -0.01  -0.00   0.00     0.04  -0.02  -0.00     0.08   0.08  -0.00
  18   1    -0.01   0.00   0.00     0.03   0.01  -0.00    -0.05   0.08   0.00
  19   1    -0.00   0.00  -0.00    -0.03   0.02   0.00    -0.05  -0.07   0.00
  20   1    -0.01   0.01  -0.00    -0.04  -0.01   0.00     0.07  -0.09  -0.00
                     46                     47                     48
                        a                      a                      a 
 Frequencies --  1581.1535              1678.4635              2990.4857
 Red. masses --    12.8340                13.3842                 1.9619
 Frc consts  --     0.0000                 0.0000                 0.0000
 IR Inten    --   280.9950               655.5819                11.2101
 Raman Activ --     0.0000                 0.0000                 0.0000
 Depolar     --     0.0000                 0.0000                 0.0000
 Atom AN      X      Y      Z        X      Y      Z        X      Y      Z
   1   6    -0.00   0.00   0.00     0.01   0.00   0.00     0.00   0.00  -0.29
   2   8     0.01   0.00   0.00     0.01   0.07   0.00     0.00   0.00  -0.00
   3   6     0.02  -0.01  -0.00     0.39  -0.69  -0.00    -0.00  -0.00   0.00
   4   8    -0.02   0.03   0.00    -0.29   0.52   0.00    -0.00   0.00  -0.00
   5   6    -0.06  -0.37  -0.00    -0.07   0.04   0.00     0.00   0.00  -0.00
   6   6     0.18   0.21  -0.00     0.00  -0.02  -0.00     0.00  -0.00   0.00
   7   6     0.02  -0.23  -0.00    -0.00   0.01  -0.00    -0.00  -0.00   0.00
   8   6     0.05   0.46   0.00     0.00  -0.01  -0.00     0.00   0.00   0.00
   9   6    -0.15  -0.24   0.00     0.02   0.01  -0.00    -0.00  -0.00   0.00
  10   6    -0.05   0.20   0.00    -0.02  -0.01   0.00     0.00   0.00   0.00
  11   7    -0.03  -0.52  -0.00    -0.02   0.00   0.00    -0.00   0.00  -0.00
  12   8    -0.08   0.22   0.00     0.00  -0.01  -0.00     0.00  -0.00   0.00
  13   8     0.11   0.20  -0.00     0.01   0.01  -0.00     0.00  -0.00   0.00
  14   1    -0.00  -0.00  -0.00    -0.00  -0.03  -0.01     0.23  -0.35   0.53
  15   1    -0.00  -0.00   0.00    -0.00  -0.03   0.01    -0.23   0.33   0.54
  16   1    -0.00   0.00  -0.00    -0.04   0.01  -0.00     0.00   0.00  -0.04
  17   1    -0.07  -0.00   0.00     0.01   0.00   0.00    -0.00   0.00   0.00
  18   1    -0.05  -0.02   0.00     0.01  -0.00   0.00     0.00   0.00  -0.00
  19   1     0.06  -0.01  -0.00    -0.00  -0.00  -0.00    -0.00   0.00  -0.00
  20   1     0.05   0.01  -0.00    -0.01  -0.00  -0.00    -0.00  -0.00  -0.00
                     49                     50                     51
                        a                      a                      a 
 Frequencies --  2999.8635              3060.3531              3106.1192
 Red. masses --     1.3819                 1.8091                 1.7995
 Frc consts  --     0.0000                 0.0000                 0.0000
 IR Inten    --    17.0628                 1.0998                 1.5221
 Raman Activ --     0.0000                 0.0000                 0.0000
 Depolar     --     0.0000                 0.0000                 0.0000
 Atom AN      X      Y      Z        X      Y      Z        X      Y      Z
   1   6    -0.11   0.14   0.00    -0.06  -0.26  -0.00    -0.00   0.00   0.00
   2   8    -0.02   0.00  -0.00    -0.00  -0.00  -0.00     0.00   0.00   0.00
   3   6     0.00   0.00   0.00     0.00  -0.00  -0.00    -0.00   0.00   0.00
   4   8     0.00  -0.00  -0.00    -0.00   0.00   0.00     0.00  -0.00  -0.00
   5   6    -0.00   0.00  -0.00     0.00   0.00   0.00    -0.00   0.00   0.00
   6   6     0.00  -0.00   0.00    -0.00   0.00   0.00    -0.09   0.19   0.00
   7   6    -0.00   0.00   0.00     0.00   0.00  -0.00    -0.10  -0.14   0.00
   8   6    -0.00  -0.00   0.00     0.00   0.00   0.00    -0.00  -0.00   0.00
   9   6     0.00  -0.00   0.00    -0.00   0.00  -0.00     0.01  -0.02  -0.00
  10   6    -0.00  -0.00  -0.00    -0.00  -0.00   0.00     0.00   0.01  -0.00
  11   7     0.00  -0.00  -0.00    -0.00  -0.00   0.00    -0.00  -0.00  -0.00
  12   8    -0.00   0.00  -0.00    -0.00   0.00   0.00    -0.00   0.00   0.00
  13   8    -0.00  -0.00   0.00     0.00   0.00   0.00     0.00   0.00  -0.00
  14   1     0.22  -0.32   0.57    -0.03   0.00  -0.06     0.00  -0.00   0.00
  15   1     0.21  -0.30  -0.58    -0.03   0.00   0.06     0.00  -0.00  -0.00
  16   1     0.02   0.12   0.00     0.28   0.92   0.01    -0.00  -0.00  -0.00
  17   1    -0.00   0.00   0.00     0.00  -0.00  -0.00     0.34  -0.66  -0.00
  18   1    -0.00  -0.00   0.00    -0.00  -0.00  -0.00     0.35   0.50  -0.00
  19   1    -0.00   0.00  -0.00     0.00  -0.00   0.00    -0.03   0.06   0.00
  20   1     0.00   0.00  -0.00     0.00   0.00   0.00    -0.02  -0.02   0.00
                     52                     53                     54
                        a                      a                      a 
 Frequencies --  3108.2578              3114.3587              3125.1307
 Red. masses --     1.8258                 1.8945                 1.8719
 Frc consts  --     0.0000                 0.0000                 0.0000
 IR Inten    --     1.7057                 0.3118                 0.0531
 Raman Activ --     0.0000                 0.0000                 0.0000
 Depolar     --     0.0000                 0.0000                 0.0000
 Atom AN      X      Y      Z        X      Y      Z        X      Y      Z
   1   6     0.00  -0.00  -0.00    -0.00   0.00   0.00     0.00  -0.00   0.00
   2   8    -0.00  -0.00   0.00     0.00   0.00   0.00    -0.00  -0.00   0.00
   3   6     0.00  -0.00  -0.00    -0.00   0.00   0.00     0.00   0.00   0.00
   4   8    -0.00   0.00   0.00     0.00  -0.00  -0.00    -0.00  -0.00   0.00
   5   6     0.00   0.00   0.00    -0.01  -0.00   0.00     0.01  -0.00  -0.00
   6   6     0.01  -0.02  -0.00    -0.09   0.16   0.00    -0.00  -0.00  -0.00
   7   6     0.00   0.01  -0.00     0.13   0.18  -0.00     0.00  -0.00  -0.00
   8   6     0.01  -0.00  -0.00     0.01  -0.00  -0.00    -0.00  -0.00   0.00
   9   6     0.12  -0.24  -0.00    -0.00  -0.00  -0.00    -0.04   0.07   0.00
  10   6     0.03   0.05  -0.00     0.00   0.00  -0.00     0.15   0.22  -0.00
  11   7     0.00  -0.00  -0.00     0.00   0.00   0.00     0.00   0.00   0.00
  12   8     0.00   0.00   0.00    -0.00  -0.00   0.00    -0.00  -0.00   0.00
  13   8    -0.00  -0.00   0.00     0.00  -0.00  -0.00     0.00  -0.00   0.00
  14   1     0.00   0.00  -0.00     0.00  -0.00   0.00     0.00  -0.00   0.00
  15   1     0.00   0.00   0.00     0.00  -0.00  -0.00     0.00  -0.00  -0.00
  16   1     0.00   0.00   0.00    -0.00  -0.00  -0.00     0.00   0.00   0.00
  17   1    -0.03   0.06   0.00     0.27  -0.54  -0.00    -0.00   0.01   0.00
  18   1    -0.02  -0.03   0.00    -0.43  -0.61   0.00     0.00   0.00  -0.00
  19   1    -0.42   0.83   0.00    -0.00   0.01   0.00     0.11  -0.22  -0.00
  20   1    -0.14  -0.20   0.00    -0.01  -0.01   0.00    -0.53  -0.76   0.00
