      -----------------------------------------------------------      
     |                   =====================                   |     
     |                           x T B                           |     
     |                   =====================                   |     
     |                         S. Grimme                         |     
     |          Mulliken Center for Theoretical Chemistry        |     
     |                    University of Bonn                     |     
      -----------------------------------------------------------      

   * xtb version 6.7.1 (edcfbbe) compiled by 'albert@albert-system' on 2024-07-22

   xtb is free software: you can redistribute it and/or modify it under
   the terms of the GNU Lesser General Public License as published by
   the Free Software Foundation, either version 3 of the License, or
   (at your option) any later version.
   
   xtb is distributed in the hope that it will be useful,
   but WITHOUT ANY WARRANTY; without even the implied warranty of
   MERCHANTABILITY or FITNESS FOR A PARTICULAR PURPOSE.  See the
   GNU Lesser General Public License for more details.
   
   Cite this work as:
   * C. Bannwarth, E. Caldeweyher, S. Ehlert, A. Hansen, P. Pracht,
     J. Seibert, S. Spicher, S. Grimme, WIREs Comput. Mol. Sci., 2020, 11,
     e01493. DOI: 10.1002/wcms.1493
   
   for GFN2-xTB:
   * C. Bannwarth, S. Ehlert and S. Grimme., J. Chem. Theory Comput., 2019,
     15, 1652-1671. DOI: 10.1021/acs.jctc.8b01176
   for GFN1-xTB:
   * S. Grimme, C. Bannwarth, P. Shushkov, J. Chem. Theory Comput., 2017,
     13, 1989-2009. DOI: 10.1021/acs.jctc.7b00118
   for GFN0-xTB:
   * P. Pracht, E. Caldeweyher, S. Ehlert, S. Grimme, ChemRxiv, 2019, preprint.
     DOI: 10.26434/chemrxiv.8326202.v1
   for GFN-FF:
   * S. Spicher and S. Grimme, Angew. Chem. Int. Ed., 2020, 59, 15665-15673.
     DOI: 10.1002/anie.202004239
   
   for ALPB and GBSA implicit solvation:
   * S. Ehlert, M. Stahn, S. Spicher, S. Grimme, J. Chem. Theory Comput.,
     2021, 17, 4250-4261. DOI: 10.1021/acs.jctc.1c00471
   
   for ddCOSMO and CPCM-X implicit solvation:
   * M. Stahn, S. Ehlert, S. Grimme, J. Phys. Chem. A,
     2023, XX, XXXX-XXXX. DOI: 10.1021/acs.jpca.3c04382
   
   for DFT-D4:
   * E. Caldeweyher, C. Bannwarth and S. Grimme, J. Chem. Phys., 2017,
     147, 034112. DOI: 10.1063/1.4993215
   * E. Caldeweyher, S. Ehlert, A. Hansen, H. Neugebauer, S. Spicher,
     C. Bannwarth and S. Grimme, J. Chem. Phys., 2019, 150, 154122.
     DOI: 10.1063/1.5090222
   * E. Caldeweyher, J.-M. Mewes, S. Ehlert and S. Grimme, Phys. Chem. Chem. Phys.
     2020, 22, 8499-8512. DOI: 10.1039/D0CP00502A
   
   for sTDA-xTB:
   * S. Grimme and C. Bannwarth, J. Chem. Phys., 2016, 145, 054103.
     DOI: 10.1063/1.4959605
   
   in the mass-spec context:
   * V. Asgeirsson, C. Bauer and S. Grimme, Chem. Sci., 2017, 8, 4879.
     DOI: 10.1039/c7sc00601b
   * J. Koopman and S. Grimme, ACS Omega 2019, 4, 12, 15120-15133.
     DOI: 10.1021/acsomega.9b02011
   
   for metadynamics refer to:
   * S. Grimme, J. Chem. Theory Comput., 2019, 155, 2847-2862
     DOI: 10.1021/acs.jctc.9b00143
   
   for SPH calculations refer to:
   * S. Spicher and S. Grimme, J. Chem. Theory Comput., 2021, 17, 1701-1714
     DOI: 10.1021/acs.jctc.0c01306
   
   for ONIOM refer to:
   * C. Plett, A. Katbashev, S. Ehlert, S. Grimme, M. Bursch,
     Phys. Chem. Chem. Phys., 2023, 25, 17860-17868. DOI: 10.1039/D3CP02178E
   
   for DIPRO refer to:
   * J. Kohn, N. Gildemeister, S. Grimme, D. Fazzi, A. Hansen,
     J. Chem. Phys., 2023, just accepted.
   
   for PTB refer to:
   * S. Grimme, M. Mueller, A. Hansen, J. Chem. Phys., 2023, 158, 124111.
     DOI: 10.1063/5.0137838
   
   with help from (in alphabetical order)
   P. Atkinson, C. Bannwarth, F. Bohle, G. Brandenburg, E. Caldeweyher
   M. Checinski, S. Dohm, S. Ehlert, S. Ehrlich, I. Gerasimov, C. Hölzer
   A. Katbashev, J. Kohn, J. Koopman, C. Lavigne, S. Lehtola, F. März, M. Müller,
   F. Musil, H. Neugebauer, J. Pisarek, C. Plett, P. Pracht, F. Pultar,
   J. Seibert, P. Shushkov, S. Spicher, M. Stahn, M. Steiner, T. Strunk,
   J. Stückrath, T. Rose, and J. Unsleber
   
 * started run on 2025/04/07 at 03:40:36.763     
   ID    Z sym.   atoms
    1    6 C      1, 3, 5-10
    2    8 O      2, 4, 12, 13
    3    7 N      11
    4    1 H      14-20

           -------------------------------------------------
          |                Calculation Setup                |
           -------------------------------------------------

          program call               : /srv/scratch/z5358697/.xtb/bin/xtb xtb_rrho.coord --gfn2 --ohess vtight --chrg 0 --enso --norestart -I rrho-xcontrol-inp --parallel 1 --alpb water
          hostname                   : k147
          coordinate file            : xtb_rrho.coord
          omp threads                :                     1


           -------------------------------------------------
          |                 G F N 2 - x T B                 |
           -------------------------------------------------

        Reference                      10.1021/acs.jctc.8b01176
      * Hamiltonian:
        H0-scaling (s, p, d)           1.850000    2.230000    2.230000
        zeta-weighting                 0.500000
      * Dispersion:
        s8                             2.700000
        a1                             0.520000
        a2                             5.000000
        s9                             5.000000
      * Repulsion:
        kExp                           1.500000    1.000000
        rExp                           1.000000
      * Coulomb:
        alpha                          2.000000
        third order                    shell-resolved
        anisotropic                    true
        a3                             3.000000
        a5                             4.000000
        cn-shift                       1.200000
        cn-exp                         4.000000
        max-rad                        5.000000

      * Solvation model:               ALPB
        Solvent                        water
        Parameter file                 internal GFN2-xTB/ALPB
        Dielectric constant                8.0200E+01
        Reference state                gsolv [1 M gas/solution]
        Free energy shift                  1.0808E-03 Eh       6.7819E-01 kcal/mol
        Temperature                        2.9815E+02 K
        Density                            1.0000E+00 kg/L
        Solvent mass                       1.8000E+01 g/mol
        Interaction kernel             P16
        Born radius scaling (c1)           1.4744E+00
        Born radii integrator          GBOBC
        Born offset                        0.0000E+00 a0       0.0000E+00 AA
        H-bond correction              true
        Ion screening                  false
        Surface tension                    1.0000E-05 Eh       1.5569E+01 dyn/cm
        Grid points                               974 per atom

          ...................................................
          :                      SETUP                      :
          :.................................................:
          :  # basis functions                  59          :
          :  # atomic orbitals                  59          :
          :  # shells                           33          :
          :  # electrons                        68          :
          :  max. iterations                   250          :
          :  Hamiltonian                  GFN2-xTB          :
          :  restarted?                      false          :
          :  GBSA solvation                   true          :
          :  PC potential                    false          :
          :  electronic temp.          300.0000000     K    :
          :  accuracy                    1.0000000          :
          :  -> integral cutoff          0.2500000E+02      :
          :  -> integral neglect         0.1000000E-07      :
          :  -> SCF convergence          0.1000000E-05 Eh   :
          :  -> wf. convergence          0.1000000E-03 e    :
          :  Broyden damping             0.4000000          :
          :  net charge                          0          :
          :  unpaired electrons                  0          :
          ...................................................

 iter      E             dE          RMSdq      gap      omega  full diag
   1    -40.0957330 -0.400957E+02  0.645E+00    3.30       0.0  T
   2    -40.2265922 -0.130859E+00  0.316E+00    2.82       1.0  T
   3    -40.2293401 -0.274792E-02  0.148E+00    2.61       1.0  T
   4    -40.2299074 -0.567332E-03  0.404E-01    2.50       1.0  T
   5    -40.2313596 -0.145220E-02  0.108E-01    2.53       1.0  T
   6    -40.2314219 -0.622866E-04  0.581E-02    2.54       1.0  T
   7    -40.2314289 -0.698511E-05  0.150E-02    2.55       1.5  T
   8    -40.2314294 -0.519933E-06  0.552E-03    2.55       4.0  T
   9    -40.2314295 -0.551916E-07  0.271E-03    2.55       8.2  T
  10    -40.2314295 -0.522452E-07  0.114E-03    2.55      19.6  T
  11    -40.2314295 -0.374060E-08  0.451E-04    2.55      49.5  T
  12    -40.2314295 -0.495788E-09  0.189E-04    2.55     118.0  T

   *** convergence criteria satisfied after 12 iterations ***

         #    Occupation            Energy/Eh            Energy/eV
      -------------------------------------------------------------
         1        2.0000           -0.7838501             -21.3296
       ...           ...                  ...                  ...
        28        2.0000           -0.4691952             -12.7675
        29        2.0000           -0.4591016             -12.4928
        30        2.0000           -0.4552510             -12.3880
        31        2.0000           -0.4530707             -12.3287
        32        2.0000           -0.4502182             -12.2511
        33        2.0000           -0.4433424             -12.0640
        34        2.0000           -0.4361477             -11.8682 (HOMO)
        35                         -0.3423303              -9.3153 (LUMO)
        36                         -0.2852367              -7.7617
        37                         -0.2616808              -7.1207
        38                         -0.2089973              -5.6871
        39                         -0.1176184              -3.2006
       ...                                ...                  ...
        59                          0.6430743              17.4989
      -------------------------------------------------------------
                  HL-Gap            0.0938173 Eh            2.5529 eV
             Fermi-level           -0.3892390 Eh          -10.5917 eV

 SCC (total)                   0 d,  0 h,  0 min,  0.017 sec
 SCC setup                      ...        0 min,  0.001 sec (  6.103%)
 Dispersion                     ...        0 min,  0.000 sec (  0.779%)
 classical contributions        ...        0 min,  0.000 sec (  0.119%)
 integral evaluation            ...        0 min,  0.002 sec ( 11.946%)
 iterations                     ...        0 min,  0.008 sec ( 48.861%)
 molecular gradient             ...        0 min,  0.005 sec ( 31.203%)
 printout                       ...        0 min,  0.000 sec (  0.879%)

         :::::::::::::::::::::::::::::::::::::::::::::::::::::
         ::                     SUMMARY                     ::
         :::::::::::::::::::::::::::::::::::::::::::::::::::::
         :: total energy             -39.801022592641 Eh    ::
         :: total w/o Gsasa/hb       -39.802369353286 Eh    ::
         :: gradient norm              0.041751496584 Eh/a0 ::
         :: HOMO-LUMO gap              2.552899935566 eV    ::
         ::.................................................::
         :: SCC energy               -40.231495706259 Eh    ::
         :: -> isotropic ES            0.113021947912 Eh    ::
         :: -> anisotropic ES          0.001893732840 Eh    ::
         :: -> anisotropic XC          0.007046631472 Eh    ::
         :: -> dispersion             -0.017028240472 Eh    ::
         :: -> Gsolv                  -0.016935620226 Eh    ::
         ::    -> Gelec               -0.018282380871 Eh    ::
         ::    -> Gsasa                0.004527960590 Eh    ::
         ::    -> Ghb                 -0.004261959643 Eh    ::
         ::    -> Gshift               0.001080759698 Eh    ::
         :: repulsion energy           0.430473113619 Eh    ::
         :: add. restraining           0.000000000000 Eh    ::
         :: total charge              -0.000000000000 e     ::
         :::::::::::::::::::::::::::::::::::::::::::::::::::::

      ----------------------------------------------------------- 
     |                   =====================                   |
     |                        A N C O P T                        |
     |                   =====================                   |
     |               Approximate Normal Coordinate               |
     |                Rational Function Optimizer                |
      ----------------------------------------------------------- 
      ----------------------------------------------------------- 
     |                   =====================                   |
     |                        A N C O P T                        |
     |                   =====================                   |
     |               Approximate Normal Coordinate               |
     |                Rational Function Optimizer                |
      ----------------------------------------------------------- 

          ...................................................
          :                      SETUP                      :
          :.................................................:
          :   optimization level         verytight          :
          :   max. optcycles                   400          :
          :   ANC micro-cycles                  20          :
          :   degrees of freedom                54          :
          :.................................................:
          :   RF solver                   davidson          :
          :   write xtbopt.log                true          :
          :   linear?                        false          :
          :   energy convergence         0.1000000E-06 Eh   :
          :   grad. convergence          0.2000000E-03 Eh/α :
          :   maxmium RF displ.          1.0000000          :
          :   Hlow (freq-cutoff)         0.1000000E-01      :
          :   Hmax (freq-cutoff)         5.0000000          :
          :   S6 in model hess.         20.0000000          :
          ...................................................

generating ANC from exact Hessian ...
Using Lindh-Hessian (1995)
 Shifting diagonal of input Hessian by   8.995181419338558E-003
 Lowest  eigenvalues of input Hessian
    0.000000    0.000000    0.000000    0.000000    0.000000    0.000000
    0.010000    0.012768    0.013146    0.014133    0.020773    0.023029
    0.025554    0.028446    0.029338    0.031195    0.033606    0.046221
 Highest eigenvalues
    1.872829    1.928698    1.975762    2.100696    2.331144    2.506798
 

........................................................................
.............................. CYCLE    1 ..............................
........................................................................

 iter      E             dE          RMSdq      gap      omega  full diag
   1    -40.2314295 -0.402314E+02  0.908E-05    2.55       0.0  T
   2    -40.2314295 -0.115108E-10  0.586E-05    2.55     381.3  T
   3    -40.2314295 -0.142109E-11  0.312E-05    2.55     716.0  T
     SCC iter.                  ...        0 min,  0.002 sec
     gradient                   ...        0 min,  0.005 sec
 * total energy  :   -39.8010226 Eh     change       -0.2847074E-09 Eh
   gradient norm :     0.0417518 Eh/α   predicted     0.0000000E+00 (-100.00%)
   displ. norm   :     0.0977285 α      lambda       -0.2388483E-02
   maximum displ.:     0.0505043 α      in ANC's #10, #18, #30, ...

........................................................................
.............................. CYCLE    2 ..............................
........................................................................

 iter      E             dE          RMSdq      gap      omega  full diag
   1    -40.2460077 -0.402460E+02  0.124E-01    2.62       0.0  T
   2    -40.2460738 -0.660089E-04  0.669E-02    2.61       1.0  T
   3    -40.2460758 -0.205075E-05  0.356E-02    2.61       1.0  T
   4    -40.2460757  0.147677E-06  0.122E-02    2.61       1.8  T
   5    -40.2460773 -0.162324E-05  0.349E-03    2.61       6.4  T
   6    -40.2460773 -0.430122E-07  0.201E-03    2.61      11.1  T
   7    -40.2460773 -0.767634E-08  0.388E-04    2.61      57.6  T
   8    -40.2460773 -0.860204E-09  0.221E-04    2.61     101.2  T
     SCC iter.                  ...        0 min,  0.004 sec
     gradient                   ...        0 min,  0.006 sec
 * total energy  :   -39.8026339 Eh     change       -0.1611331E-02 Eh
   gradient norm :     0.0186358 Eh/α   predicted    -0.1205651E-02 ( -25.18%)
   displ. norm   :     0.0693968 α      lambda       -0.5994306E-03
   maximum displ.:     0.0342749 α      in ANC's #10, #3, #12, ...

........................................................................
.............................. CYCLE    3 ..............................
........................................................................

 iter      E             dE          RMSdq      gap      omega  full diag
   1    -40.2517611 -0.402518E+02  0.788E-02    2.63       0.0  T
   2    -40.2517860 -0.248870E-04  0.417E-02    2.62       1.0  T
   3    -40.2517865 -0.577214E-06  0.228E-02    2.62       1.0  T
   4    -40.2517866 -0.342330E-07  0.885E-03    2.62       2.5  T
   5    -40.2517874 -0.822480E-06  0.173E-03    2.62      12.9  T
   6    -40.2517874 -0.108330E-07  0.103E-03    2.62      21.8  T
   7    -40.2517874 -0.177978E-08  0.233E-04    2.62      96.0  T
   8    -40.2517874 -0.491148E-09  0.113E-04    2.62     198.6  T
     SCC iter.                  ...        0 min,  0.004 sec
     gradient                   ...        0 min,  0.005 sec
 * total energy  :   -39.8029579 Eh     change       -0.3239435E-03 Eh
   gradient norm :     0.0080367 Eh/α   predicted    -0.3012006E-03 (  -7.02%)
   displ. norm   :     0.0272216 α      lambda       -0.6475030E-04
   maximum displ.:     0.0195249 α      in ANC's #3, #13, #16, ...

........................................................................
.............................. CYCLE    4 ..............................
........................................................................

 iter      E             dE          RMSdq      gap      omega  full diag
   1    -40.2511810 -0.402512E+02  0.238E-02    2.60       0.0  T
   2    -40.2511822 -0.117094E-05  0.132E-02    2.60       1.7  T
   3    -40.2511821  0.624899E-07  0.607E-03    2.61       3.7  T
   4    -40.2511823 -0.146988E-06  0.189E-03    2.61      11.8  T
   5    -40.2511823 -0.324308E-07  0.451E-04    2.61      49.6  T
   6    -40.2511823 -0.169919E-09  0.260E-04    2.61      86.1  T
     SCC iter.                  ...        0 min,  0.003 sec
     gradient                   ...        0 min,  0.005 sec
 * total energy  :   -39.8029842 Eh     change       -0.2630446E-04 Eh
   gradient norm :     0.0045097 Eh/α   predicted    -0.3240057E-04 (  23.18%)
   displ. norm   :     0.0277345 α      lambda       -0.4997822E-04
   maximum displ.:     0.0227773 α      in ANC's #3, #13, #16, ...

........................................................................
.............................. CYCLE    5 ..............................
........................................................................

 iter      E             dE          RMSdq      gap      omega  full diag
   1    -40.2499700 -0.402500E+02  0.213E-02    2.59       0.0  T
   2    -40.2499711 -0.105666E-05  0.120E-02    2.59       1.9  T
   3    -40.2499710  0.370137E-07  0.543E-03    2.59       4.1  T
   4    -40.2499711 -0.114709E-06  0.181E-03    2.59      12.4  T
   5    -40.2499712 -0.273068E-07  0.503E-04    2.59      44.5  T
   6    -40.2499712 -0.122192E-09  0.255E-04    2.59      87.7  T
     SCC iter.                  ...        0 min,  0.003 sec
     gradient                   ...        0 min,  0.005 sec
 * total energy  :   -39.8030037 Eh     change       -0.1950011E-04 Eh
   gradient norm :     0.0018143 Eh/α   predicted    -0.2501569E-04 (  28.28%)
   displ. norm   :     0.0095699 α      lambda       -0.5355876E-05
   maximum displ.:     0.0050947 α      in ANC's #10, #3, #12, ...

........................................................................
.............................. CYCLE    6 ..............................
........................................................................

 iter      E             dE          RMSdq      gap      omega  full diag
   1    -40.2499884 -0.402500E+02  0.960E-03    2.59       0.0  T
   2    -40.2499888 -0.367555E-06  0.511E-03    2.59       4.4  T
   3    -40.2499888 -0.310588E-08  0.270E-03    2.59       8.3  T
   4    -40.2499888 -0.503359E-08  0.107E-03    2.59      20.9  T
   5    -40.2499888 -0.117350E-07  0.139E-04    2.59     160.8  T
   6    -40.2499888 -0.103242E-09  0.876E-05    2.59     255.1  T
     SCC iter.                  ...        0 min,  0.003 sec
     gradient                   ...        0 min,  0.005 sec
 * total energy  :   -39.8030070 Eh     change       -0.3349899E-05 Eh
   gradient norm :     0.0005530 Eh/α   predicted    -0.2694699E-05 ( -19.56%)
   displ. norm   :     0.0113235 α      lambda       -0.8301909E-06
   maximum displ.:     0.0110449 α      in ANC's #3, #9, #12, ...

........................................................................
.............................. CYCLE    7 ..............................
........................................................................

 iter      E             dE          RMSdq      gap      omega  full diag
   1    -40.2500331 -0.402500E+02  0.429E-03    2.59       0.0  T
   2    -40.2500331 -0.119652E-07  0.248E-03    2.59       9.0  T
   3    -40.2500331  0.372842E-08  0.855E-04    2.59      26.2  T
   4    -40.2500331 -0.547456E-08  0.208E-04    2.59     107.7  T
     SCC iter.                  ...        0 min,  0.002 sec
     gradient                   ...        0 min,  0.005 sec
 * total energy  :   -39.8030080 Eh     change       -0.9693379E-06 Eh
   gradient norm :     0.0001604 Eh/α   predicted    -0.4873964E-06 ( -49.72%)
   displ. norm   :     0.0072731 α      lambda       -0.2011873E-06
   maximum displ.:     0.0070555 α      in ANC's #3, #2, #9, ...

........................................................................
.............................. CYCLE    8 ..............................
........................................................................

 iter      E             dE          RMSdq      gap      omega  full diag
   1    -40.2500642 -0.402501E+02  0.244E-03    2.59       0.0  T
   2    -40.2500642 -0.117019E-08  0.145E-03    2.59      15.4  T
   3    -40.2500642  0.262567E-09  0.221E-04    2.59     101.0  T
   4    -40.2500642 -0.462236E-09  0.777E-05    2.59     287.7  T
     SCC iter.                  ...        0 min,  0.002 sec
     gradient                   ...        0 min,  0.005 sec
 * total energy  :   -39.8030082 Eh     change       -0.2484399E-06 Eh
   gradient norm :     0.0001298 Eh/α   predicted    -0.1221079E-06 ( -50.85%)
   displ. norm   :     0.0059828 α      lambda        0.9468049E-07
   maximum displ.:     0.0057932 α      in ANC's #3, #2, #9, ...

........................................................................
.............................. CYCLE    9 ..............................
........................................................................

 iter      E             dE          RMSdq      gap      omega  full diag
   1    -40.2500902 -0.402501E+02  0.205E-03    2.59       0.0  T
   2    -40.2500902 -0.939487E-09  0.121E-03    2.59      18.4  T
   3    -40.2500902  0.230543E-09  0.200E-04    2.59     111.9  T
   4    -40.2500902 -0.372545E-09  0.688E-05    2.59     324.8  T
     SCC iter.                  ...        0 min,  0.002 sec
     gradient                   ...        0 min,  0.005 sec
 * total energy  :   -39.8030082 Eh     change        0.1129181E-07 Eh
   gradient norm :     0.0002799 Eh/α   predicted     0.4349157E-07 ( 285.16%)
   displ. norm   :     0.0016124 α      lambda       -0.1507979E-06
   maximum displ.:     0.0007704 α      in ANC's #3, #8, #31, ...

........................................................................
.............................. CYCLE   10 ..............................
........................................................................

 iter      E             dE          RMSdq      gap      omega  full diag
   1    -40.2500899 -0.402501E+02  0.150E-03    2.59       0.0  T
   2    -40.2500899 -0.548219E-09  0.895E-04    2.59      25.0  T
   3    -40.2500899  0.113538E-09  0.137E-04    2.59     162.8  T
     SCC iter.                  ...        0 min,  0.002 sec
     gradient                   ...        0 min,  0.005 sec
 * total energy  :   -39.8030083 Eh     change       -0.1039797E-06 Eh
   gradient norm :     0.0001401 Eh/α   predicted    -0.7697014E-07 ( -25.98%)
   displ. norm   :     0.0010519 α      lambda       -0.3260493E-07
   maximum displ.:     0.0005973 α      in ANC's #2, #3, #4, ...

........................................................................
.............................. CYCLE   11 ..............................
........................................................................

 iter      E             dE          RMSdq      gap      omega  full diag
   1    -40.2500751 -0.402501E+02  0.671E-04    2.59       0.0  T
   2    -40.2500751 -0.514028E-09  0.391E-04    2.59      57.2  T
   3    -40.2500751 -0.828493E-11  0.106E-04    2.59     211.6  T
     SCC iter.                  ...        0 min,  0.002 sec
     gradient                   ...        0 min,  0.005 sec
 * total energy  :   -39.8030084 Eh     change       -0.2738390E-07 Eh
   gradient norm :     0.0000631 Eh/α   predicted    -0.1966785E-07 ( -28.18%)
   displ. norm   :     0.0006676 α      lambda        0.3206324E-09
   maximum displ.:     0.0003873 α      in ANC's #2, #3, #1, ...

   *** GEOMETRY OPTIMIZATION CONVERGED AFTER 11 ITERATIONS ***

------------------------------------------------------------------------
 total energy gain   :        -0.0019858 Eh       -1.2461 kcal/mol
 total RMSD          :         0.0451995 a0        0.0239 Å
 total power (kW/mol):        -0.4739663 (step)  -42.3370 (real)
------------------------------------------------------------------------

 ANCopt (total)                0 d,  0 h,  0 min,  0.123 sec
 optimizer setup                ...        0 min,  0.000 sec (  0.241%)
 model hessian                  ...        0 min,  0.002 sec (  1.431%)
 ANC generation                 ...        0 min,  0.000 sec (  0.289%)
 coordinate transformation      ...        0 min,  0.000 sec (  0.063%)
 single point calculation       ...        0 min,  0.118 sec ( 96.109%)
 optimization log               ...        0 min,  0.001 sec (  0.948%)
 hessian update                 ...        0 min,  0.000 sec (  0.068%)
 rational function              ...        0 min,  0.001 sec (  0.503%)

================
 final structure:
================
$coord
       -8.53838559135033       -1.51291052758127       -0.00429076029731      C
       -5.83823296544706       -1.57909981175215       -0.00495815661103      O
       -4.63946855342056        0.61814861067429        0.00391909259015      C
       -5.71239418462775        2.64754441049098        0.01207084849501      O
       -1.83973393881952        0.33551349087311        0.00225096059637      C
       -0.36948923202998        2.52344041586137        0.00220997065101      C
        2.23196123946602        2.34910063367552        0.00075570626298      C
        3.34707642840790       -0.03487793051229       -0.00043395045740      C
        1.89828637756774       -2.23248915395309       -0.00013131138474      C
       -0.70345538463427       -2.04291680059184        0.00116610484479      C
        6.04477735118391       -0.23116059772402       -0.00175740745188      N
        6.98688968961678       -2.33184623418914       -0.00286096298959      O
        7.28155171416988        1.71086690578967       -0.00216442471990      O
       -9.21951793751020       -0.50555755873832       -1.66820801018870      H
       -9.21927653225291       -0.54925338526828        1.68539231061933      H
       -9.13962383691754       -3.47351417475865       -0.02951312021664      H
       -1.30635805689055        4.33391520446269        0.00315752050722      H
        3.41448788895825        4.00930842488883        0.00042952400144      H
        2.83446809664248       -4.04344148029559       -0.00095633603633      H
       -1.86388979269719       -3.71584513863156        0.00141424925862      H
$end
 
 Bond Distances (Angstroems)
 ---------------------------
C1-O2=1.4293         C1-H14=1.0906        C1-H15=1.0906        C1-H16=1.0853        O2-C1=1.4293         O2-C3=1.3245         
C3-O2=1.3245         C3-O4=1.2148         C3-C5=1.4891         O4-C3=1.2148         C5-C3=1.4891         C5-C6=1.3949         
C5-C10=1.3949        C6-C5=1.3949         C6-C7=1.3797         C6-H17=1.0787        C7-C6=1.3797         C7-C8=1.3927         
C7-H18=1.0786        C8-C7=1.3927         C8-C9=1.3929         C8-N11=1.4313        C9-C8=1.3929         C9-C10=1.3804        
C9-H19=1.0788        C10-C5=1.3949        C10-C9=1.3804        C10-H20=1.0774       N11-C8=1.4313        N11-O12=1.2183       
N11-O13=1.2184       O12-N11=1.2183       O13-N11=1.2184       H14-C1=1.0906        H15-C1=1.0906        H16-C1=1.0853        
H17-C6=1.0787        H18-C7=1.0786        H19-C9=1.0788        H20-C10=1.0774       
 C  H  Rav=1.0829 sigma=0.0054  Rmin=1.0774  Rmax=1.0906     7
 C  C  Rav=1.4035 sigma=0.0355  Rmin=1.3797  Rmax=1.4891     7
 N  C  Rav=1.4313 sigma=0.0000  Rmin=1.4313  Rmax=1.4313     1
 O  C  Rav=1.3229 sigma=0.0876  Rmin=1.2148  Rmax=1.4293     3
 O  N  Rav=1.2183 sigma=0.0000  Rmin=1.2183  Rmax=1.2184     2
 
 selected bond angles (degree)
 --------------------
H14-C1-O2=110.01               H15-C1-O2=110.00               H15-C1-H14=108.92              H16-C1-O2=105.64               
H16-C1-H14=111.13              H16-C1-H15=111.11              C3-O2-C1=117.21                O4-C3-O2=123.52                
C5-C3-O2=112.85                C5-C3-O4=123.63                C6-C5-C3=118.14                C10-C5-C3=121.30               
C10-C5-C6=120.56               C7-C6-C5=120.07                H17-C6-C5=118.74               H17-C6-C7=121.19               
C8-C7-C6=118.90                H18-C7-C6=121.63               H18-C7-C8=119.47               C9-C8-C7=121.54                
N11-C8-C7=119.23               N11-C8-C9=119.23               C10-C9-C8=119.23               H19-C9-C8=119.27               
H19-C9-C10=121.50              C9-C10-C5=119.70               H20-C10-C5=119.72              H20-C10-C9=120.58              
 
 selected dihedral angles (degree)
 ---------------------------------
C3-O2-C1-H14= 59.48           C3-O2-C1-H15=299.50           C3-O2-C1-H16=179.50           O4-C3-O2-C1=  0.00            
C5-C3-O2-C1=180.00            C6-C5-C3-O2=179.78            C6-C5-C3-O4=359.80            C10-C5-C3-O2=359.77           
C10-C5-C3-O4=179.79           C7-C6-C5-C3=180.00            C7-C6-C5-C10=  0.00           H17-C6-C5-C3=  0.00           
H17-C6-C5-C10=180.00          C8-C7-C6-C5=  0.00            C8-C7-C6-H17=180.00           H18-C7-C6-C5=179.99           
H18-C7-C6-H17=  0.00          C9-C8-C7-C6=  0.00            C9-C8-C7-H18=180.00           N11-C8-C7-C6=180.00           
N11-C8-C7-H18=  0.00          C10-C9-C8-C7=  0.00           C10-C9-C8-N11=180.00          H19-C9-C8-C7=180.00           
H19-C9-C8-N11=  0.00          C9-C10-C5-C3=180.01           C9-C10-C5-C6=  0.00           H20-C10-C5-C3=  0.00          
H20-C10-C5-C6=179.99          C5-C10-C9-C8=  0.00           C5-C10-C9-H19=180.00          H20-C10-C9-C8=180.00          
H20-C10-C9-H19=  0.00         
           -------------------------------------------------
          |                Final Singlepoint                |
           -------------------------------------------------

          ...................................................
          :                      SETUP                      :
          :.................................................:
          :  # basis functions                  59          :
          :  # atomic orbitals                  59          :
          :  # shells                           33          :
          :  # electrons                        68          :
          :  max. iterations                   250          :
          :  Hamiltonian                  GFN2-xTB          :
          :  restarted?                      false          :
          :  GBSA solvation                   true          :
          :  PC potential                    false          :
          :  electronic temp.          300.0000000     K    :
          :  accuracy                    1.0000000          :
          :  -> integral cutoff          0.2500000E+02      :
          :  -> integral neglect         0.1000000E-07      :
          :  -> SCF convergence          0.1000000E-05 Eh   :
          :  -> wf. convergence          0.1000000E-03 e    :
          :  Broyden damping             0.4000000          :
          :  net charge                          0          :
          :  unpaired electrons                  0          :
          ...................................................

 iter      E             dE          RMSdq      gap      omega  full diag
   1    -40.2500751 -0.402501E+02  0.341E-05    2.59       0.0  T
   2    -40.2500751 -0.125979E-10  0.203E-05    2.59    1099.9  T
   3    -40.2500751 -0.585487E-11  0.978E-06    2.59    2285.9  T

   *** convergence criteria satisfied after 3 iterations ***

         #    Occupation            Energy/Eh            Energy/eV
      -------------------------------------------------------------
         1        2.0000           -0.7867592             -21.4088
       ...           ...                  ...                  ...
        28        2.0000           -0.4672135             -12.7135
        29        2.0000           -0.4582719             -12.4702
        30        2.0000           -0.4553686             -12.3912
        31        2.0000           -0.4520109             -12.2998
        32        2.0000           -0.4506021             -12.2615
        33        2.0000           -0.4442969             -12.0899
        34        2.0000           -0.4356460             -11.8545 (HOMO)
        35                         -0.3403778              -9.2622 (LUMO)
        36                         -0.2805399              -7.6339
        37                         -0.2606183              -7.0918
        38                         -0.2054481              -5.5905
        39                         -0.1150198              -3.1298
       ...                                ...                  ...
        59                          0.6600170              17.9600
      -------------------------------------------------------------
                  HL-Gap            0.0952682 Eh            2.5924 eV
             Fermi-level           -0.3880119 Eh          -10.5583 eV

 SCC (total)                   0 d,  0 h,  0 min,  0.010 sec
 SCC setup                      ...        0 min,  0.001 sec (  9.562%)
 Dispersion                     ...        0 min,  0.000 sec (  0.778%)
 classical contributions        ...        0 min,  0.000 sec (  0.194%)
 integral evaluation            ...        0 min,  0.002 sec ( 18.397%)
 iterations                     ...        0 min,  0.002 sec ( 18.157%)
 molecular gradient             ...        0 min,  0.005 sec ( 51.671%)
 printout                       ...        0 min,  0.000 sec (  1.067%)

         :::::::::::::::::::::::::::::::::::::::::::::::::::::
         ::                     SUMMARY                     ::
         :::::::::::::::::::::::::::::::::::::::::::::::::::::
         :: total energy             -39.803008359340 Eh    ::
         :: total w/o Gsasa/hb       -39.804307660420 Eh    ::
         :: gradient norm              0.000063171183 Eh/a0 ::
         :: HOMO-LUMO gap              2.592379550369 eV    ::
         ::.................................................::
         :: SCC energy               -40.250141555316 Eh    ::
         :: -> isotropic ES            0.114052119518 Eh    ::
         :: -> anisotropic ES          0.002751143098 Eh    ::
         :: -> anisotropic XC          0.005119867947 Eh    ::
         :: -> dispersion             -0.017125287673 Eh    ::
         :: -> Gsolv                  -0.017006367439 Eh    ::
         ::    -> Gelec               -0.018305668519 Eh    ::
         ::    -> Gsasa                0.004470095627 Eh    ::
         ::    -> Ghb                 -0.004251554245 Eh    ::
         ::    -> Gshift               0.001080759698 Eh    ::
         :: repulsion energy           0.447133195977 Eh    ::
         :: add. restraining           0.000000000000 Eh    ::
         :: total charge              -0.000000000000 e     ::
         :::::::::::::::::::::::::::::::::::::::::::::::::::::

           ------------------------------------------------- 
          |                Numerical Hessian                |
           ------------------------------------------------- 
step length          :   0.00500
SCC accuracy         :   0.30000
Hessian scale factor :   1.00000
frozen atoms in %    :   0.00000    0
RMS gradient         :   0.00006
estimated CPU  time      0.02 min
estimated wall time      0.02 min

writing file <hessian>.

 projected vibrational frequencies (cm⁻¹)
eigval :       -0.00    -0.00     0.00     0.00     0.00     0.00
eigval :       29.60    38.53    50.17    64.37   114.50   152.53
eigval :      223.19   260.90   271.30   291.76   358.98   429.91
eigval :      450.37   511.54   543.97   598.06   629.29   686.84
eigval :      690.15   755.06   794.65   848.41   861.01   868.38
eigval :      923.77   929.87   976.72  1009.89  1109.89  1110.51
eigval :     1118.15  1130.87  1157.05  1175.53  1234.02  1240.69
eigval :     1316.37  1340.07  1375.04  1406.62  1420.29  1433.90
eigval :     1443.95  1565.55  1574.82  1581.15  1678.46  2990.49
eigval :     2999.86  3060.35  3106.12  3108.26  3114.36  3125.13
           -------------------------------------------------
          |                Property Printout                |
           -------------------------------------------------

    * Orbital Energies and Occupations

         #    Occupation            Energy/Eh            Energy/eV
      -------------------------------------------------------------
         1        2.0000           -0.7867592             -21.4088
       ...           ...                  ...                  ...
        22        2.0000           -0.5164001             -14.0520
        23        2.0000           -0.5134661             -13.9721
        24        2.0000           -0.5087539             -13.8439
        25        2.0000           -0.4928185             -13.4103
        26        2.0000           -0.4885946             -13.2953
        27        2.0000           -0.4786412             -13.0245
        28        2.0000           -0.4672135             -12.7135
        29        2.0000           -0.4582720             -12.4702
        30        2.0000           -0.4553686             -12.3912
        31        2.0000           -0.4520109             -12.2998
        32        2.0000           -0.4506021             -12.2615
        33        2.0000           -0.4442968             -12.0899
        34        2.0000           -0.4356460             -11.8545 (HOMO)
        35                         -0.3403777              -9.2621 (LUMO)
        36                         -0.2805399              -7.6339
        37                         -0.2606182              -7.0918
        38                         -0.2054481              -5.5905
        39                         -0.1150198              -3.1298
        40                         -0.0135282              -0.3681
        41                         -0.0041389              -0.1126
        42                          0.0971368               2.6432
        43                          0.1324261               3.6035
        44                          0.1382605               3.7623
        45                          0.1440164               3.9189
       ...                                ...                  ...
        59                          0.6600170              17.9600
      -------------------------------------------------------------
                  HL-Gap            0.0952683 Eh            2.5924 eV
             Fermi-level           -0.3880119 Eh          -10.5583 eV

     #   Z          covCN         q      C6AA      α(0)
     1   6 C        3.653     0.005    20.808     6.551
     2   8 O        1.704    -0.250    18.146     5.751
     3   6 C        2.727     0.361    20.881     7.481
     4   8 O        0.856    -0.469    23.101     6.444
     5   6 C        2.973     0.001    28.005     8.680
     6   6 C        2.924    -0.014    28.364     8.734
     7   6 C        2.917    -0.015    28.392     8.738
     8   6 C        2.917     0.021    27.548     8.607
     9   6 C        2.917    -0.016    28.402     8.739
    10   6 C        2.920    -0.018    28.448     8.747
    11   7 N        2.761     0.577    13.197     5.395
    12   8 O        0.929    -0.430    22.243     6.325
    13   8 O        0.929    -0.431    22.272     6.329
    14   1 H        0.924     0.081     1.965     2.192
    15   1 H        0.924     0.081     1.964     2.192
    16   1 H        0.925     0.108     1.710     2.045
    17   1 H        0.926     0.094     1.841     2.122
    18   1 H        0.926     0.104     1.751     2.070
    19   1 H        0.926     0.106     1.727     2.055
    20   1 H        0.926     0.103     1.760     2.074

 Mol. C6AA /au·bohr⁶  :       5231.756584
 Mol. C8AA /au·bohr⁸  :     124168.770954
 Mol. α(0) /au        :        111.270431


Wiberg/Mayer (AO) data.
largest (>0.10) Wiberg bond orders for each atom

 ---------------------------------------------------------------------------
     #   Z sym  total        # sym  WBO       # sym  WBO       # sym  WBO
 ---------------------------------------------------------------------------
     1   6 C    3.896 --    16 H    0.975    14 H    0.974    15 H    0.974
                             2 O    0.936
     2   8 O    2.334 --     3 C    1.171     1 C    0.936     4 O    0.177
     3   6 C    3.918 --     4 O    1.682     2 O    1.171     5 C    0.993
     4   8 O    1.983 --     3 C    1.682     2 O    0.177
     5   6 C    3.988 --     6 C    1.384    10 C    1.383     3 C    0.993
     6   6 C    3.983 --     7 C    1.462     5 C    1.384    17 H    0.960
                             9 C    0.103
     7   6 C    3.980 --     6 C    1.462     8 C    1.367    18 H    0.956
                            10 C    0.103
     8   6 C    3.955 --     7 C    1.367     9 C    1.366    11 N    0.981
     9   6 C    3.980 --    10 C    1.464     8 C    1.366    19 H    0.956
                             6 C    0.103
    10   6 C    3.982 --     9 C    1.464     5 C    1.383    20 H    0.959
                             7 C    0.103
    11   7 N    3.908 --    13 O    1.439    12 O    1.439     8 C    0.981
    12   8 O    1.903 --    11 N    1.439    13 O    0.338
    13   8 O    1.903 --    11 N    1.439    12 O    0.338
    14   1 H    0.993 --     1 C    0.974
    15   1 H    0.993 --     1 C    0.974
    16   1 H    0.988 --     1 C    0.975
    17   1 H    0.991 --     6 C    0.960
    18   1 H    0.989 --     7 C    0.956
    19   1 H    0.988 --     9 C    0.956
    20   1 H    0.989 --    10 C    0.959
 ---------------------------------------------------------------------------

Topologies differ in total number of bonds
Writing topology from bond orders to xtbtopo.mol

molecular dipole:
                 x           y           z       tot (Debye)
 q only:       -2.358      -0.951      -0.003
   full:       -2.336      -0.937      -0.003       6.399
molecular quadrupole (traceless):
                xx          xy          yy          xz          yz          zz
 q only:      -13.255      13.827       6.505       0.062      -0.017       6.750
  q+dip:      -14.225      13.729       6.664       0.058      -0.027       7.561
   full:      -15.481      13.881       4.485       0.062      -0.031      10.996

           -------------------------------------------------
          |                Geometry Summary                 |
           -------------------------------------------------

      molecular mass/u    :      181.1457953
   center of mass at/Å    :        0.0000163      -0.0000531       0.0001923
  moments of inertia/u·Å² :        0.1839063E+03   0.1376314E+04   0.1557044E+04
rotational constants/cm⁻¹ :        0.9166425E-01   0.1224839E-01   0.1082669E-01

 * 18 selected distances

     #   Z          #   Z                                           value/Å
     1   6 C        2   8 O                                       1.4292886 (max)
     2   8 O        3   6 C                                       1.3245314
     3   6 C        4   8 O                                       1.2147682
     5   6 C        6   6 C                                       1.3949261
     6   6 C        7   6 C                                       1.3797165
     7   6 C        8   6 C                                       1.3927355
     8   6 C        9   6 C                                       1.3929015
     5   6 C       10   6 C                                       1.3948676
     9   6 C       10   6 C                                       1.3804327
    11   7 N       12   8 O                                       1.2183101
    11   7 N       13   8 O                                       1.2183819
     1   6 C       14   1 H                                       1.0905831
     1   6 C       15   1 H                                       1.0905773
     1   6 C       16   1 H                                       1.0852767
     6   6 C       17   1 H                                       1.0787357
     7   6 C       18   1 H                                       1.0786210
     9   6 C       19   1 H                                       1.0787931
    10   6 C       20   1 H                                       1.0774051 (min)

 * 4 distinct bonds (by element types)

   Z      Z             #   av. dist./Å        max./Å        min./Å
   1 H    6 C           7     1.0828560     1.0905831     1.0774051
   6 C    6 C           6     1.3892633     1.3949261     1.3797165
   6 C    8 O           3     1.3228628     1.4292886     1.2147682
   7 N    8 O           2     1.2183460     1.2183819     1.2183101

           -------------------------------------------------
          |               Frequency Printout                |
           -------------------------------------------------
 projected vibrational frequencies (cm⁻¹)
eigval :       -0.00    -0.00     0.00     0.00     0.00     0.00
eigval :       29.60    38.53    50.17    64.37   114.50   152.53
eigval :      223.19   260.90   271.30   291.76   358.98   429.91
eigval :      450.37   511.54   543.97   598.06   629.29   686.84
eigval :      690.15   755.06   794.65   848.41   861.01   868.38
eigval :      923.77   929.87   976.72  1009.89  1109.89  1110.51
eigval :     1118.15  1130.87  1157.05  1175.53  1234.02  1240.69
eigval :     1316.37  1340.07  1375.04  1406.62  1420.29  1433.90
eigval :     1443.95  1565.55  1574.82  1581.15  1678.46  2990.49
eigval :     2999.86  3060.35  3106.12  3108.26  3114.36  3125.13
 reduced masses (amu)
   1: 12.36   2: 13.18   3: 13.42   4: 13.44   5: 13.14   6: 13.64   7: 10.08   8:  5.96
   9: 12.51  10: 12.96  11: 11.99  12: 11.58  13: 13.05  14: 11.96  15: 14.12  16: 12.18
  17:  8.75  18: 10.48  19: 12.66  20: 13.35  21: 13.18  22: 11.47  23: 11.38  24: 12.84
  25: 10.39  26: 12.58  27: 13.40  28:  6.37  29: 12.80  30:  3.37  31:  3.34  32:  3.90
  33: 11.64  34:  9.65  35:  3.98  36:  7.31  37:  3.30  38:  7.76  39:  7.09  40:  6.38
  41: 10.48  42:  3.98  43: 14.66  44: 12.00  45:  2.61  46: 10.48  47:  1.51  48:  9.23
  49:  1.61  50: 13.61  51: 11.59  52: 12.83  53: 13.38  54:  1.96  55:  1.38  56:  1.81
  57:  1.80  58:  1.83  59:  1.89  60:  1.87
 IR intensities (km·mol⁻¹)
   1:  0.97   2:  0.50   3:  0.98   4:  0.19   5:  0.00   6:  0.81   7:  1.14   8:  0.49
   9:  0.00  10:  7.99  11:  1.68  12: 10.97  13: 16.55  14:  0.04  15:  0.10  16: 23.29
  17:  0.00  18:  3.15  19:  1.61  20: 13.00  21:  1.26  22:  0.06  23:  1.75  24:  6.75
  25:134.82  26:  0.13  27:132.23  28:  6.15  29: 21.70  30:  0.03  31:  0.02  32:  0.00
  33: 17.98  34:  3.86  35:  3.63  36: 38.85  37:  8.28  38:234.81  39: 64.29  40:263.21
  41:463.07  42: 66.02  43:******  44: 21.21  45: 16.80  46:  2.69  47: 15.86  48: 28.70
  49:  1.79  50:424.41  51:  6.93  52:280.99  53:655.58  54: 11.21  55: 17.06  56:  1.10
  57:  1.52  58:  1.71  59:  0.31  60:  0.05
 Raman intensities (Ä⁴*amu⁻¹)
   1:  0.00   2:  0.00   3:  0.00   4:  0.00   5:  0.00   6:  0.00   7:  0.00   8:  0.00
   9:  0.00  10:  0.00  11:  0.00  12:  0.00  13:  0.00  14:  0.00  15:  0.00  16:  0.00
  17:  0.00  18:  0.00  19:  0.00  20:  0.00  21:  0.00  22:  0.00  23:  0.00  24:  0.00
  25:  0.00  26:  0.00  27:  0.00  28:  0.00  29:  0.00  30:  0.00  31:  0.00  32:  0.00
  33:  0.00  34:  0.00  35:  0.00  36:  0.00  37:  0.00  38:  0.00  39:  0.00  40:  0.00
  41:  0.00  42:  0.00  43:  0.00  44:  0.00  45:  0.00  46:  0.00  47:  0.00  48:  0.00
  49:  0.00  50:  0.00  51:  0.00  52:  0.00  53:  0.00  54:  0.00  55:  0.00  56:  0.00
  57:  0.00  58:  0.00  59:  0.00  60:  0.00
 output can be read by thermo (or use thermo option).
 writing <g98.out> molden fake output.
 recommended (thermochemical) frequency scaling factor: 1.0
           -------------------------------------------------
          |             Thermodynamic Functions             |
           -------------------------------------------------

Molecule has the following symmetry elements: (sigma) 
It seems to be the Cs point group
cs  symmetry found (for desy threshold:  0.10E+00) used in thermo

          ...................................................
          :                      SETUP                      :
          :.................................................:
          :  # frequencies                          54      :
          :  # imaginary freq.                       0      :
          :  linear?                             false      :
          :  only rotor calc.                    false      :
          :  symmetry                               cs      :
          :  rotational number                       1      :
          :  scaling factor                  1.0000000      :
          :  rotor cutoff                    0.0000000 cm⁻¹ :
          :  imag. cutoff                 -100.0000000 cm⁻¹ :
          :.................................................:

    mode    ω/cm⁻¹     T·S(HO)/kcal·mol⁻¹    T·S(FR)/kcal·mol⁻¹   T·S(vib)
   ------------------------------------------------------------------------
       1     29.60    -1.74598 (100.00%)    -1.21169 (  0.00%)    -1.74598
       2     38.53    -1.59014 (100.00%)    -1.13364 (  0.00%)    -1.59014
       3     50.17    -1.43435 (100.00%)    -1.05547 (  0.00%)    -1.43435
       4     64.37    -1.28758 (100.00%)    -0.98164 (  0.00%)    -1.28758
       5    114.50    -0.95142 (100.00%)    -0.81104 (  0.00%)    -0.95142
       6    152.53    -0.78723 (100.00%)    -0.72610 (  0.00%)    -0.78723
       7    223.19    -0.57635 (100.00%)    -0.61335 (  0.00%)    -0.57635
       8    260.90    -0.49365 (100.00%)    -0.56710 (  0.00%)    -0.49365
       9    271.30    -0.47343 (100.00%)    -0.55553 (  0.00%)    -0.47343
      10    291.76    -0.43642 (100.00%)    -0.53399 (  0.00%)    -0.43642
   ------------------------------------------------------------------------

   temp. (K)  partition function   enthalpy   heat capacity  entropy
                                   cal/mol     cal/K/mol   cal/K/mol   J/K/mol
 298.15  VIB  0.353E+05             5783.757     36.754     40.211
         ROT  0.152E+07              888.752      2.981     31.263
         INT  0.536E+11             6672.509     39.735     71.475
         TR   0.236E+28             1481.254      4.968     41.470
         TOT                        8153.7632    44.7034   112.9451   472.5621

       T/K    H(0)-H(T)+PV         H(T)/Eh          T*S/Eh         G(T)/Eh
   ------------------------------------------------------------------------
    298.15    0.129938E-01    0.152603E+00    0.536638E-01    0.989389E-01
   ------------------------------------------------------------------------

         :::::::::::::::::::::::::::::::::::::::::::::::::::::
         ::                  THERMODYNAMIC                  ::
         :::::::::::::::::::::::::::::::::::::::::::::::::::::
         :: total free energy         -39.704069426282 Eh   ::
         ::.................................................::
         :: total energy              -39.803008359403 Eh   ::
         :: zero point energy           0.139608928641 Eh   ::
         :: G(RRHO) w/o ZPVE           -0.040669995519 Eh   ::
         :: G(RRHO) contrib.            0.098938933122 Eh   ::
         :::::::::::::::::::::::::::::::::::::::::::::::::::::

optimized geometry written to: xtbopt.coord


           -------------------------------------------------
          | TOTAL ENERGY              -39.803008359403 Eh   |
          | TOTAL ENTHALPY            -39.650405582070 Eh   |
          | TOTAL FREE ENERGY         -39.704069426282 Eh   |
          | GRADIENT NORM               0.000063189390 Eh/α |
          | HOMO-LUMO GAP               2.592381607075 eV   |
           -------------------------------------------------

------------------------------------------------------------------------
 * finished run on 2025/04/07 at 03:40:38.282     
------------------------------------------------------------------------
 total:
 * wall-time:     0 d,  0 h,  0 min,  1.519 sec
 *  cpu-time:     0 d,  0 h,  0 min,  1.462 sec
 * ratio c/w:     0.962 speedup
 SCF:
 * wall-time:     0 d,  0 h,  0 min,  0.017 sec
 *  cpu-time:     0 d,  0 h,  0 min,  0.017 sec
 * ratio c/w:     0.992 speedup
 ANC optimizer:
 * wall-time:     0 d,  0 h,  0 min,  0.147 sec
 *  cpu-time:     0 d,  0 h,  0 min,  0.134 sec
 * ratio c/w:     0.912 speedup
 analytical hessian:
 * wall-time:     0 d,  0 h,  0 min,  1.306 sec
 *  cpu-time:     0 d,  0 h,  0 min,  1.297 sec
 * ratio c/w:     0.993 speedup

