! wb97x-v def2-tzvp def2/J RIJCOSX DEFGRID2 scfconv7 GCP(DFT/TZ) printgap
%output
    printlevel normal
end
* xyz 0 1
C 2.4919019215770044 3.750799491266375e-06 -0.08565695828680668
C 1.024111135212005 4.157457000863868e-06 0.3301890890207755
C 0.3027400112531423 1.2557828752677942 -0.1729319636869903
C -1.177263644984675 1.2598244676529764 0.21555939224622342
C -1.884094276728861 4.093446227360542e-05 -0.2880065168120658
C -1.1772740736394334 -1.2597480993846457 0.21555819805902898
C 0.3027075394051675 -1.2557223336172563 -0.17300842024569665
H 3.013505348641567 -0.8860677804183361 0.2933135724844481
H 2.5825404373837877 0.00014298924213927323 -1.1788565585409294
H 3.013576094180912 0.8859318790905828 0.2935502705129318
H 0.9712842293181604 -3.502619132386923e-05 1.4300191770447883
H 0.8014874179699539 2.152320611616796 0.2168500023160287
H 0.39040103903887313 1.2933030459559476 -1.2692986274873135
H -1.2625871275411837 1.3066347212534175 1.3104289731836873
H -1.6693276956043537 2.156388834820048 -0.1801468994105131
H -2.9342222019195034 4.8723211342433626e-05 0.027587378410932284
H -1.8796933416223387 3.501405228441216e-05 -1.3872269158992436
H -1.262532053831455 -1.3065196537099304 1.3104374068588776
H -1.669379639801435 -2.1563162434257968 -0.1800911786067514
H 0.8014600231021778 -2.1523021065869137 0.21667273681810434
H 0.3903085894255739 -1.2931504853177385 -1.2693852954111167
*
