! wb97x-v def2-tzvp def2/J RIJCOSX DEFGRID2 scfconv7 GCP(DFT/TZ) printgap
%output
    printlevel normal
end
* xyz 0 1
C -0.0003295702623040751 0.0006817811581494971 0.5405921840609372
Br 0.3858161829485225 -1.818655764392429 -0.043315706658587284
Br 1.3855291016166724 1.2413901658486342 -0.04332807568765722
Br -1.7693218870255203 0.5764891476619382 -0.04173666102345481
H -0.0014839672224463733 0.00030924364413833757 1.6274224862443176
*
