20
 xtb: 6.7.1 (edcfbbe)
C           -4.54639037425518       -0.78711856991676       -0.00246917524258
O           -3.09675383273576       -0.85699643887611       -0.00432019304375
C           -2.45921679984081        0.32039995745270        0.00230606098514
O           -3.02850496899958        1.39940514802412        0.00860316301400
C           -0.97820965432115        0.16741859225165        0.00093333166184
C           -0.20095616293055        1.32983094861294        0.00065426057789
C            1.18141183123395        1.24595382756676       -0.00024761829072
C            1.76446666025626       -0.01656061587585       -0.00056702196247
C            1.01709367489568       -1.18898952696665       -0.00000698438948
C           -0.36551726141247       -1.09040466249737        0.00071062411145
N            3.23091175782001       -0.11528790410670       -0.00117193404470
O            3.73695400385726       -1.23501445384883       -0.00098070612329
O            3.88147507677402        0.92694321976199       -0.00027402341142
H           -4.89612188926741       -0.25637398204698       -0.89094064793380
H           -4.89437922658018       -0.28171931870310        0.90136401804875
H           -4.88277904515104       -1.82267403827403       -0.01676072310421
H           -0.68402984392501        2.29964887475354        0.00093600654535
H            1.79350552578616        2.13844393579874       -0.00037083474947
H            1.50474048073986       -2.15522226114031        0.00019016720014
H           -0.96333819514493       -1.99290737068712        0.00108497299279
