! pbe def2-sv(p) def2/J RI DEFGRID1 loosescf d4 GCP(DFT/SV(P)) printgap
%output
    printlevel normal
end
* xyz 0 1
C -2.1419562068 -0.9292906898 -0.2861503962
C -1.1738110402 -0.3639999417 0.7672171302
H -1.7257768616 -0.414302633 1.7151600795
C -0.7659453759 1.1092733033 0.5529723378
H -1.6236287666 1.6583247679 0.138017678
C 0.423688614 1.2954141259 -0.4108548574
H 0.8332273435 2.2960704432 -0.2167035308
C 1.5500586803 0.2952164986 -0.0735662871
H 2.251438949 0.2577816764 -0.9145409936
C 1.0499802429 -1.1495784524 0.1686354557
H 1.8405839836 -1.6798699654 0.7164291047
O -0.0580920576 -1.209188482 1.0328616794
O 0.862899516 -1.8657450713 -1.0082255033
O 2.2869862469 0.7418456573 1.0399619001
O 0.0552527702 1.3009963276 -1.7592731966
O -0.3538313336 1.6826059999 1.7756405867
O -1.6203287515 -0.8592039631 -1.6027240638
H -3.0718396219 -0.3549432472 -0.2227721637
H -2.3364626521 -1.9729111005 -0.0169808897
H 0.045356369 -1.5582172051 -1.4535140109
H 1.6636517599 0.9770139548 1.7480774378
H -0.5198730075 0.5336757195 -1.9444912869
H -1.0938988249 1.7210313439 2.398466231
H -2.2733150849 -1.2139645182 -2.2240767938
*
