15
 xtb: 6.7.1 (edcfbbe)
C           -2.48941772197937        0.48281496523396       -0.19937787739144
C           -2.09138863603290       -0.84092547278468       -0.37209137199254
C           -0.78454184244498       -1.22515872964029       -0.07955536094851
C            0.09647830778669       -0.26279540866691        0.38569706233279
C           -0.27150661477306        1.06138839667353        0.56628489695567
C           -1.58059696219577        1.43044237881401        0.26749265787423
O            1.40203450424367       -0.67001147151050        0.74219006515962
C            2.39009235804908       -0.40970927370668       -0.14593264677517
O            2.24179014632055        0.12776928695908       -1.21759932867540
H           -3.50861871577908        0.77638684734947       -0.42780990224534
H           -2.79713092378641       -1.58099421885444       -0.73485723210290
H           -0.45187198007907       -2.24984719550596       -0.20575269939718
H            0.45248851308110        1.78139444698229        0.93297462922767
H           -1.88895772521696        2.46199768721224        0.40298635159236
H            3.34451461032545       -0.76702150301507        0.26100609227093
