! r2scan-3c def2/J RI DEFGRID2 scfconv6 printgap
%output
    printlevel normal
end
%cpcm
    smd true
    smdsolvent "water"
end
* xyz 0 1
C -3.3521237228 0.2580173647 0.2988224845
O -2.1715542736 0.3701540894 -0.4999275767
C -1.0516764147 -0.1715595532 -0.0210708889
O -1.0156226674 -0.7558659272 1.0400360916
C 0.1002892254 0.0833808085 -0.9655607747
C 1.0826356185 -1.0901151682 -1.0462812884
C 1.8968834223 -1.2589989374 0.2337393528
C 2.6225324538 0.0351754648 0.5859297946
C 1.6119850518 1.1649107896 0.7572484262
C 0.8274318485 1.3699176759 -0.534236015
H -3.1995701147 0.7478387265 1.2612575753
H -3.5873450216 -0.7931895231 0.4694999894
H -4.1372220583 0.7472097673 -0.2685976007
H -0.3487332251 0.2549805959 -1.9487770821
H 0.5337833444 -2.0101570179 -1.2574083532
H 1.7607055548 -0.9005025651 -1.8807967294
H 1.2283977791 -1.5325553445 1.0512383681
H 2.6158777464 -2.0690082545 0.0987684487
H 3.1907121357 -0.0985475277 1.5076849295
H 3.324232041 0.2915582076 -0.2110596855
H 0.9263050111 0.9115358941 1.5691267504
H 2.123133167 2.0918725282 1.0230895718
H 0.1008637067 2.1764467619 -0.415740198
H 1.5173879855 1.6490507695 -1.3325451054
*
