! wb97x-v def2-tzvp def2/J RIJCOSX DEFGRID2 scfconv7 GCP(DFT/TZ) printgap
%output
    printlevel normal
end
* xyz 0 1
C -2.58899726040584 -0.597101475639593 -0.3524382655325802
C -1.208457218537027 -0.27318095344456333 0.18589622091774885
H -1.2361454457156102 -0.24314370940340468 1.28844670621593
C -0.6873833728621319 1.06534757677615 -0.3409941769207923
H -0.7062888348066052 1.0469043448676922 -1.4425479859138906
C 0.7456131181465924 1.2835245519180014 0.12694437322959234
H 0.7398524291535499 1.4026456913522054 1.2220926937289824
C 1.6261300268844046 0.0938448295461784 -0.2267874488541721
H 1.7124385084334521 0.005550829111715156 -1.320159223113558
C 0.9876825811135045 -1.184102821736385 0.30840884773235683
H 0.9161028600151846 -1.1553050923912684 1.408211551243692
O -0.3252909986582699 -1.3197532893582713 -0.248147780109015
O 1.7548505495168354 -2.2760987054957598 -0.12363524383009539
O 2.9067014843746897 0.3215169723530549 0.36742886898613986
O 1.2112175140238963 2.4886634257271436 -0.49279475511847765
O -1.541360225902884 2.1003352604744547 0.15501094693616602
O -3.1159471562141 -1.8131887534700888 0.19268753012750578
H -2.528755373346868 -0.7427416780682926 -1.4359387735014706
H -3.26106538110234 0.24468686134018783 -0.15006751239632404
H 1.5558124221933616 -3.0330295922814705 0.44370020149193923
H 3.516448278846085 -0.33384780544038095 0.00433496744780693
H 2.0420866819796046 2.7352424854850113 -0.0659538450733407
H -1.1432507530563496 2.9423489361358013 -0.10596503834501744
H -3.2829720790272363 -1.6605185451956948 1.13200271437875
*
