15
 xtb: 6.7.1 (edcfbbe)
C           -2.71077512431215        0.14033152070628       -0.10979850352826
C           -2.00196860733720       -1.02230088306150       -0.40133696462067
C           -0.62315440026723       -1.07417138386363       -0.20762267299786
C            0.01978615787509        0.06147395293651        0.26540872436286
C           -0.66271089088891        1.23074093167093        0.56590703996931
C           -2.04129013706818        1.26188075282427        0.37677534760156
O            1.40608813108862        0.04274648666290        0.51388623169784
C            2.22044468633959       -0.31669137850293       -0.51027039598154
O            3.40750953486793       -0.43900637696006       -0.33367411510260
H           -3.78523468883202        0.17146022430325       -0.25653360542501
H           -2.52073159554898       -1.90039418464693       -0.77180643611124
H           -0.06031841643426       -1.98065541911459       -0.40636378087504
H           -0.12082927396492        2.09340754074378        0.93811113317165
H           -2.59118239466994        2.16834604865100        0.60777760857196
H            1.70445969978818       -0.46108233228042       -1.47166084639149
