 Entering Gaussian System
 *********************************************
 Gaussian 98:
 frequency output generated by the xtb code
 *********************************************
                         Standard orientation:
 --------------------------------------------------------------------
  Center     Atomic     Atomic              Coordinates (Angstroms)
  Number     Number      Type              X           Y           Z
 --------------------------------------------------------------------
    1          6             0        2.418636   -0.283280   -0.166165
    2          6             0        1.020996    0.288371   -0.368937
    3          6             0        0.070610   -0.118047    0.755707
    4          6             0       -1.353748    0.380488    0.507748
    5          8             0       -1.945367   -0.171402   -0.650058
    6          1             0        2.839726    0.067432    0.773418
    7          1             0        2.388431   -1.370296   -0.143571
    8          1             0        3.076488    0.025100   -0.974628
    9          1             0        1.074475    1.378304   -0.413542
   10          1             0        0.613575   -0.058823   -1.320706
   11          1             0        0.060606   -1.206938    0.847304
   12          1             0        0.419555    0.295461    1.703142
   13          1             0       -1.980394    0.170456    1.385665
   14          1             0       -1.348957    1.460291    0.339564
   15          1             0       -1.992907   -1.132285   -0.548393
 --------------------------------------------------------------------
     1 basis functions        1 primitive gaussians
     1 alpha electrons        1 beta electrons
 
 Harmonic frequencies (cm**-1), IR intensities (km*mol⁻¹),
 Raman scattering activities (A**4/amu), Raman depolarization ratios,
 reduced masses (AMU), force constants (mDyne/A) and normal coordinates:
                      1                      2                      3
                        a                      a                      a 
 Frequencies --    82.8671               123.4444               232.1477
 Red. masses --     8.1590                 8.8492                 2.5481
 Frc consts  --     0.0000                 0.0000                 0.0000
 IR Inten    --     0.4513                 1.4168                 0.5760
 Raman Activ --     0.0000                 0.0000                 0.0000
 Depolar     --     0.0000                 0.0000                 0.0000
 Atom AN      X      Y      Z        X      Y      Z        X      Y      Z
   1   6    -0.18  -0.32  -0.23    -0.15   0.01  -0.15     0.02  -0.07   0.01
   2   6     0.03   0.37   0.22    -0.24  -0.18  -0.03     0.13   0.24   0.11
   3   6    -0.01   0.25   0.15     0.00   0.13   0.29     0.01  -0.04  -0.10
   4   6    -0.05   0.01  -0.06    -0.07  -0.14   0.18    -0.02  -0.07  -0.02
   5   8     0.21  -0.29  -0.06     0.46   0.20  -0.24    -0.14  -0.02   0.00
   6   1     0.01  -0.30  -0.02     0.04   0.15  -0.14     0.25   0.33  -0.24
   7   1    -0.18  -0.09  -0.25    -0.02   0.01   0.13    -0.14  -0.01   0.49
   8   1    -0.04  -0.04  -0.03    -0.12  -0.11  -0.15    -0.11  -0.47  -0.27
   9   1     0.14   0.11   0.20    -0.10  -0.06  -0.13     0.09   0.07   0.12
  10   1    -0.07   0.27   0.04    -0.12  -0.16   0.05     0.04   0.16  -0.00
  11   1     0.04   0.07   0.04     0.05   0.05   0.20     0.01  -0.02  -0.12
  12   1    -0.05   0.09   0.05     0.01   0.16   0.03    -0.02  -0.09   0.02
  13   1    -0.04   0.01  -0.03    -0.07  -0.19  -0.02     0.01  -0.05   0.00
  14   1    -0.06  -0.00  -0.06    -0.09  -0.02   0.18    -0.02  -0.02   0.02
  15   1     0.11  -0.07   0.02     0.19   0.03  -0.18    -0.01  -0.01  -0.02
                      4                      5                      6
                        a                      a                      a 
 Frequencies --   242.1510               332.5699               347.2250
 Red. masses --     6.9282                 4.6457                 7.6088
 Frc consts  --     0.0000                 0.0000                 0.0000
 IR Inten    --    30.9174               101.6290                94.2054
 Raman Activ --     0.0000                 0.0000                 0.0000
 Depolar     --     0.0000                 0.0000                 0.0000
 Atom AN      X      Y      Z        X      Y      Z        X      Y      Z
   1   6     0.03   0.17  -0.23    -0.21   0.04   0.09    -0.35  -0.01   0.20
   2   6    -0.15  -0.12   0.29    -0.16   0.02  -0.10    -0.16   0.18  -0.25
   3   6    -0.13  -0.29   0.23    -0.09  -0.19  -0.14     0.10  -0.06  -0.17
   4   6     0.12   0.23  -0.17     0.12   0.25   0.02     0.13  -0.03   0.11
   5   8     0.22  -0.08  -0.08     0.18  -0.09   0.19     0.42  -0.05   0.01
   6   1     0.12   0.11  -0.14    -0.10   0.04   0.03    -0.19   0.01   0.09
   7   1     0.08   0.05  -0.03    -0.07   0.01   0.07    -0.18  -0.00   0.11
   8   1    -0.13   0.07  -0.17    -0.02  -0.03   0.04     0.02  -0.10   0.12
   9   1    -0.09  -0.03   0.13    -0.06   0.01   0.02    -0.04   0.05  -0.05
  10   1    -0.08  -0.00   0.09    -0.02   0.04  -0.05    -0.04   0.05  -0.07
  11   1    -0.13  -0.09  -0.01    -0.12  -0.07  -0.18     0.04  -0.02  -0.14
  12   1    -0.05  -0.16   0.10     0.05  -0.21  -0.00     0.10  -0.10  -0.04
  13   1    -0.06   0.28  -0.07     0.01   0.16   0.01     0.03  -0.02   0.02
  14   1     0.20   0.04  -0.20     0.08   0.06  -0.08     0.04  -0.01   0.04
  15   1    -0.26   0.02   0.19     0.71  -0.08  -0.15    -0.46   0.04   0.26
                      7                      8                      9
                        a                      a                      a 
 Frequencies --   515.3499               780.4552               869.3958
 Red. masses --     8.9855                 2.4098                 5.0173
 Frc consts  --     0.0000                 0.0000                 0.0000
 IR Inten    --    21.2184                 7.0134                 4.4191
 Raman Activ --     0.0000                 0.0000                 0.0000
 Depolar     --     0.0000                 0.0000                 0.0000
 Atom AN      X      Y      Z        X      Y      Z        X      Y      Z
   1   6     0.28  -0.05  -0.06     0.02  -0.03  -0.02     0.21   0.06  -0.01
   2   6     0.14  -0.09  -0.03    -0.04  -0.16  -0.15     0.08   0.23  -0.18
   3   6    -0.32   0.11  -0.22    -0.13  -0.13  -0.12    -0.16  -0.24   0.07
   4   6    -0.42   0.21   0.25    -0.06  -0.02   0.04    -0.28  -0.12   0.17
   5   8     0.33  -0.10   0.07     0.10   0.04   0.07     0.10   0.06   0.05
   6   1     0.11  -0.01  -0.03    -0.15   0.18   0.00     0.14  -0.17   0.03
   7   1     0.13  -0.02  -0.04     0.22  -0.01   0.11    -0.28   0.02  -0.05
   8   1     0.03   0.03  -0.04     0.03   0.06   0.04     0.17  -0.19   0.01
   9   1     0.08  -0.03  -0.02     0.16  -0.03   0.45    -0.18   0.06  -0.14
  10   1     0.09  -0.02  -0.03     0.00   0.45  -0.22     0.17  -0.10  -0.06
  11   1    -0.23   0.02  -0.21     0.02   0.00   0.36     0.15  -0.05   0.18
  12   1    -0.02  -0.16  -0.01     0.02   0.32  -0.20    -0.05   0.14  -0.07
  13   1    -0.09  -0.10   0.05    -0.03   0.07   0.02    -0.24   0.32   0.01
  14   1    -0.26   0.07   0.14     0.07  -0.01  -0.02     0.25  -0.06  -0.16
  15   1    -0.05  -0.00   0.16     0.00   0.01   0.03     0.01   0.01  -0.07
                     10                     11                     12
                        a                      a                      a 
 Frequencies --   884.6589               958.5328               986.3679
 Red. masses --     6.1783                 5.0796                 6.4045
 Frc consts  --     0.0000                 0.0000                 0.0000
 IR Inten    --     6.8214                46.9158                16.5109
 Raman Activ --     0.0000                 0.0000                 0.0000
 Depolar     --     0.0000                 0.0000                 0.0000
 Atom AN      X      Y      Z        X      Y      Z        X      Y      Z
   1   6     0.13  -0.08  -0.14     0.07   0.15  -0.05    -0.21  -0.00   0.20
   2   6     0.02   0.06  -0.25     0.01  -0.04  -0.04     0.04  -0.08   0.04
   3   6     0.19   0.01   0.40     0.16  -0.21   0.11     0.28  -0.00  -0.07
   4   6    -0.19   0.09   0.17     0.04   0.36   0.00    -0.15   0.14   0.34
   5   8    -0.14  -0.08  -0.21    -0.15  -0.13  -0.22    -0.12  -0.12  -0.29
   6   1    -0.29   0.16   0.05     0.03  -0.12   0.04     0.22  -0.03  -0.06
   7   1     0.15  -0.02   0.14    -0.31   0.04  -0.01     0.08  -0.01  -0.11
   8   1     0.27  -0.05   0.15     0.18  -0.18   0.04    -0.37   0.17  -0.14
   9   1     0.17   0.01  -0.02    -0.27   0.01   0.16     0.07  -0.02   0.03
  10   1    -0.24   0.12   0.00     0.09   0.04  -0.06     0.20   0.00  -0.07
  11   1     0.00  -0.02  -0.15    -0.16  -0.04   0.24     0.12  -0.00  -0.02
  12   1     0.14  -0.25   0.18     0.19   0.04  -0.07     0.37  -0.01  -0.12
  13   1    -0.18   0.13  -0.03     0.06  -0.25  -0.05    -0.14   0.18   0.04
  14   1     0.01   0.00  -0.07    -0.22   0.12   0.24     0.06   0.01  -0.07
  15   1    -0.01  -0.02  -0.08     0.07  -0.01   0.22    -0.02  -0.03  -0.08
                     13                     14                     15
                        a                      a                      a 
 Frequencies --  1061.0923              1083.8384              1107.5597
 Red. masses --     2.7396                10.1691                 9.1974
 Frc consts  --     0.0000                 0.0000                 0.0000
 IR Inten    --    42.4125                45.4480                47.5231
 Raman Activ --     0.0000                 0.0000                 0.0000
 Depolar     --     0.0000                 0.0000                 0.0000
 Atom AN      X      Y      Z        X      Y      Z        X      Y      Z
   1   6     0.10   0.09   0.00    -0.36   0.21  -0.15     0.24  -0.14   0.15
   2   6    -0.09  -0.12  -0.02     0.45  -0.21   0.09    -0.39   0.07  -0.01
   3   6    -0.06   0.23   0.03     0.24  -0.09   0.05     0.33  -0.04  -0.01
   4   6     0.16  -0.13   0.09    -0.35  -0.04  -0.25    -0.32  -0.03  -0.37
   5   8     0.04  -0.01   0.07     0.12   0.12   0.24     0.10   0.15   0.25
   6   1     0.06  -0.09   0.02    -0.19   0.05   0.01     0.18  -0.06  -0.00
   7   1    -0.16   0.02  -0.02    -0.20   0.06   0.01     0.12  -0.04  -0.02
   8   1     0.08  -0.09   0.01    -0.01  -0.01   0.01    -0.03   0.00  -0.02
   9   1    -0.15  -0.02   0.17     0.12  -0.06   0.04    -0.21   0.03   0.09
  10   1     0.06   0.08  -0.08     0.14  -0.05   0.01    -0.15   0.06   0.00
  11   1    -0.41   0.06  -0.01    -0.01  -0.02   0.03     0.16  -0.02  -0.07
  12   1     0.23  -0.09  -0.02     0.02  -0.04   0.04     0.24  -0.04  -0.05
  13   1     0.15   0.10   0.13    -0.05   0.02  -0.01    -0.06  -0.03  -0.07
  14   1    -0.18  -0.08  -0.30    -0.19  -0.02  -0.15    -0.21  -0.00  -0.11
  15   1    -0.23  -0.05  -0.51    -0.02   0.02  -0.05     0.03   0.03   0.05
                     16                     17                     18
                        a                      a                      a 
 Frequencies --  1134.3631              1196.5839              1236.1900
 Red. masses --     7.2890                 5.4224                 3.8194
 Frc consts  --     0.0000                 0.0000                 0.0000
 IR Inten    --     8.2587                15.6804                 5.1521
 Raman Activ --     0.0000                 0.0000                 0.0000
 Depolar     --     0.0000                 0.0000                 0.0000
 Atom AN      X      Y      Z        X      Y      Z        X      Y      Z
   1   6     0.07   0.01  -0.19     0.06   0.23   0.00     0.06   0.20   0.20
   2   6    -0.09  -0.11   0.44    -0.09  -0.36   0.03    -0.04  -0.21  -0.25
   3   6     0.17   0.03  -0.44    -0.03   0.36  -0.03     0.11  -0.09   0.02
   4   6    -0.12   0.10   0.22    -0.00  -0.25  -0.03    -0.04   0.17   0.07
   5   8     0.01  -0.05  -0.12    -0.05   0.06  -0.03     0.03  -0.05  -0.03
   6   1    -0.21   0.04   0.05     0.07  -0.13   0.04     0.24  -0.15   0.02
   7   1    -0.07   0.01   0.10    -0.27   0.06  -0.03    -0.20   0.05  -0.12
   8   1     0.23  -0.09   0.10     0.08  -0.13  -0.01    -0.09  -0.07  -0.08
   9   1    -0.16  -0.02   0.07     0.08  -0.08   0.20     0.25  -0.06   0.06
  10   1    -0.23  -0.10   0.22    -0.04   0.12  -0.06    -0.33   0.16  -0.00
  11   1     0.24   0.01  -0.05     0.05   0.07  -0.24     0.22  -0.03  -0.05
  12   1    -0.05   0.12  -0.12     0.14  -0.10   0.02    -0.46   0.01   0.17
  13   1     0.10   0.13   0.16    -0.21   0.03  -0.14     0.18   0.02   0.15
  14   1     0.03   0.01  -0.07     0.34  -0.04   0.12    -0.13   0.03  -0.04
  15   1    -0.02  -0.02  -0.09     0.14   0.04   0.31    -0.06  -0.02  -0.14
                     19                     20                     21
                        a                      a                      a 
 Frequencies --  1278.8464              1291.4682              1304.0702
 Red. masses --     2.1089                 3.7850                 3.1079
 Frc consts  --     0.0000                 0.0000                 0.0000
 IR Inten    --     3.7136                34.1599                20.4022
 Raman Activ --     0.0000                 0.0000                 0.0000
 Depolar     --     0.0000                 0.0000                 0.0000
 Atom AN      X      Y      Z        X      Y      Z        X      Y      Z
   1   6    -0.04  -0.13  -0.05     0.01   0.05  -0.09     0.01   0.07  -0.08
   2   6     0.01  -0.08  -0.10    -0.16  -0.08   0.10    -0.20   0.00   0.09
   3   6     0.11   0.16   0.10    -0.16  -0.02   0.08    -0.23  -0.06   0.18
   4   6    -0.01  -0.01   0.07     0.11   0.27  -0.10    -0.03  -0.07  -0.03
   5   8    -0.01   0.02  -0.08     0.02  -0.13   0.19    -0.00   0.09  -0.15
   6   1    -0.08   0.07  -0.02    -0.04  -0.03   0.01     0.00  -0.04   0.01
   7   1     0.11  -0.04   0.03    -0.01   0.01   0.04    -0.00   0.01   0.03
   8   1    -0.02   0.04   0.00     0.10  -0.06   0.03     0.12  -0.07   0.04
   9   1    -0.50   0.02   0.27     0.13  -0.03  -0.01     0.32  -0.03  -0.13
  10   1     0.43   0.02  -0.22     0.28   0.00  -0.12     0.26  -0.01  -0.11
  11   1     0.20   0.02  -0.18     0.45  -0.02  -0.17     0.26  -0.03  -0.07
  12   1    -0.39  -0.07   0.23     0.08   0.03  -0.04     0.23  -0.02  -0.06
  13   1     0.09   0.07   0.10    -0.19  -0.15  -0.23     0.44   0.04   0.33
  14   1    -0.05  -0.01  -0.06     0.01   0.11   0.21    -0.19  -0.05  -0.22
  15   1     0.04   0.01   0.09    -0.21  -0.07  -0.43     0.11   0.04   0.24
                     22                     23                     24
                        a                      a                      a 
 Frequencies --  1338.3980              1365.8468              1411.7297
 Red. masses --     3.3569                 5.2245                 3.2278
 Frc consts  --     0.0000                 0.0000                 0.0000
 IR Inten    --    56.7492                 1.0050                 0.2742
 Raman Activ --     0.0000                 0.0000                 0.0000
 Depolar     --     0.0000                 0.0000                 0.0000
 Atom AN      X      Y      Z        X      Y      Z        X      Y      Z
   1   6    -0.01  -0.02   0.01     0.02   0.05  -0.08    -0.41   0.15  -0.03
   2   6     0.01   0.02  -0.03    -0.41   0.05   0.13     0.09  -0.00  -0.04
   3   6     0.05   0.06   0.08     0.40  -0.03  -0.11    -0.02   0.02  -0.01
   4   6    -0.35   0.05  -0.24    -0.07  -0.01   0.05     0.00  -0.01   0.00
   5   8     0.05  -0.11   0.01     0.00  -0.01   0.00     0.00  -0.00   0.00
   6   1     0.00   0.01  -0.01     0.03  -0.08   0.01     0.44  -0.24  -0.12
   7   1     0.02  -0.01   0.00     0.05   0.01   0.06     0.51  -0.00   0.03
   8   1    -0.02   0.02  -0.00     0.12  -0.06   0.05     0.37  -0.25   0.23
   9   1    -0.05   0.01   0.01     0.37  -0.02  -0.11    -0.07   0.00   0.09
  10   1     0.02   0.01  -0.01     0.36  -0.06  -0.14    -0.08  -0.05   0.06
  11   1    -0.11   0.01   0.03    -0.38   0.01   0.10     0.00   0.00  -0.01
  12   1     0.09  -0.06   0.03    -0.31   0.04   0.10     0.01   0.00  -0.01
  13   1     0.41   0.02   0.31    -0.10   0.01  -0.05    -0.01   0.01  -0.00
  14   1     0.52   0.08   0.42     0.07  -0.00   0.02     0.01   0.00   0.01
  15   1    -0.07  -0.04  -0.20     0.00  -0.00   0.01    -0.00  -0.00  -0.00
                     25                     26                     27
                        a                      a                      a 
 Frequencies --  1472.1998              1478.4812              1496.3757
 Red. masses --     1.8284                 1.9655                 1.8035
 Frc consts  --     0.0000                 0.0000                 0.0000
 IR Inten    --     2.0521                 0.6840                 0.6757
 Raman Activ --     0.0000                 0.0000                 0.0000
 Depolar     --     0.0000                 0.0000                 0.0000
 Atom AN      X      Y      Z        X      Y      Z        X      Y      Z
   1   6    -0.00  -0.01   0.01    -0.01   0.01   0.00     0.02  -0.03   0.05
   2   6    -0.01   0.02  -0.03     0.05  -0.01  -0.01    -0.08   0.15  -0.20
   3   6    -0.04   0.07  -0.09     0.06  -0.13   0.22    -0.02   0.00   0.01
   4   6    -0.12   0.17   0.11    -0.07   0.07   0.06     0.01  -0.01  -0.01
   5   8     0.00   0.02   0.04    -0.00   0.01   0.01    -0.00  -0.00  -0.00
   6   1     0.01   0.02  -0.01    -0.01  -0.02   0.01    -0.02   0.19  -0.06
   7   1     0.00  -0.00  -0.03     0.01   0.00   0.01    -0.07  -0.00  -0.20
   8   1     0.01  -0.01   0.01    -0.02  -0.01  -0.02     0.04  -0.04   0.02
   9   1     0.00   0.00   0.05    -0.04   0.00   0.00     0.24   0.02   0.60
  10   1     0.01  -0.05   0.01    -0.03   0.01   0.01     0.04  -0.61   0.20
  11   1     0.10   0.03   0.26    -0.21  -0.05  -0.57     0.01  -0.00  -0.05
  12   1     0.01  -0.27   0.11    -0.04   0.56  -0.22     0.02   0.04  -0.03
  13   1     0.07  -0.61  -0.10     0.06  -0.28  -0.02    -0.00   0.04   0.01
  14   1     0.36  -0.07  -0.48     0.18  -0.04  -0.23    -0.02   0.00   0.04
  15   1    -0.00   0.01   0.01     0.01   0.00   0.01     0.00  -0.00  -0.01
                     28                     29                     30
                        a                      a                      a 
 Frequencies --  1500.1767              1501.9485              2870.2263
 Red. masses --     1.5304                 1.6769                 1.7483
 Frc consts  --     0.0000                 0.0000                 0.0000
 IR Inten    --     1.4629                 0.4094               125.2905
 Raman Activ --     0.0000                 0.0000                 0.0000
 Depolar     --     0.0000                 0.0000                 0.0000
 Atom AN      X      Y      Z        X      Y      Z        X      Y      Z
   1   6     0.05   0.17   0.12    -0.06  -0.10   0.17     0.00   0.00  -0.00
   2   6     0.01   0.03   0.03    -0.02  -0.07   0.11     0.00  -0.00   0.00
   3   6     0.00   0.00  -0.01     0.03  -0.00  -0.01     0.01   0.00   0.00
   4   6    -0.00  -0.01  -0.00    -0.00  -0.00   0.00     0.15   0.08  -0.19
   5   8     0.00  -0.00  -0.00     0.00  -0.00   0.00    -0.00  -0.00  -0.02
   6   1    -0.38  -0.10   0.22     0.11   0.57  -0.25    -0.00  -0.00  -0.00
   7   1     0.35  -0.01  -0.34    -0.11  -0.02  -0.59     0.00   0.00  -0.00
   8   1    -0.17  -0.59  -0.36     0.25  -0.13   0.17    -0.00  -0.00   0.00
   9   1    -0.03   0.01  -0.03    -0.04  -0.01  -0.19    -0.00   0.00   0.00
  10   1     0.02   0.01   0.00     0.02   0.18  -0.07    -0.00  -0.00  -0.00
  11   1    -0.01   0.00   0.02    -0.02   0.00  -0.02    -0.00   0.02  -0.00
  12   1     0.02  -0.01   0.00    -0.01   0.02  -0.01    -0.01  -0.01  -0.02
  13   1    -0.00   0.01   0.00    -0.01   0.00  -0.00    -0.55  -0.20   0.76
  14   1    -0.00   0.00   0.01     0.00   0.00   0.00     0.02  -0.08  -0.02
  15   1    -0.00   0.00  -0.00    -0.00  -0.00  -0.00    -0.00  -0.00   0.00
                     31                     32                     33
                        a                      a                      a 
 Frequencies --  2960.1969              2968.4092              2974.2615
 Red. masses --     1.8358                 1.8801                 1.7489
 Frc consts  --     0.0000                 0.0000                 0.0000
 IR Inten    --     2.5756                40.8439               151.5663
 Raman Activ --     0.0000                 0.0000                 0.0000
 Depolar     --     0.0000                 0.0000                 0.0000
 Atom AN      X      Y      Z        X      Y      Z        X      Y      Z
   1   6     0.00   0.00   0.01     0.01   0.02   0.01     0.00   0.01   0.00
   2   6    -0.03  -0.11  -0.05    -0.05  -0.22  -0.09    -0.03  -0.06  -0.05
   3   6     0.03   0.23   0.05    -0.00  -0.09   0.00    -0.00  -0.13   0.01
   4   6     0.00  -0.06   0.01    -0.01   0.11  -0.01     0.01  -0.21   0.03
   5   8    -0.00  -0.00  -0.00     0.00   0.00   0.00    -0.00  -0.00  -0.01
   6   1    -0.01  -0.01  -0.03    -0.02  -0.01  -0.04    -0.01  -0.01  -0.02
   7   1     0.00  -0.02   0.00     0.00  -0.07   0.00    -0.00  -0.02   0.00
   8   1     0.00   0.00   0.00    -0.01  -0.00   0.01    -0.00   0.00   0.00
   9   1     0.02   0.36  -0.02     0.03   0.67  -0.03     0.01   0.15  -0.01
  10   1     0.09   0.07   0.22     0.16   0.12   0.37     0.08   0.07   0.20
  11   1    -0.00  -0.75   0.06     0.00   0.31  -0.02     0.01   0.44  -0.03
  12   1    -0.09  -0.09  -0.26    -0.00  -0.01  -0.01     0.00  -0.02   0.00
  13   1    -0.02  -0.02   0.03     0.03   0.03  -0.04    -0.04  -0.05   0.06
  14   1     0.00   0.27  -0.05    -0.01  -0.42   0.07     0.01   0.80  -0.13
  15   1    -0.00  -0.00  -0.00     0.00   0.00  -0.00     0.00  -0.01   0.00
                     34                     35                     36
                        a                      a                      a 
 Frequencies --  2984.5477              2987.8063              3025.6079
 Red. masses --     1.5253                 1.6007                 1.9549
 Frc consts  --     0.0000                 0.0000                 0.0000
 IR Inten    --    25.5455               106.2680                91.2182
 Raman Activ --     0.0000                 0.0000                 0.0000
 Depolar     --     0.0000                 0.0000                 0.0000
 Atom AN      X      Y      Z        X      Y      Z        X      Y      Z
   1   6     0.01   0.00  -0.01    -0.00  -0.00   0.03    -0.08  -0.24  -0.15
   2   6     0.04  -0.08   0.12    -0.05   0.02  -0.14    -0.01  -0.03  -0.02
   3   6    -0.05  -0.03  -0.14    -0.06  -0.02  -0.16    -0.00  -0.00  -0.00
   4   6     0.00  -0.03  -0.00     0.00   0.00  -0.01     0.00  -0.00  -0.00
   5   8    -0.00   0.00  -0.00    -0.00   0.00   0.00    -0.00   0.00   0.00
   6   1     0.01   0.01   0.01    -0.03  -0.03  -0.06     0.25   0.20   0.58
   7   1     0.00  -0.01  -0.00    -0.00   0.02   0.00     0.02   0.68  -0.04
   8   1    -0.02  -0.01   0.03     0.03   0.02  -0.04    -0.00  -0.03  -0.03
   9   1     0.04   0.49   0.00    -0.02  -0.29  -0.01     0.01   0.06  -0.00
  10   1    -0.19  -0.19  -0.46     0.22   0.21   0.51     0.03   0.03   0.07
  11   1    -0.01  -0.14  -0.01    -0.01  -0.21  -0.01     0.00   0.01  -0.00
  12   1     0.20   0.25   0.54     0.22   0.28   0.58     0.00   0.00   0.01
  13   1    -0.02  -0.01   0.02    -0.02  -0.01   0.02    -0.00  -0.00   0.00
  14   1     0.00   0.13  -0.02     0.00  -0.01  -0.00    -0.00   0.00  -0.00
  15   1    -0.00  -0.01   0.00     0.00  -0.00   0.00     0.00  -0.00   0.00
                     37                     38                     39
                        a                      a                      a 
 Frequencies --  3029.9914              3040.3534              3493.5207
 Red. masses --     1.8501                 1.3389                 1.8756
 Frc consts  --     0.0000                 0.0000                 0.0000
 IR Inten    --    84.2914                45.6622                60.3817
 Raman Activ --     0.0000                 0.0000                 0.0000
 Depolar     --     0.0000                 0.0000                 0.0000
 Atom AN      X      Y      Z        X      Y      Z        X      Y      Z
   1   6     0.03   0.14  -0.24     0.16  -0.00  -0.07    -0.00   0.00   0.00
   2   6    -0.01   0.01  -0.02     0.00   0.00  -0.01    -0.00   0.00  -0.00
   3   6    -0.00   0.00  -0.01     0.00  -0.00   0.00     0.00  -0.00   0.00
   4   6     0.00   0.00  -0.00    -0.00   0.00  -0.00     0.00   0.01   0.00
   5   8    -0.00  -0.00   0.00     0.00   0.00   0.00     0.01   0.24  -0.03
   6   1     0.23   0.22   0.48    -0.12  -0.13  -0.34    -0.00  -0.00  -0.00
   7   1    -0.02  -0.56  -0.03     0.04   0.39  -0.02     0.00  -0.00   0.00
   8   1    -0.32  -0.14   0.38    -0.47  -0.24   0.62    -0.00  -0.00   0.00
   9   1    -0.01  -0.05  -0.00    -0.00  -0.02   0.00    -0.00  -0.00  -0.00
  10   1     0.02   0.03   0.06     0.01   0.01   0.01     0.00   0.00  -0.00
  11   1    -0.00  -0.03   0.00     0.00   0.00  -0.00     0.00  -0.00   0.00
  12   1     0.01   0.02   0.03    -0.00  -0.00  -0.01    -0.00  -0.00  -0.00
  13   1    -0.00  -0.00   0.00     0.00   0.00  -0.00     0.00  -0.00  -0.00
  14   1     0.00  -0.00  -0.00    -0.00  -0.01   0.00     0.00  -0.01   0.00
  15   1    -0.00   0.00  -0.00    -0.00   0.00  -0.00    -0.05  -0.96   0.10
