      -----------------------------------------------------------      
     |                   =====================                   |     
     |                           x T B                           |     
     |                   =====================                   |     
     |                         S. Grimme                         |     
     |          Mulliken Center for Theoretical Chemistry        |     
     |                    University of Bonn                     |     
      -----------------------------------------------------------      

   * xtb version 6.7.1 (edcfbbe) compiled by 'albert@albert-system' on 2024-07-22

   xtb is free software: you can redistribute it and/or modify it under
   the terms of the GNU Lesser General Public License as published by
   the Free Software Foundation, either version 3 of the License, or
   (at your option) any later version.
   
   xtb is distributed in the hope that it will be useful,
   but WITHOUT ANY WARRANTY; without even the implied warranty of
   MERCHANTABILITY or FITNESS FOR A PARTICULAR PURPOSE.  See the
   GNU Lesser General Public License for more details.
   
   Cite this work as:
   * C. Bannwarth, E. Caldeweyher, S. Ehlert, A. Hansen, P. Pracht,
     J. Seibert, S. Spicher, S. Grimme, WIREs Comput. Mol. Sci., 2020, 11,
     e01493. DOI: 10.1002/wcms.1493
   
   for GFN2-xTB:
   * C. Bannwarth, S. Ehlert and S. Grimme., J. Chem. Theory Comput., 2019,
     15, 1652-1671. DOI: 10.1021/acs.jctc.8b01176
   for GFN1-xTB:
   * S. Grimme, C. Bannwarth, P. Shushkov, J. Chem. Theory Comput., 2017,
     13, 1989-2009. DOI: 10.1021/acs.jctc.7b00118
   for GFN0-xTB:
   * P. Pracht, E. Caldeweyher, S. Ehlert, S. Grimme, ChemRxiv, 2019, preprint.
     DOI: 10.26434/chemrxiv.8326202.v1
   for GFN-FF:
   * S. Spicher and S. Grimme, Angew. Chem. Int. Ed., 2020, 59, 15665-15673.
     DOI: 10.1002/anie.202004239
   
   for ALPB and GBSA implicit solvation:
   * S. Ehlert, M. Stahn, S. Spicher, S. Grimme, J. Chem. Theory Comput.,
     2021, 17, 4250-4261. DOI: 10.1021/acs.jctc.1c00471
   
   for ddCOSMO and CPCM-X implicit solvation:
   * M. Stahn, S. Ehlert, S. Grimme, J. Phys. Chem. A,
     2023, XX, XXXX-XXXX. DOI: 10.1021/acs.jpca.3c04382
   
   for DFT-D4:
   * E. Caldeweyher, C. Bannwarth and S. Grimme, J. Chem. Phys., 2017,
     147, 034112. DOI: 10.1063/1.4993215
   * E. Caldeweyher, S. Ehlert, A. Hansen, H. Neugebauer, S. Spicher,
     C. Bannwarth and S. Grimme, J. Chem. Phys., 2019, 150, 154122.
     DOI: 10.1063/1.5090222
   * E. Caldeweyher, J.-M. Mewes, S. Ehlert and S. Grimme, Phys. Chem. Chem. Phys.
     2020, 22, 8499-8512. DOI: 10.1039/D0CP00502A
   
   for sTDA-xTB:
   * S. Grimme and C. Bannwarth, J. Chem. Phys., 2016, 145, 054103.
     DOI: 10.1063/1.4959605
   
   in the mass-spec context:
   * V. Asgeirsson, C. Bauer and S. Grimme, Chem. Sci., 2017, 8, 4879.
     DOI: 10.1039/c7sc00601b
   * J. Koopman and S. Grimme, ACS Omega 2019, 4, 12, 15120-15133.
     DOI: 10.1021/acsomega.9b02011
   
   for metadynamics refer to:
   * S. Grimme, J. Chem. Theory Comput., 2019, 155, 2847-2862
     DOI: 10.1021/acs.jctc.9b00143
   
   for SPH calculations refer to:
   * S. Spicher and S. Grimme, J. Chem. Theory Comput., 2021, 17, 1701-1714
     DOI: 10.1021/acs.jctc.0c01306
   
   for ONIOM refer to:
   * C. Plett, A. Katbashev, S. Ehlert, S. Grimme, M. Bursch,
     Phys. Chem. Chem. Phys., 2023, 25, 17860-17868. DOI: 10.1039/D3CP02178E
   
   for DIPRO refer to:
   * J. Kohn, N. Gildemeister, S. Grimme, D. Fazzi, A. Hansen,
     J. Chem. Phys., 2023, just accepted.
   
   for PTB refer to:
   * S. Grimme, M. Mueller, A. Hansen, J. Chem. Phys., 2023, 158, 124111.
     DOI: 10.1063/5.0137838
   
   with help from (in alphabetical order)
   P. Atkinson, C. Bannwarth, F. Bohle, G. Brandenburg, E. Caldeweyher
   M. Checinski, S. Dohm, S. Ehlert, S. Ehrlich, I. Gerasimov, C. Hölzer
   A. Katbashev, J. Kohn, J. Koopman, C. Lavigne, S. Lehtola, F. März, M. Müller,
   F. Musil, H. Neugebauer, J. Pisarek, C. Plett, P. Pracht, F. Pultar,
   J. Seibert, P. Shushkov, S. Spicher, M. Stahn, M. Steiner, T. Strunk,
   J. Stückrath, T. Rose, and J. Unsleber
   
 * started run on 2025/04/06 at 22:38:50.624     
   ID    Z sym.   atoms
    1    6 C      1-4
    2    8 O      5
    3    1 H      6-15

           -------------------------------------------------
          |                Calculation Setup                |
           -------------------------------------------------

          program call               : /srv/scratch/z5358697/.xtb/bin/xtb xtb_rrho.coord --gfn2 --ohess vtight --chrg 0 --enso --norestart -I rrho-xcontrol-inp --parallel 1 --alpb water
          hostname                   : k159
          coordinate file            : xtb_rrho.coord
          omp threads                :                     1


           -------------------------------------------------
          |                 G F N 2 - x T B                 |
           -------------------------------------------------

        Reference                      10.1021/acs.jctc.8b01176
      * Hamiltonian:
        H0-scaling (s, p, d)           1.850000    2.230000    2.230000
        zeta-weighting                 0.500000
      * Dispersion:
        s8                             2.700000
        a1                             0.520000
        a2                             5.000000
        s9                             5.000000
      * Repulsion:
        kExp                           1.500000    1.000000
        rExp                           1.000000
      * Coulomb:
        alpha                          2.000000
        third order                    shell-resolved
        anisotropic                    true
        a3                             3.000000
        a5                             4.000000
        cn-shift                       1.200000
        cn-exp                         4.000000
        max-rad                        5.000000

      * Solvation model:               ALPB
        Solvent                        water
        Parameter file                 internal GFN2-xTB/ALPB
        Dielectric constant                8.0200E+01
        Reference state                gsolv [1 M gas/solution]
        Free energy shift                  1.0808E-03 Eh       6.7819E-01 kcal/mol
        Temperature                        2.9815E+02 K
        Density                            1.0000E+00 kg/L
        Solvent mass                       1.8000E+01 g/mol
        Interaction kernel             P16
        Born radius scaling (c1)           1.4744E+00
        Born radii integrator          GBOBC
        Born offset                        0.0000E+00 a0       0.0000E+00 AA
        H-bond correction              true
        Ion screening                  false
        Surface tension                    1.0000E-05 Eh       1.5569E+01 dyn/cm
        Grid points                               974 per atom

          ...................................................
          :                      SETUP                      :
          :.................................................:
          :  # basis functions                  30          :
          :  # atomic orbitals                  30          :
          :  # shells                           20          :
          :  # electrons                        32          :
          :  max. iterations                   250          :
          :  Hamiltonian                  GFN2-xTB          :
          :  restarted?                      false          :
          :  GBSA solvation                   true          :
          :  PC potential                    false          :
          :  electronic temp.          300.0000000     K    :
          :  accuracy                    1.0000000          :
          :  -> integral cutoff          0.2500000E+02      :
          :  -> integral neglect         0.1000000E-07      :
          :  -> SCF convergence          0.1000000E-05 Eh   :
          :  -> wf. convergence          0.1000000E-03 e    :
          :  Broyden damping             0.4000000          :
          :  net charge                          0          :
          :  unpaired electrons                  0          :
          ...................................................

 iter      E             dE          RMSdq      gap      omega  full diag
   1    -17.9074629 -0.179075E+02  0.330E+00   12.17       0.0  T
   2    -17.9342546 -0.267917E-01  0.173E+00   11.97       1.0  T
   3    -17.9350252 -0.770613E-03  0.631E-01   11.97       1.0  T
   4    -17.9351656 -0.140384E-03  0.112E-01   11.95       1.0  T
   5    -17.9351778 -0.122128E-04  0.621E-02   11.96       1.0  T
   6    -17.9351802 -0.232904E-05  0.121E-02   11.96       2.1  T
   7    -17.9351804 -0.272888E-06  0.570E-03   11.96       4.5  T
   8    -17.9351805 -0.587845E-07  0.217E-03   11.96      11.9  T
   9    -17.9351805 -0.614472E-08  0.576E-04   11.96      44.8  T
  10    -17.9351805 -0.107461E-08  0.178E-04   11.96     145.4  T

   *** convergence criteria satisfied after 10 iterations ***

         #    Occupation            Energy/Eh            Energy/eV
      -------------------------------------------------------------
         1        2.0000           -0.6838582             -18.6087
       ...           ...                  ...                  ...
        10        2.0000           -0.4853843             -13.2080
        11        2.0000           -0.4577655             -12.4564
        12        2.0000           -0.4563176             -12.4170
        13        2.0000           -0.4470747             -12.1655
        14        2.0000           -0.4314753             -11.7410
        15        2.0000           -0.4227477             -11.5035
        16        2.0000           -0.4099445             -11.1552 (HOMO)
        17                          0.0296741               0.8075 (LUMO)
        18                          0.0699458               1.9033
        19                          0.1132940               3.0829
        20                          0.1261821               3.4336
        21                          0.1461853               3.9779
       ...                                ...                  ...
        30                          0.2934100               7.9841
      -------------------------------------------------------------
                  HL-Gap            0.4396186 Eh           11.9626 eV
             Fermi-level           -0.1901352 Eh           -5.1738 eV

 SCC (total)                   0 d,  0 h,  0 min,  0.020 sec
 SCC setup                      ...        0 min,  0.001 sec (  3.466%)
 Dispersion                     ...        0 min,  0.000 sec (  0.300%)
 classical contributions        ...        0 min,  0.000 sec (  0.059%)
 integral evaluation            ...        0 min,  0.001 sec (  3.531%)
 iterations                     ...        0 min,  0.017 sec ( 82.686%)
 molecular gradient             ...        0 min,  0.002 sec (  9.425%)
 printout                       ...        0 min,  0.000 sec (  0.478%)

         :::::::::::::::::::::::::::::::::::::::::::::::::::::
         ::                     SUMMARY                     ::
         :::::::::::::::::::::::::::::::::::::::::::::::::::::
         :: total energy             -17.728436407379 Eh    ::
         :: total w/o Gsasa/hb       -17.724816902325 Eh    ::
         :: gradient norm              0.029022608617 Eh/a0 ::
         :: HOMO-LUMO gap             11.962631126193 eV    ::
         ::.................................................::
         :: SCC energy               -17.935171113940 Eh    ::
         :: -> isotropic ES            0.036149517109 Eh    ::
         :: -> anisotropic ES          0.003643460125 Eh    ::
         :: -> anisotropic XC          0.006708733616 Eh    ::
         :: -> dispersion             -0.006984566508 Eh    ::
         :: -> Gsolv                  -0.008461814232 Eh    ::
         ::    -> Gelec               -0.004842309178 Eh    ::
         ::    -> Gsasa                0.000656879093 Eh    ::
         ::    -> Ghb                 -0.005357143844 Eh    ::
         ::    -> Gshift               0.001080759698 Eh    ::
         :: repulsion energy           0.206734706561 Eh    ::
         :: add. restraining           0.000000000000 Eh    ::
         :: total charge              -0.000000000000 e     ::
         :::::::::::::::::::::::::::::::::::::::::::::::::::::

      ----------------------------------------------------------- 
     |                   =====================                   |
     |                        A N C O P T                        |
     |                   =====================                   |
     |               Approximate Normal Coordinate               |
     |                Rational Function Optimizer                |
      ----------------------------------------------------------- 
      ----------------------------------------------------------- 
     |                   =====================                   |
     |                        A N C O P T                        |
     |                   =====================                   |
     |               Approximate Normal Coordinate               |
     |                Rational Function Optimizer                |
      ----------------------------------------------------------- 

          ...................................................
          :                      SETUP                      :
          :.................................................:
          :   optimization level         verytight          :
          :   max. optcycles                   300          :
          :   ANC micro-cycles                  20          :
          :   degrees of freedom                39          :
          :.................................................:
          :   RF solver                   davidson          :
          :   write xtbopt.log                true          :
          :   linear?                        false          :
          :   energy convergence         0.1000000E-06 Eh   :
          :   grad. convergence          0.2000000E-03 Eh/α :
          :   maxmium RF displ.          1.0000000          :
          :   Hlow (freq-cutoff)         0.1000000E-01      :
          :   Hmax (freq-cutoff)         5.0000000          :
          :   S6 in model hess.         20.0000000          :
          ...................................................

generating ANC from exact Hessian ...
Using Lindh-Hessian (1995)
 Shifting diagonal of input Hessian by   6.795715999471054E-003
 Lowest  eigenvalues of input Hessian
    0.000000    0.000000    0.000000    0.000000    0.000000    0.000000
    0.010000    0.011370    0.014086    0.017206    0.021009    0.027888
    0.045152    0.050159    0.057460    0.058744    0.060986    0.064443
 Highest eigenvalues
    1.138715    1.163488    1.200576    1.244068    1.297056    1.405855
 

........................................................................
.............................. CYCLE    1 ..............................
........................................................................

 iter      E             dE          RMSdq      gap      omega  full diag
   1    -17.9351805 -0.179352E+02  0.445E-05   11.96       0.0  T
   2    -17.9351805 -0.125553E-10  0.163E-05   11.96    1583.1  T
   3    -17.9351805 -0.419220E-12  0.104E-05   11.96    2475.3  T
     SCC iter.                  ...        0 min,  0.001 sec
     gradient                   ...        0 min,  0.002 sec
 * total energy  :   -17.7284364 Eh     change       -0.5530509E-10 Eh
   gradient norm :     0.0290234 Eh/α   predicted     0.0000000E+00 (-100.00%)
   displ. norm   :     0.1072317 α      lambda       -0.1278057E-02
   maximum displ.:     0.0527898 α      in ANC's #5, #6, #10, ...

........................................................................
.............................. CYCLE    2 ..............................
........................................................................

 iter      E             dE          RMSdq      gap      omega  full diag
   1    -17.9414098 -0.179414E+02  0.111E-01   12.31       0.0  T
   2    -17.9414173 -0.747806E-05  0.645E-02   12.31       1.0  T
   3    -17.9414179 -0.529952E-06  0.126E-02   12.31       2.1  T
   4    -17.9414182 -0.347010E-06  0.325E-03   12.31       7.9  T
   5    -17.9414182 -0.218234E-07  0.178E-03   12.31      14.5  T
   6    -17.9414182 -0.547875E-08  0.717E-04   12.31      36.0  T
   7    -17.9414182 -0.103199E-08  0.226E-04   12.31     114.0  T
     SCC iter.                  ...        0 min,  0.001 sec
     gradient                   ...        0 min,  0.002 sec
 * total energy  :   -17.7292606 Eh     change       -0.8242203E-03 Eh
   gradient norm :     0.0133334 Eh/α   predicted    -0.6463738E-03 ( -21.58%)
   displ. norm   :     0.0623463 α      lambda       -0.3100063E-03
   maximum displ.:     0.0345318 α      in ANC's #3, #1, #6, ...

........................................................................
.............................. CYCLE    3 ..............................
........................................................................

 iter      E             dE          RMSdq      gap      omega  full diag
   1    -17.9443436 -0.179443E+02  0.468E-02   12.57       0.0  T
   2    -17.9443484 -0.487689E-05  0.272E-02   12.57       1.0  T
   3    -17.9443488 -0.326669E-06  0.114E-02   12.57       2.3  T
   4    -17.9443489 -0.137774E-06  0.235E-03   12.57      11.0  T
   5    -17.9443489 -0.121048E-07  0.122E-03   12.57      21.1  T
   6    -17.9443489 -0.258576E-08  0.551E-04   12.57      46.9  T
   7    -17.9443489 -0.550934E-09  0.182E-04   12.57     141.9  T
     SCC iter.                  ...        0 min,  0.001 sec
     gradient                   ...        0 min,  0.002 sec
 * total energy  :   -17.7294369 Eh     change       -0.1762855E-03 Eh
   gradient norm :     0.0035663 Eh/α   predicted    -0.1556053E-03 ( -11.73%)
   displ. norm   :     0.0350336 α      lambda       -0.3697940E-04
   maximum displ.:     0.0252525 α      in ANC's #1, #3, #4, ...

........................................................................
.............................. CYCLE    4 ..............................
........................................................................

 iter      E             dE          RMSdq      gap      omega  full diag
   1    -17.9440489 -0.179440E+02  0.179E-02   12.63       0.0  T
   2    -17.9440492 -0.255411E-06  0.107E-02   12.63       2.4  T
   3    -17.9440492 -0.159192E-07  0.278E-03   12.63       9.3  T
   4    -17.9440492 -0.174538E-07  0.662E-04   12.63      39.0  T
   5    -17.9440492 -0.724945E-09  0.299E-04   12.63      86.5  T
     SCC iter.                  ...        0 min,  0.001 sec
     gradient                   ...        0 min,  0.002 sec
 * total energy  :   -17.7294619 Eh     change       -0.2501748E-04 Eh
   gradient norm :     0.0013271 Eh/α   predicted    -0.1851240E-04 ( -26.00%)
   displ. norm   :     0.0558573 α      lambda       -0.1473350E-04
   maximum displ.:     0.0458405 α      in ANC's #1, #4, #3, ...

........................................................................
.............................. CYCLE    5 ..............................
........................................................................

 iter      E             dE          RMSdq      gap      omega  full diag
   1    -17.9432711 -0.179433E+02  0.205E-02   12.66       0.0  T
   2    -17.9432712 -0.121264E-06  0.122E-02   12.66       2.1  T
   3    -17.9432712 -0.151039E-07  0.168E-03   12.67      15.4  T
   4    -17.9432712 -0.100903E-07  0.630E-04   12.67      41.0  T
   5    -17.9432712 -0.455529E-09  0.261E-04   12.67      99.0  T
     SCC iter.                  ...        0 min,  0.001 sec
     gradient                   ...        0 min,  0.002 sec
 * total energy  :   -17.7294730 Eh     change       -0.1108629E-04 Eh
   gradient norm :     0.0013798 Eh/α   predicted    -0.7377069E-05 ( -33.46%)
   displ. norm   :     0.0252293 α      lambda       -0.4532230E-05
   maximum displ.:     0.0228211 α      in ANC's #1, #4, #2, ...

........................................................................
.............................. CYCLE    6 ..............................
........................................................................

 iter      E             dE          RMSdq      gap      omega  full diag
   1    -17.9433082 -0.179433E+02  0.885E-03   12.66       0.0  T
   2    -17.9433083 -0.186238E-07  0.526E-03   12.66       4.9  T
   3    -17.9433083 -0.655245E-09  0.640E-04   12.66      40.3  T
   4    -17.9433083 -0.165261E-08  0.173E-04   12.66     149.2  T
     SCC iter.                  ...        0 min,  0.001 sec
     gradient                   ...        0 min,  0.002 sec
 * total energy  :   -17.7294788 Eh     change       -0.5797729E-05 Eh
   gradient norm :     0.0008569 Eh/α   predicted    -0.2268070E-05 ( -60.88%)
   displ. norm   :     0.0364380 α      lambda       -0.5254440E-05
   maximum displ.:     0.0330714 α      in ANC's #1, #2, #4, ...

........................................................................
.............................. CYCLE    7 ..............................
........................................................................

 iter      E             dE          RMSdq      gap      omega  full diag
   1    -17.9435893 -0.179436E+02  0.136E-02   12.64       0.0  T
   2    -17.9435893 -0.255322E-07  0.812E-03   12.64       3.2  T
   3    -17.9435893 -0.248549E-08  0.760E-04   12.64      34.0  T
   4    -17.9435893 -0.284362E-08  0.275E-04   12.64      94.0  T
     SCC iter.                  ...        0 min,  0.001 sec
     gradient                   ...        0 min,  0.002 sec
 * total energy  :   -17.7294846 Eh     change       -0.5828301E-05 Eh
   gradient norm :     0.0003121 Eh/α   predicted    -0.2629478E-05 ( -54.88%)
   displ. norm   :     0.0301313 α      lambda       -0.2478688E-05
   maximum displ.:     0.0283380 α      in ANC's #1, #2, #6, ...

........................................................................
.............................. CYCLE    8 ..............................
........................................................................

 iter      E             dE          RMSdq      gap      omega  full diag
   1    -17.9436228 -0.179436E+02  0.965E-03   12.64       0.0  T
   2    -17.9436228 -0.862063E-08  0.576E-03   12.64       4.5  T
   3    -17.9436228 -0.164512E-08  0.415E-04   12.64      62.2  T
   4    -17.9436228 -0.737518E-09  0.190E-04   12.64     135.6  T
     SCC iter.                  ...        0 min,  0.001 sec
     gradient                   ...        0 min,  0.002 sec
 * total energy  :   -17.7294877 Eh     change       -0.3043335E-05 Eh
   gradient norm :     0.0003281 Eh/α   predicted    -0.1241349E-05 ( -59.21%)
   displ. norm   :     0.0187255 α      lambda       -0.1351040E-05
   maximum displ.:     0.0181858 α      in ANC's #1, #2, #3, ...

........................................................................
.............................. CYCLE    9 ..............................
........................................................................

 iter      E             dE          RMSdq      gap      omega  full diag
   1    -17.9436207 -0.179436E+02  0.611E-03   12.64       0.0  T
   2    -17.9436207 -0.183940E-08  0.366E-03   12.64       7.0  T
   3    -17.9436207 -0.849909E-09  0.189E-04   12.64     136.3  T
   4    -17.9436207 -0.707132E-10  0.119E-04   12.64     216.4  T
     SCC iter.                  ...        0 min,  0.001 sec
     gradient                   ...        0 min,  0.002 sec
 * total energy  :   -17.7294895 Eh     change       -0.1849901E-05 Eh
   gradient norm :     0.0002657 Eh/α   predicted    -0.6747980E-06 ( -63.52%)
   displ. norm   :     0.0157586 α      lambda       -0.1119231E-05
   maximum displ.:     0.0152480 α      in ANC's #1, #2, #3, ...

........................................................................
.............................. CYCLE   10 ..............................
........................................................................

 iter      E             dE          RMSdq      gap      omega  full diag
   1    -17.9436034 -0.179436E+02  0.491E-03   12.64       0.0  T
   2    -17.9436034 -0.198374E-08  0.296E-03   12.64       8.7  T
   3    -17.9436034 -0.640988E-09  0.190E-04   12.64     136.2  T
   4    -17.9436034 -0.117044E-09  0.109E-04   12.64     236.7  T
     SCC iter.                  ...        0 min,  0.001 sec
     gradient                   ...        0 min,  0.002 sec
 * total energy  :   -17.7294911 Eh     change       -0.1550200E-05 Eh
   gradient norm :     0.0001469 Eh/α   predicted    -0.5583235E-06 ( -63.98%)
   displ. norm   :     0.0168022 α      lambda       -0.1061555E-05
   maximum displ.:     0.0156827 α      in ANC's #1, #4, #2, ...

........................................................................
.............................. CYCLE   11 ..............................
........................................................................

 iter      E             dE          RMSdq      gap      omega  full diag
   1    -17.9435686 -0.179436E+02  0.534E-03   12.65       0.0  T
   2    -17.9435686 -0.143216E-08  0.321E-03   12.65       8.0  T
   3    -17.9435686 -0.800515E-09  0.178E-04   12.65     145.3  T
   4    -17.9435686 -0.483666E-10  0.112E-04   12.65     230.2  T
     SCC iter.                  ...        0 min,  0.001 sec
     gradient                   ...        0 min,  0.002 sec
 * total energy  :   -17.7294925 Eh     change       -0.1455510E-05 Eh
   gradient norm :     0.0001153 Eh/α   predicted    -0.5319580E-06 ( -63.45%)
   displ. norm   :     0.0174360 α      lambda       -0.9286664E-06
   maximum displ.:     0.0160952 α      in ANC's #1, #4, #2, ...

........................................................................
.............................. CYCLE   12 ..............................
........................................................................

 iter      E             dE          RMSdq      gap      omega  full diag
   1    -17.9435682 -0.179436E+02  0.547E-03   12.65       0.0  T
   2    -17.9435682 -0.154918E-08  0.330E-03   12.65       7.8  T
   3    -17.9435682 -0.793378E-09  0.171E-04   12.65     151.1  T
   4    -17.9435682 -0.335731E-10  0.103E-04   12.65     251.9  T
     SCC iter.                  ...        0 min,  0.001 sec
     gradient                   ...        0 min,  0.002 sec
 * total energy  :   -17.7294938 Eh     change       -0.1236849E-05 Eh
   gradient norm :     0.0000950 Eh/α   predicted    -0.4630927E-06 ( -62.56%)
   displ. norm   :     0.0152564 α      lambda       -0.6562931E-06
   maximum displ.:     0.0142673 α      in ANC's #1, #4, #2, ...

........................................................................
.............................. CYCLE   13 ..............................
........................................................................

 iter      E             dE          RMSdq      gap      omega  full diag
   1    -17.9435607 -0.179436E+02  0.484E-03   12.65       0.0  T
   2    -17.9435607 -0.896200E-09  0.291E-03   12.65       8.9  T
   3    -17.9435607 -0.579362E-09  0.146E-04   12.65     176.8  T
   4    -17.9435607 -0.259881E-10  0.885E-05   12.65     291.7  T
     SCC iter.                  ...        0 min,  0.001 sec
     gradient                   ...        0 min,  0.002 sec
 * total energy  :   -17.7294946 Eh     change       -0.8691764E-06 Eh
   gradient norm :     0.0000835 Eh/α   predicted    -0.3264207E-06 ( -62.44%)
   displ. norm   :     0.0114966 α      lambda       -0.4193897E-06
   maximum displ.:     0.0111061 α      in ANC's #1, #4, #2, ...

........................................................................
.............................. CYCLE   14 ..............................
........................................................................

 iter      E             dE          RMSdq      gap      omega  full diag
   1    -17.9435673 -0.179436E+02  0.335E-03   12.65       0.0  T
   2    -17.9435673 -0.559147E-09  0.201E-03   12.65      12.8  T
   3    -17.9435673 -0.210044E-09  0.963E-05   12.65     268.2  T
   4    -17.9435673 -0.209965E-10  0.593E-05   12.65     435.2  T
     SCC iter.                  ...        0 min,  0.001 sec
     gradient                   ...        0 min,  0.002 sec
 * total energy  :   -17.7294952 Eh     change       -0.5728078E-06 Eh
   gradient norm :     0.0000782 Eh/α   predicted    -0.2102497E-06 ( -63.29%)
   displ. norm   :     0.0087883 α      lambda       -0.2988236E-06
   maximum displ.:     0.0086534 α      in ANC's #1, #4, #6, ...

........................................................................
.............................. CYCLE   15 ..............................
........................................................................

 iter      E             dE          RMSdq      gap      omega  full diag
   1    -17.9435720 -0.179436E+02  0.271E-03   12.65       0.0  T
   2    -17.9435720 -0.254172E-09  0.162E-03   12.65      15.9  T
   3    -17.9435720 -0.156987E-09  0.749E-05   12.65     344.7  T
   4    -17.9435720 -0.750688E-11  0.462E-05   12.65     559.1  T
     SCC iter.                  ...        0 min,  0.001 sec
     gradient                   ...        0 min,  0.002 sec
 * total energy  :   -17.7294956 Eh     change       -0.4133156E-06 Eh
   gradient norm :     0.0000612 Eh/α   predicted    -0.1473306E-06 ( -64.35%)
   displ. norm   :     0.0075768 α      lambda       -0.2365837E-06
   maximum displ.:     0.0074421 α      in ANC's #1, #6, #5, ...

........................................................................
.............................. CYCLE   16 ..............................
........................................................................

 iter      E             dE          RMSdq      gap      omega  full diag
   1    -17.9435731 -0.179436E+02  0.221E-03   12.65       0.0  T
   2    -17.9435731 -0.201478E-09  0.133E-03   12.65      19.5  T
   3    -17.9435731 -0.993552E-10  0.616E-05   12.65     418.9  T
   4    -17.9435731 -0.668621E-11  0.383E-05   12.65     674.6  T
     SCC iter.                  ...        0 min,  0.001 sec
     gradient                   ...        0 min,  0.002 sec
 * total energy  :   -17.7294960 Eh     change       -0.3323517E-06 Eh
   gradient norm :     0.0000490 Eh/α   predicted    -0.1181771E-06 ( -64.44%)
   displ. norm   :     0.0070911 α      lambda       -0.1965556E-06
   maximum displ.:     0.0068919 α      in ANC's #1, #6, #4, ...

........................................................................
.............................. CYCLE   17 ..............................
........................................................................

 iter      E             dE          RMSdq      gap      omega  full diag
   1    -17.9435749 -0.179436E+02  0.215E-03   12.65       0.0  T
   2    -17.9435749 -0.194557E-09  0.129E-03   12.65      20.1  T
   3    -17.9435749 -0.105079E-09  0.609E-05   12.65     424.1  T
   4    -17.9435749 -0.388312E-11  0.368E-05   12.65     702.2  T
     SCC iter.                  ...        0 min,  0.001 sec
     gradient                   ...        0 min,  0.002 sec
 * total energy  :   -17.7294962 Eh     change       -0.2734584E-06 Eh
   gradient norm :     0.0000386 Eh/α   predicted    -0.9860450E-07 ( -63.94%)
   displ. norm   :     0.0064249 α      lambda       -0.1528120E-06
   maximum displ.:     0.0062412 α      in ANC's #1, #4, #6, ...

........................................................................
.............................. CYCLE   18 ..............................
........................................................................

 iter      E             dE          RMSdq      gap      omega  full diag
   1    -17.9435775 -0.179436E+02  0.192E-03   12.65       0.0  T
   2    -17.9435775 -0.148603E-09  0.115E-03   12.65      22.4  T
   3    -17.9435775 -0.762093E-10  0.541E-05   12.65     477.5  T
   4    -17.9435775 -0.470379E-11  0.331E-05   12.65     779.6  T
     SCC iter.                  ...        0 min,  0.001 sec
     gradient                   ...        0 min,  0.002 sec
 * total energy  :   -17.7294965 Eh     change       -0.2108292E-06 Eh
   gradient norm :     0.0000338 Eh/α   predicted    -0.7662952E-07 ( -63.65%)
   displ. norm   :     0.0054605 α      lambda       -0.1120788E-06
   maximum displ.:     0.0053493 α      in ANC's #1, #4, #6, ...

........................................................................
.............................. CYCLE   19 ..............................
........................................................................

 iter      E             dE          RMSdq      gap      omega  full diag
   1    -17.9435765 -0.179436E+02  0.165E-03   12.65       0.0  T
   2    -17.9435765 -0.113321E-09  0.985E-04   12.65      26.2  T
   3    -17.9435765 -0.580975E-10  0.463E-05   12.65     557.8  T
     SCC iter.                  ...        0 min,  0.000 sec
     gradient                   ...        0 min,  0.002 sec
 * total energy  :   -17.7294966 Eh     change       -0.1545921E-06 Eh
   gradient norm :     0.0000320 Eh/α   predicted    -0.5597157E-07 ( -63.79%)
   displ. norm   :     0.0045793 α      lambda       -0.7971168E-07
   maximum displ.:     0.0045316 α      in ANC's #1, #4, #6, ...

........................................................................
.............................. CYCLE   20 ..............................
........................................................................

 iter      E             dE          RMSdq      gap      omega  full diag
   1    -17.9435780 -0.179436E+02  0.139E-03   12.65       0.0  T
   2    -17.9435780 -0.750262E-10  0.833E-04   12.65      31.0  T
   3    -17.9435780 -0.407958E-10  0.393E-05   12.65     657.5  T
     SCC iter.                  ...        0 min,  0.000 sec
     gradient                   ...        0 min,  0.002 sec
 * total energy  :   -17.7294967 Eh     change       -0.1161734E-06 Eh
   gradient norm :     0.0000291 Eh/α   predicted    -0.4147414E-07 ( -64.30%)
   displ. norm   :     0.0039567 α      lambda       -0.6170289E-07
   maximum displ.:     0.0039356 α      in ANC's #1, #7, #3, ...
 * RMSD in coord.:     0.0984568 α      energy gain  -0.1060314E-02 Eh

generating ANC from exact Hessian ...
Using Lindh-Hessian (1995)
 Shifting diagonal of input Hessian by   6.684175249483977E-003
 Lowest  eigenvalues of input Hessian
    0.000000    0.000000    0.000000    0.000000    0.000000    0.000000
    0.010000    0.011464    0.014139    0.017693    0.021516    0.028330
    0.047071    0.052962    0.059197    0.060833    0.062018    0.064961
 Highest eigenvalues
    1.156621    1.192917    1.212254    1.261853    1.292095    1.484291
 

........................................................................
.............................. CYCLE   21 ..............................
........................................................................

 iter      E             dE          RMSdq      gap      omega  full diag
   1    -17.9435777 -0.179436E+02  0.116E-03   12.65       0.0  T
   2    -17.9435777 -0.594582E-10  0.696E-04   12.65      37.1  T
   3    -17.9435777 -0.358789E-10  0.363E-05   12.65     710.6  T
     SCC iter.                  ...        0 min,  0.001 sec
     gradient                   ...        0 min,  0.002 sec
 * total energy  :   -17.7294968 Eh     change       -0.9161442E-07 Eh
   gradient norm :     0.0000259 Eh/α   predicted     0.0000000E+00 (-100.00%)
   displ. norm   :     0.0032483 α      lambda       -0.4928470E-07
   maximum displ.:     0.0032242 α      in ANC's #1, #4, #2, ...

   *** GEOMETRY OPTIMIZATION CONVERGED AFTER 21 ITERATIONS ***

------------------------------------------------------------------------
 total energy gain   :        -0.0010604 Eh       -0.6654 kcal/mol
 total RMSD          :         0.0984568 a0        0.0521 Å
 total power (kW/mol):        -0.1325760 (step)  -28.6327 (real)
------------------------------------------------------------------------

 ANCopt (total)                0 d,  0 h,  0 min,  0.097 sec
 optimizer setup                ...        0 min,  0.000 sec (  0.304%)
 model hessian                  ...        0 min,  0.005 sec (  5.335%)
 ANC generation                 ...        0 min,  0.000 sec (  0.399%)
 coordinate transformation      ...        0 min,  0.000 sec (  0.078%)
 single point calculation       ...        0 min,  0.083 sec ( 85.616%)
 optimization log               ...        0 min,  0.005 sec (  5.536%)
 hessian update                 ...        0 min,  0.000 sec (  0.083%)
 rational function              ...        0 min,  0.002 sec (  1.966%)

================
 final structure:
================
$coord
        4.57056392221756       -0.53529684618058       -0.31399071801363      C
        1.92940261434751        0.54495440022829       -0.69718198439310      C
        0.13342888880575       -0.22307795473255        1.42807881505935      C
       -2.55822030409309        0.71900386707613        0.95949764998303      C
       -3.67620445376442       -0.32392017067607       -1.22844494377708      O
        5.36629889498717        0.12745379102784        1.46156773256525      H
        4.51349365879695       -2.58945938798699       -0.27129811610683      H
        5.81372585554298        0.04746497027432       -1.84175919131315      H
        2.03045217135440        2.60462910850035       -0.78146891488910      H
        1.15949750836438       -0.11114847945492       -2.49576925406834      H
        0.11453430949050       -2.28078365848452        1.60116849125925      H
        0.79282922722982        0.55833810010147        3.21847445651644      H
       -3.74241226441906        0.32209057546439        2.61851453622669      H
       -2.54917546923364        2.75953581349049        0.64167793790479      H
       -3.76603345448044       -2.13972562257302       -1.03632935107248      H
$end
 
 Bond Distances (Angstroems)
 ---------------------------
C1-C2=1.5236         C1-H6=1.0877         C1-H7=1.0877         C1-H8=1.0870         C2-C1=1.5236         C2-C3=1.5275         
C2-H9=1.0922         C2-H10=1.0920        C3-C2=1.5275         C3-C4=1.5293         C3-H11=1.0928        C3-H12=1.0910        
C4-C3=1.5293         C4-O5=1.4125         C4-H13=1.0989        C4-H14=1.0928        O5-C4=1.4125         O5-H15=0.9674        
H6-C1=1.0877         H7-C1=1.0877         H8-C1=1.0870         H9-C2=1.0922         H10-C2=1.0920        H11-C3=1.0928        
H12-C3=1.0910        H13-C4=1.0989        H14-C4=1.0928        H15-O5=0.9674        
 C  H  Rav=1.0913 sigma=0.0035  Rmin=1.0870  Rmax=1.0989     9
 C  C  Rav=1.5268 sigma=0.0024  Rmin=1.5236  Rmax=1.5293     3
 O  H  Rav=0.9674 sigma=0.0000  Rmin=0.9674  Rmax=0.9674     1
 O  C  Rav=1.4125 sigma=0.0000  Rmin=1.4125  Rmax=1.4125     1
 
 selected bond angles (degree)
 --------------------
H6-C1-C2=110.43                H7-C1-C2=110.63                H7-C1-H6=108.36                H8-C1-C2=110.47                
H8-C1-H6=108.46                H8-C1-H7=108.41                C3-C2-C1=111.90                H9-C2-C1=109.57                
H9-C2-C3=109.03                H10-C2-C1=109.81               H10-C2-C3=108.97               H10-C2-H9=107.46               
C4-C3-C2=111.92                H11-C3-C2=109.42               H11-C3-C4=109.26               H12-C3-C2=109.85               
H12-C3-C4=108.37               H12-C3-H11=107.93              O5-C4-C3=113.31                H13-C4-C3=109.83               
H13-C4-O5=109.96               H14-C4-C3=110.06               H14-C4-O5=105.17               H14-C4-H13=108.32              
H15-O5-C4=108.82               
 
 selected dihedral angles (degree)
 ---------------------------------
C3-C2-C1-H6=300.37            C3-C2-C1-H7= 60.33            C3-C2-C1-H8=180.38            H9-C2-C1-H6= 61.42            
H9-C2-C1-H7=181.38            H9-C2-C1-H8=301.43            H10-C2-C1-H6=179.23           H10-C2-C1-H7=299.19           
H10-C2-C1-H8= 59.24           C4-C3-C2-C1=183.63            C4-C3-C2-H9= 62.27            C4-C3-C2-H10=305.26           
H11-C3-C2-C1=304.90           H11-C3-C2-H9=183.53           H11-C3-C2-H10= 66.53          H12-C3-C2-C1= 63.21           
H12-C3-C2-H9=301.84           H12-C3-C2-H10=184.84          O5-C4-C3-C2= 63.01            O5-C4-C3-H11=301.65           
O5-C4-C3-H12=184.29           H13-C4-C3-C2=186.41           H13-C4-C3-H11= 65.05          H13-C4-C3-H12=307.69          
H14-C4-C3-C2=305.58           H14-C4-C3-H11=184.22          H14-C4-C3-H12= 66.86          H15-O5-C4-C3= 60.91           
H15-O5-C4-H13=297.58          H15-O5-C4-H14=181.16          
           -------------------------------------------------
          |                Final Singlepoint                |
           -------------------------------------------------

          ...................................................
          :                      SETUP                      :
          :.................................................:
          :  # basis functions                  30          :
          :  # atomic orbitals                  30          :
          :  # shells                           20          :
          :  # electrons                        32          :
          :  max. iterations                   250          :
          :  Hamiltonian                  GFN2-xTB          :
          :  restarted?                      false          :
          :  GBSA solvation                   true          :
          :  PC potential                    false          :
          :  electronic temp.          300.0000000     K    :
          :  accuracy                    1.0000000          :
          :  -> integral cutoff          0.2500000E+02      :
          :  -> integral neglect         0.1000000E-07      :
          :  -> SCF convergence          0.1000000E-05 Eh   :
          :  -> wf. convergence          0.1000000E-03 e    :
          :  Broyden damping             0.4000000          :
          :  net charge                          0          :
          :  unpaired electrons                  0          :
          ...................................................

 iter      E             dE          RMSdq      gap      omega  full diag
   1    -17.9435777 -0.179436E+02  0.229E-05   12.65       0.0  T
   2    -17.9435777 -0.532907E-12  0.154E-05   12.65    1675.6  T
   3    -17.9435777 -0.458300E-12  0.331E-06   12.65    7792.0  T

   *** convergence criteria satisfied after 3 iterations ***

         #    Occupation            Energy/Eh            Energy/eV
      -------------------------------------------------------------
         1        2.0000           -0.6871418             -18.6981
       ...           ...                  ...                  ...
        10        2.0000           -0.4851132             -13.2006
        11        2.0000           -0.4579253             -12.4608
        12        2.0000           -0.4558074             -12.4032
        13        2.0000           -0.4461631             -12.1407
        14        2.0000           -0.4307362             -11.7209
        15        2.0000           -0.4232612             -11.5175
        16        2.0000           -0.4073995             -11.0859 (HOMO)
        17                          0.0574484               1.5633 (LUMO)
        18                          0.0771559               2.0995
        19                          0.1182188               3.2169
        20                          0.1286410               3.5005
        21                          0.1532793               4.1709
       ...                                ...                  ...
        30                          0.3087985               8.4028
      -------------------------------------------------------------
                  HL-Gap            0.4648479 Eh           12.6492 eV
             Fermi-level           -0.1749755 Eh           -4.7613 eV

 SCC (total)                   0 d,  0 h,  0 min,  0.004 sec
 SCC setup                      ...        0 min,  0.001 sec ( 16.398%)
 Dispersion                     ...        0 min,  0.000 sec (  0.793%)
 classical contributions        ...        0 min,  0.000 sec (  0.290%)
 integral evaluation            ...        0 min,  0.001 sec ( 16.744%)
 iterations                     ...        0 min,  0.001 sec ( 16.429%)
 molecular gradient             ...        0 min,  0.002 sec ( 46.933%)
 printout                       ...        0 min,  0.000 sec (  2.116%)

         :::::::::::::::::::::::::::::::::::::::::::::::::::::
         ::                     SUMMARY                     ::
         :::::::::::::::::::::::::::::::::::::::::::::::::::::
         :: total energy             -17.729496813186 Eh    ::
         :: total w/o Gsasa/hb       -17.725692151975 Eh    ::
         :: gradient norm              0.000026237676 Eh/a0 ::
         :: HOMO-LUMO gap             12.649154854356 eV    ::
         ::.................................................::
         :: SCC energy               -17.943568239023 Eh    ::
         :: -> isotropic ES            0.035249289120 Eh    ::
         :: -> anisotropic ES          0.003292720106 Eh    ::
         :: -> anisotropic XC          0.006159565230 Eh    ::
         :: -> dispersion             -0.007026820210 Eh    ::
         :: -> Gsolv                  -0.008388148238 Eh    ::
         ::    -> Gelec               -0.004583487026 Eh    ::
         ::    -> Gsasa                0.000587473323 Eh    ::
         ::    -> Ghb                 -0.005472894233 Eh    ::
         ::    -> Gshift               0.001080759698 Eh    ::
         :: repulsion energy           0.214071425837 Eh    ::
         :: add. restraining           0.000000000000 Eh    ::
         :: total charge              -0.000000000000 e     ::
         :::::::::::::::::::::::::::::::::::::::::::::::::::::

           ------------------------------------------------- 
          |                Numerical Hessian                |
           ------------------------------------------------- 
step length          :   0.00500
SCC accuracy         :   0.30000
Hessian scale factor :   1.00000
frozen atoms in %    :   0.00000    0
RMS gradient         :   0.00003
estimated CPU  time      0.01 min
estimated wall time      0.01 min

writing file <hessian>.

 projected vibrational frequencies (cm⁻¹)
eigval :        0.00     0.00     0.00     0.00     0.00     0.00
eigval :       82.87   123.44   232.15   242.15   332.57   347.23
eigval :      515.35   780.46   869.40   884.66   958.53   986.37
eigval :     1061.09  1083.84  1107.56  1134.36  1196.58  1236.19
eigval :     1278.85  1291.47  1304.07  1338.40  1365.85  1411.73
eigval :     1472.20  1478.48  1496.38  1500.18  1501.95  2870.23
eigval :     2960.20  2968.41  2974.26  2984.55  2987.81  3025.61
eigval :     3029.99  3040.35  3493.52
           -------------------------------------------------
          |                Property Printout                |
           -------------------------------------------------

    * Orbital Energies and Occupations

         #    Occupation            Energy/Eh            Energy/eV
      -------------------------------------------------------------
         1        2.0000           -0.6871418             -18.6981
       ...           ...                  ...                  ...
         4        2.0000           -0.5878394             -15.9959
         5        2.0000           -0.5652061             -15.3800
         6        2.0000           -0.5421255             -14.7520
         7        2.0000           -0.5302948             -14.4301
         8        2.0000           -0.5161161             -14.0442
         9        2.0000           -0.4993838             -13.5889
        10        2.0000           -0.4851132             -13.2006
        11        2.0000           -0.4579253             -12.4608
        12        2.0000           -0.4558074             -12.4032
        13        2.0000           -0.4461632             -12.1407
        14        2.0000           -0.4307362             -11.7209
        15        2.0000           -0.4232613             -11.5175
        16        2.0000           -0.4073995             -11.0859 (HOMO)
        17                          0.0574484               1.5633 (LUMO)
        18                          0.0771559               2.0995
        19                          0.1182188               3.2169
        20                          0.1286410               3.5005
        21                          0.1532793               4.1709
        22                          0.1600421               4.3550
        23                          0.1753442               4.7714
        24                          0.1827749               4.9736
        25                          0.1901122               5.1732
        26                          0.2366004               6.4382
        27                          0.2480819               6.7507
       ...                                ...                  ...
        30                          0.3087985               8.4028
      -------------------------------------------------------------
                  HL-Gap            0.4648479 Eh           12.6492 eV
             Fermi-level           -0.1749755 Eh           -4.7613 eV

     #   Z          covCN         q      C6AA      α(0)
     1   6 C        3.752    -0.113    22.723     6.798
     2   6 C        3.801    -0.057    21.608     6.618
     3   6 C        3.801    -0.076    21.954     6.671
     4   6 C        3.674     0.078    19.497     6.327
     5   8 O        1.654    -0.518    23.273     6.512
     6   1 H        0.925     0.038     2.474     2.460
     7   1 H        0.925     0.038     2.470     2.458
     8   1 H        0.925     0.039     2.462     2.454
     9   1 H        0.924     0.031     2.566     2.505
    10   1 H        0.924     0.040     2.450     2.448
    11   1 H        0.924     0.043     2.412     2.429
    12   1 H        0.924     0.041     2.437     2.441
    13   1 H        0.923     0.021     2.722     2.580
    14   1 H        0.924     0.042     2.418     2.432
    15   1 H        0.805     0.352     0.583     1.200

 Mol. C6AA /au·bohr⁶  :       1460.515459
 Mol. C8AA /au·bohr⁸  :      29904.565991
 Mol. α(0) /au        :         56.331347


Wiberg/Mayer (AO) data.
largest (>0.10) Wiberg bond orders for each atom

 ---------------------------------------------------------------------------
     #   Z sym  total        # sym  WBO       # sym  WBO       # sym  WBO
 ---------------------------------------------------------------------------
     1   6 C    3.996 --     2 C    1.019     6 H    0.988     7 H    0.988
                             8 H    0.987
     2   6 C    3.997 --     1 C    1.019     3 C    1.009     9 H    0.978
                            10 H    0.977
     3   6 C    3.996 --     2 C    1.009     4 C    0.998    12 H    0.976
                            11 H    0.975
     4   6 C    3.953 --     3 C    0.998     5 O    0.994    14 H    0.973
                            13 H    0.971
     5   8 O    1.913 --     4 C    0.994    15 H    0.862
     6   1 H    0.999 --     1 C    0.988
     7   1 H    0.999 --     1 C    0.988
     8   1 H    0.998 --     1 C    0.987
     9   1 H    0.999 --     2 C    0.978
    10   1 H    0.998 --     2 C    0.977
    11   1 H    0.998 --     3 C    0.975
    12   1 H    0.998 --     3 C    0.976
    13   1 H    0.999 --     4 C    0.971
    14   1 H    0.998 --     4 C    0.973
    15   1 H    0.876 --     5 O    0.862
 ---------------------------------------------------------------------------

Topologies differ in total number of bonds
Writing topology from bond orders to xtbtopo.mol

molecular dipole:
                 x           y           z       tot (Debye)
 q only:        0.305      -0.450       0.444
   full:        0.318      -0.552       0.579       2.187
molecular quadrupole (traceless):
                xx          xy          yy          xz          yz          zz
 q only:       -1.705       2.593       2.296      -2.133       0.965      -0.591
  q+dip:       -3.020       3.517       3.990      -3.286       0.881      -0.971
   full:       -2.718       3.452       3.649      -3.054       1.031      -0.930

           -------------------------------------------------
          |                Geometry Summary                 |
           -------------------------------------------------

      molecular mass/u    :       74.1217560
   center of mass at/Å    :       -0.0004336       0.0013045       0.0001196
  moments of inertia/u·Å² :        0.4109874E+02   0.2129977E+03   0.2293283E+03
rotational constants/cm⁻¹ :        0.4101739E+00   0.7914467E-01   0.7350872E-01

 * 14 selected distances

     #   Z          #   Z                                           value/Å
     1   6 C        2   6 C                                       1.5235813
     2   6 C        3   6 C                                       1.5274928
     3   6 C        4   6 C                                       1.5293188 (max)
     4   6 C        5   8 O                                       1.4124842
     1   6 C        6   1 H                                       1.0877187
     1   6 C        7   1 H                                       1.0876702
     1   6 C        8   1 H                                       1.0869589
     2   6 C        9   1 H                                       1.0921551
     2   6 C       10   1 H                                       1.0919712
     3   6 C       11   1 H                                       1.0927824
     3   6 C       12   1 H                                       1.0910470
     4   6 C       13   1 H                                       1.0988793
     4   6 C       14   1 H                                       1.0928326
     5   8 O       15   1 H                                       0.9674146 (min)

 * 4 distinct bonds (by element types)

   Z      Z             #   av. dist./Å        max./Å        min./Å
   1 H    6 C           9     1.0913351     1.0988793     1.0869589
   6 C    6 C           3     1.5267976     1.5293188     1.5235813
   1 H    8 O           1     0.9674146     0.9674146     0.9674146
   6 C    8 O           1     1.4124842     1.4124842     1.4124842

           -------------------------------------------------
          |               Frequency Printout                |
           -------------------------------------------------
 projected vibrational frequencies (cm⁻¹)
eigval :        0.00     0.00     0.00     0.00     0.00     0.00
eigval :       82.87   123.44   232.15   242.15   332.57   347.23
eigval :      515.35   780.46   869.40   884.66   958.53   986.37
eigval :     1061.09  1083.84  1107.56  1134.36  1196.58  1236.19
eigval :     1278.85  1291.47  1304.07  1338.40  1365.85  1411.73
eigval :     1472.20  1478.48  1496.38  1500.18  1501.95  2870.23
eigval :     2960.20  2968.41  2974.26  2984.55  2987.81  3025.61
eigval :     3029.99  3040.35  3493.52
 reduced masses (amu)
   1:  9.92   2: 10.99   3: 11.86   4: 10.50   5: 10.70   6:  9.97   7:  8.16   8:  8.85
   9:  2.55  10:  6.93  11:  4.65  12:  7.61  13:  8.99  14:  2.41  15:  5.02  16:  6.18
  17:  5.08  18:  6.40  19:  2.74  20: 10.17  21:  9.20  22:  7.29  23:  5.42  24:  3.82
  25:  2.11  26:  3.79  27:  3.11  28:  3.36  29:  5.22  30:  3.23  31:  1.83  32:  1.97
  33:  1.80  34:  1.53  35:  1.68  36:  1.75  37:  1.84  38:  1.88  39:  1.75  40:  1.53
  41:  1.60  42:  1.95  43:  1.85  44:  1.34  45:  1.88
 IR intensities (km·mol⁻¹)
   1:  1.91   2:  0.37   3:  0.09   4:  0.04   5:  0.83   6:  2.05   7:  0.45   8:  1.42
   9:  0.58  10: 30.92  11:101.63  12: 94.21  13: 21.22  14:  7.01  15:  4.42  16:  6.82
  17: 46.92  18: 16.51  19: 42.41  20: 45.45  21: 47.52  22:  8.26  23: 15.68  24:  5.15
  25:  3.71  26: 34.16  27: 20.40  28: 56.75  29:  1.01  30:  0.27  31:  2.05  32:  0.68
  33:  0.68  34:  1.46  35:  0.41  36:125.29  37:  2.58  38: 40.84  39:151.57  40: 25.55
  41:106.27  42: 91.22  43: 84.29  44: 45.66  45: 60.38
 Raman intensities (Ä⁴*amu⁻¹)
   1:  0.00   2:  0.00   3:  0.00   4:  0.00   5:  0.00   6:  0.00   7:  0.00   8:  0.00
   9:  0.00  10:  0.00  11:  0.00  12:  0.00  13:  0.00  14:  0.00  15:  0.00  16:  0.00
  17:  0.00  18:  0.00  19:  0.00  20:  0.00  21:  0.00  22:  0.00  23:  0.00  24:  0.00
  25:  0.00  26:  0.00  27:  0.00  28:  0.00  29:  0.00  30:  0.00  31:  0.00  32:  0.00
  33:  0.00  34:  0.00  35:  0.00  36:  0.00  37:  0.00  38:  0.00  39:  0.00  40:  0.00
  41:  0.00  42:  0.00  43:  0.00  44:  0.00  45:  0.00
 output can be read by thermo (or use thermo option).
 writing <g98.out> molden fake output.
 recommended (thermochemical) frequency scaling factor: 1.0
           -------------------------------------------------
          |             Thermodynamic Functions             |
           -------------------------------------------------

Molecule has no symmetry elements
It seems to be the C1 point group
c1  symmetry found (for desy threshold:  0.10E+00) used in thermo

          ...................................................
          :                      SETUP                      :
          :.................................................:
          :  # frequencies                          39      :
          :  # imaginary freq.                       0      :
          :  linear?                             false      :
          :  only rotor calc.                    false      :
          :  symmetry                               c1      :
          :  rotational number                       1      :
          :  scaling factor                  1.0000000      :
          :  rotor cutoff                    0.0000000 cm⁻¹ :
          :  imag. cutoff                 -100.0000000 cm⁻¹ :
          :.................................................:

    mode    ω/cm⁻¹     T·S(HO)/kcal·mol⁻¹    T·S(FR)/kcal·mol⁻¹   T·S(vib)
   ------------------------------------------------------------------------
       1     82.87    -1.13947 (100.00%)    -0.90651 (  0.00%)    -1.13947
       2    123.44    -0.90808 (100.00%)    -0.78857 (  0.00%)    -0.90808
       3    232.15    -0.55524 (100.00%)    -0.60158 (  0.00%)    -0.55524
       4    242.15    -0.53280 (100.00%)    -0.58909 (  0.00%)    -0.53280
   ------------------------------------------------------------------------

   temp. (K)  partition function   enthalpy   heat capacity  entropy
                                   cal/mol     cal/K/mol   cal/K/mol   J/K/mol
 298.15  VIB   27.3                 2465.894     17.153     14.843
         ROT  0.108E+06              888.752      2.981     26.017
         INT  0.296E+07             3354.646     20.134     40.860
         TR   0.617E+27             1481.254      4.968     38.808
         TOT                        4835.9000    25.1024    79.6682   333.3319

       T/K    H(0)-H(T)+PV         H(T)/Eh          T*S/Eh         G(T)/Eh
   ------------------------------------------------------------------------
    298.15    0.770650E-02    0.142003E+00    0.378530E-01    0.104150E+00
   ------------------------------------------------------------------------

         :::::::::::::::::::::::::::::::::::::::::::::::::::::
         ::                  THERMODYNAMIC                  ::
         :::::::::::::::::::::::::::::::::::::::::::::::::::::
         :: total free energy         -17.625346982597 Eh   ::
         ::.................................................::
         :: total energy              -17.729496813170 Eh   ::
         :: zero point energy           0.134296286105 Eh   ::
         :: G(RRHO) w/o ZPVE           -0.030146455531 Eh   ::
         :: G(RRHO) contrib.            0.104149830573 Eh   ::
         :::::::::::::::::::::::::::::::::::::::::::::::::::::

optimized geometry written to: xtbopt.coord


           -------------------------------------------------
          | TOTAL ENERGY              -17.729496813170 Eh   |
          | TOTAL ENTHALPY            -17.587494029849 Eh   |
          | TOTAL FREE ENERGY         -17.625346982597 Eh   |
          | GRADIENT NORM               0.000026265241 Eh/α |
          | HOMO-LUMO GAP              12.649154657607 eV   |
           -------------------------------------------------

------------------------------------------------------------------------
 * finished run on 2025/04/06 at 22:38:51.180     
------------------------------------------------------------------------
 total:
 * wall-time:     0 d,  0 h,  0 min,  0.556 sec
 *  cpu-time:     0 d,  0 h,  0 min,  0.476 sec
 * ratio c/w:     0.856 speedup
 SCF:
 * wall-time:     0 d,  0 h,  0 min,  0.020 sec
 *  cpu-time:     0 d,  0 h,  0 min,  0.007 sec
 * ratio c/w:     0.351 speedup
 ANC optimizer:
 * wall-time:     0 d,  0 h,  0 min,  0.112 sec
 *  cpu-time:     0 d,  0 h,  0 min,  0.098 sec
 * ratio c/w:     0.872 speedup
 analytical hessian:
 * wall-time:     0 d,  0 h,  0 min,  0.371 sec
 *  cpu-time:     0 d,  0 h,  0 min,  0.363 sec
 * ratio c/w:     0.979 speedup

