15
 xtb: 6.7.1 (edcfbbe)
C            1.62638271033402       -0.83376974880937        0.43518197206290
C            1.32912948734074        0.58197471002875       -0.05583402097502
C           -0.00175829510850        0.75361092054180       -0.79476793553492
C           -1.25461127964555        0.51666457293793        0.03159128276109
O           -1.50019051071501       -0.90285650037422        0.15648859037612
H            1.56753618552203       -1.55696946287188       -0.38660105804730
H            2.63512323420013       -0.89101709322932        0.85827218158714
H            0.92311736611966       -1.15045767921575        1.21063728046920
H            1.35197157800902        1.27561436526435        0.79523703879472
H            2.13385215481431        0.89858417115858       -0.73117727247173
H           -0.05617236877260        1.78231225641376       -1.17166669879465
H           -0.03541796013335        0.09847027144799       -1.67641361577070
H           -1.14323524317366        0.96858329425337        1.02895585532739
H           -2.11643488003425        0.98947670159600       -0.45925191199447
H           -2.30902015460049       -1.00799846412438        0.67271494829361
