15
 xtb: 6.7.1 (edcfbbe)
C            1.78249550270540       -0.83971887358129        0.30574741967361
C            1.21620223739013        0.57338819497717        0.15733066497699
C            0.03675327580058        0.68204007102744       -0.82362918140862
C           -1.33731352793705        0.49972344208378       -0.19621003471583
O           -1.55061287468006       -0.80218724794665        0.38856453637578
H            2.63590074692899       -0.84939643950373        0.99218945075186
H            1.04143374027815       -1.54851754418331        0.68776387150088
H            2.12898272955250       -1.21734108585910       -0.66281915708771
H            0.90646001161863        0.95733157903628        1.13927723119652
H            2.02407264147942        1.23049130521393       -0.18418953204260
H            0.03032905219615        1.67865132305583       -1.28368569707650
H            0.16430966832028       -0.03962980578814       -1.64147391091378
H           -1.50633128173360        1.27616992744448        0.56409847215439
H           -2.11227473469652        0.60698710272348       -0.96227654907697
H           -1.00589333794272       -0.85501675334241        1.18355243248382
