15
 xtb: 6.7.1 (edcfbbe)
C            1.62858077092576       -0.75393238492079       -0.56846638020088
C            1.32456889888593        0.56733855523315        0.13575142546214
C           -0.00172608929522        0.61239400630124        0.90021202146745
C           -1.26365707543460        0.51462871160926        0.05312379849627
O           -1.54040885898802       -0.81636376732029       -0.43558600366579
H            0.93543035077020       -0.94289582015231       -1.39265550014397
H            2.64295062525265       -0.74690305718984       -0.98213077901779
H            1.55723325931420       -1.59645207427421        0.12881116054117
H            2.13235661482011        0.78286372855984        0.84614333128575
H            1.33574937229707        1.38359734238515       -0.59851738789248
H           -0.02773356480331       -0.18038035291420        1.66148084197517
H           -0.05629862384185        1.56430965848979        1.44457113767923
H           -2.12638438862385        0.87274050154560        0.63260172863718
H           -1.17589217810724        1.14430291701227       -0.83949267002432
H           -1.62688674714154       -1.38566046145447        0.33977372477345
