! wb97x-v def2-tzvp def2/J RIJCOSX DEFGRID2 scfconv7 GCP(DFT/TZ) printgap
%output
    printlevel normal
end
* xyz 0 1
C -1.8545450607823908 -2.2075237061081182e-05 -0.8047164524840436
N -1.139687827429522 -1.031037653949967e-05 0.4775842260644031
C -0.29707119694343137 1.2058986388679553 0.6201620663317825
C 0.9176947394870162 1.2543080130411504 -0.3105763068030662
C 1.7750229896431604 1.6910527165547806e-05 -0.12862150425614371
C 0.9177166844880146 -1.2542867311725303 -0.31058793257128414
C -0.297035957490506 -1.205894087293426 0.6201659295839552
H -2.497286092054499 0.8851960134597612 -0.8611827969863656
H -2.4971630611201285 -0.8853255843894114 -0.861231984174476
H -1.210319934836627 4.768686924840371e-05 -1.6977302981728906
H -0.9317363490525828 2.0870472000882887 0.4698370494866897
H 0.05987533488864022 1.2372656615775128 1.6593343389690345
H 0.5924999195639881 1.3338268238421938 -1.3555393534507578
H 1.4989632440192953 2.15767276448817 -0.08948866130983904
H 2.6185356078350983 2.6357331228583653e-05 -0.8284854611999429
H 2.1980462553652598 1.605888703192257e-05 0.8864925184950168
H 0.5925054776673918 -1.3337944178531433 -1.3555470791777577
H 1.4990019902669571 -2.1576454759564374 -0.08952100459121544
H -0.9316784251076866 -2.0870621117654413 0.469862025930585
H 0.05992457531803708 -1.2372376278415942 1.6593343832739944
*
