! pbe def2-sv(p) def2/J RI DEFGRID1 loosescf d4 GCP(DFT/SV(P)) printgap
%output
    printlevel normal
end
* xyz 0 1
C -2.5416011801 -0.9290135605 0.2394672748
C -1.1254039937 -0.4832393645 0.6086351619
H -1.045785944 -0.435186333 1.7064835142
C -0.8339670499 0.9176642445 0.0502634433
H -1.0640237053 0.922015586 -1.0245668307
C 0.6482485025 1.2678484828 0.2318066505
H 0.8500369756 1.3809221934 1.3115535961
C 1.5267176845 0.1409527174 -0.3294452824
H 1.341298714 0.0519811978 -1.4058762891
C 1.1274957846 -1.1774893828 0.3616918031
H 1.2944541552 -1.078964212 1.4504304769
O -0.2296242698 -1.4533108737 0.1057055866
O 1.8803610371 -2.2579252722 -0.0439075823
O 2.8919039761 0.4432391564 -0.1950194761
O 0.8934818252 2.4895872779 -0.4233166069
O -1.6563972966 1.8236385153 0.7410254521
O -2.6965762863 -0.8762348261 -1.1588748534
H -3.2421146389 -0.2495688416 0.7387372699
H -2.6790394741 -1.9515144018 0.6086244636
H 1.6238442335 -2.5142572007 -0.9437469232
H 3.1970750612 0.2350456678 0.6997799744
H 1.8500508878 2.5815087884 -0.5544229002
H -1.459647479 2.7158703471 0.4175249318
H -3.5775757574 -1.203029735 -1.3894802846
*
