      -----------------------------------------------------------      
     |                   =====================                   |     
     |                           x T B                           |     
     |                   =====================                   |     
     |                         S. Grimme                         |     
     |          Mulliken Center for Theoretical Chemistry        |     
     |                    University of Bonn                     |     
      -----------------------------------------------------------      

   * xtb version 6.7.1 (edcfbbe) compiled by 'albert@albert-system' on 2024-07-22

   xtb is free software: you can redistribute it and/or modify it under
   the terms of the GNU Lesser General Public License as published by
   the Free Software Foundation, either version 3 of the License, or
   (at your option) any later version.
   
   xtb is distributed in the hope that it will be useful,
   but WITHOUT ANY WARRANTY; without even the implied warranty of
   MERCHANTABILITY or FITNESS FOR A PARTICULAR PURPOSE.  See the
   GNU Lesser General Public License for more details.
   
   Cite this work as:
   * C. Bannwarth, E. Caldeweyher, S. Ehlert, A. Hansen, P. Pracht,
     J. Seibert, S. Spicher, S. Grimme, WIREs Comput. Mol. Sci., 2020, 11,
     e01493. DOI: 10.1002/wcms.1493
   
   for GFN2-xTB:
   * C. Bannwarth, S. Ehlert and S. Grimme., J. Chem. Theory Comput., 2019,
     15, 1652-1671. DOI: 10.1021/acs.jctc.8b01176
   for GFN1-xTB:
   * S. Grimme, C. Bannwarth, P. Shushkov, J. Chem. Theory Comput., 2017,
     13, 1989-2009. DOI: 10.1021/acs.jctc.7b00118
   for GFN0-xTB:
   * P. Pracht, E. Caldeweyher, S. Ehlert, S. Grimme, ChemRxiv, 2019, preprint.
     DOI: 10.26434/chemrxiv.8326202.v1
   for GFN-FF:
   * S. Spicher and S. Grimme, Angew. Chem. Int. Ed., 2020, 59, 15665-15673.
     DOI: 10.1002/anie.202004239
   
   for ALPB and GBSA implicit solvation:
   * S. Ehlert, M. Stahn, S. Spicher, S. Grimme, J. Chem. Theory Comput.,
     2021, 17, 4250-4261. DOI: 10.1021/acs.jctc.1c00471
   
   for ddCOSMO and CPCM-X implicit solvation:
   * M. Stahn, S. Ehlert, S. Grimme, J. Phys. Chem. A,
     2023, XX, XXXX-XXXX. DOI: 10.1021/acs.jpca.3c04382
   
   for DFT-D4:
   * E. Caldeweyher, C. Bannwarth and S. Grimme, J. Chem. Phys., 2017,
     147, 034112. DOI: 10.1063/1.4993215
   * E. Caldeweyher, S. Ehlert, A. Hansen, H. Neugebauer, S. Spicher,
     C. Bannwarth and S. Grimme, J. Chem. Phys., 2019, 150, 154122.
     DOI: 10.1063/1.5090222
   * E. Caldeweyher, J.-M. Mewes, S. Ehlert and S. Grimme, Phys. Chem. Chem. Phys.
     2020, 22, 8499-8512. DOI: 10.1039/D0CP00502A
   
   for sTDA-xTB:
   * S. Grimme and C. Bannwarth, J. Chem. Phys., 2016, 145, 054103.
     DOI: 10.1063/1.4959605
   
   in the mass-spec context:
   * V. Asgeirsson, C. Bauer and S. Grimme, Chem. Sci., 2017, 8, 4879.
     DOI: 10.1039/c7sc00601b
   * J. Koopman and S. Grimme, ACS Omega 2019, 4, 12, 15120-15133.
     DOI: 10.1021/acsomega.9b02011
   
   for metadynamics refer to:
   * S. Grimme, J. Chem. Theory Comput., 2019, 155, 2847-2862
     DOI: 10.1021/acs.jctc.9b00143
   
   for SPH calculations refer to:
   * S. Spicher and S. Grimme, J. Chem. Theory Comput., 2021, 17, 1701-1714
     DOI: 10.1021/acs.jctc.0c01306
   
   for ONIOM refer to:
   * C. Plett, A. Katbashev, S. Ehlert, S. Grimme, M. Bursch,
     Phys. Chem. Chem. Phys., 2023, 25, 17860-17868. DOI: 10.1039/D3CP02178E
   
   for DIPRO refer to:
   * J. Kohn, N. Gildemeister, S. Grimme, D. Fazzi, A. Hansen,
     J. Chem. Phys., 2023, just accepted.
   
   for PTB refer to:
   * S. Grimme, M. Mueller, A. Hansen, J. Chem. Phys., 2023, 158, 124111.
     DOI: 10.1063/5.0137838
   
   with help from (in alphabetical order)
   P. Atkinson, C. Bannwarth, F. Bohle, G. Brandenburg, E. Caldeweyher
   M. Checinski, S. Dohm, S. Ehlert, S. Ehrlich, I. Gerasimov, C. Hölzer
   A. Katbashev, J. Kohn, J. Koopman, C. Lavigne, S. Lehtola, F. März, M. Müller,
   F. Musil, H. Neugebauer, J. Pisarek, C. Plett, P. Pracht, F. Pultar,
   J. Seibert, P. Shushkov, S. Spicher, M. Stahn, M. Steiner, T. Strunk,
   J. Stückrath, T. Rose, and J. Unsleber
   
 * started run on 2025/04/07 at 02:42:52.335     
   ID    Z sym.   atoms
    1    6 C      1, 2, 4, 5
    2    8 O      3
    3    1 H      6-15

           -------------------------------------------------
          |                Calculation Setup                |
           -------------------------------------------------

          program call               : /srv/scratch/z5358697/.xtb/bin/xtb gas.coord --gfn2 --sp --chrg 0 --norestart --parallel 1
          hostname                   : k140
          coordinate file            : gas.coord
          omp threads                :                     1


           -------------------------------------------------
          |                 G F N 2 - x T B                 |
           -------------------------------------------------

        Reference                      10.1021/acs.jctc.8b01176
      * Hamiltonian:
        H0-scaling (s, p, d)           1.850000    2.230000    2.230000
        zeta-weighting                 0.500000
      * Dispersion:
        s8                             2.700000
        a1                             0.520000
        a2                             5.000000
        s9                             5.000000
      * Repulsion:
        kExp                           1.500000    1.000000
        rExp                           1.000000
      * Coulomb:
        alpha                          2.000000
        third order                    shell-resolved
        anisotropic                    true
        a3                             3.000000
        a5                             4.000000
        cn-shift                       1.200000
        cn-exp                         4.000000
        max-rad                        5.000000


          ...................................................
          :                      SETUP                      :
          :.................................................:
          :  # basis functions                  30          :
          :  # atomic orbitals                  30          :
          :  # shells                           20          :
          :  # electrons                        32          :
          :  max. iterations                   250          :
          :  Hamiltonian                  GFN2-xTB          :
          :  restarted?                      false          :
          :  GBSA solvation                  false          :
          :  PC potential                    false          :
          :  electronic temp.          300.0000000     K    :
          :  accuracy                    1.0000000          :
          :  -> integral cutoff          0.2500000E+02      :
          :  -> integral neglect         0.1000000E-07      :
          :  -> SCF convergence          0.1000000E-05 Eh   :
          :  -> wf. convergence          0.1000000E-03 e    :
          :  Broyden damping             0.4000000          :
          :  net charge                          0          :
          :  unpaired electrons                  0          :
          ...................................................

 iter      E             dE          RMSdq      gap      omega  full diag
   1    -17.8771046 -0.178771E+02  0.362E+00   11.53       0.0  T
   2    -17.9247682 -0.476637E-01  0.184E+00   11.06       1.0  T
   3    -17.9253464 -0.578149E-03  0.848E-01   11.18       1.0  T
   4    -17.9255471 -0.200714E-03  0.119E-01   11.20       1.0  T
   5    -17.9255760 -0.289345E-04  0.658E-02   11.22       1.0  T
   6    -17.9255769 -0.869782E-06  0.588E-03   11.22       4.4  T
   7    -17.9255769 -0.270235E-07  0.259E-03   11.22      10.0  T
   8    -17.9255769 -0.723070E-08  0.664E-04   11.22      38.9  T
   9    -17.9255769 -0.385647E-09  0.235E-04   11.22     110.0  T

   *** convergence criteria satisfied after 9 iterations ***

         #    Occupation            Energy/Eh            Energy/eV
      -------------------------------------------------------------
         1        2.0000           -0.6884480             -18.7336
       ...           ...                  ...                  ...
        10        2.0000           -0.4850368             -13.1985
        11        2.0000           -0.4771342             -12.9835
        12        2.0000           -0.4699112             -12.7869
        13        2.0000           -0.4542587             -12.3610
        14        2.0000           -0.4361009             -11.8669
        15        2.0000           -0.4312557             -11.7351
        16        2.0000           -0.3941632             -10.7257 (HOMO)
        17                          0.0183161               0.4984 (LUMO)
        18                          0.0871060               2.3703
        19                          0.1068810               2.9084
        20                          0.1213701               3.3026
        21                          0.1394308               3.7941
       ...                                ...                  ...
        30                          0.3166917               8.6176
      -------------------------------------------------------------
                  HL-Gap            0.4124793 Eh           11.2241 eV
             Fermi-level           -0.1879235 Eh           -5.1137 eV

 SCC (total)                   0 d,  0 h,  0 min,  0.020 sec
 SCC setup                      ...        0 min,  0.000 sec (  0.583%)
 Dispersion                     ...        0 min,  0.000 sec (  0.256%)
 classical contributions        ...        0 min,  0.000 sec (  0.061%)
 integral evaluation            ...        0 min,  0.001 sec (  3.431%)
 iterations                     ...        0 min,  0.017 sec ( 85.448%)
 molecular gradient             ...        0 min,  0.002 sec (  9.704%)
 printout                       ...        0 min,  0.000 sec (  0.462%)

         :::::::::::::::::::::::::::::::::::::::::::::::::::::
         ::                     SUMMARY                     ::
         :::::::::::::::::::::::::::::::::::::::::::::::::::::
         :: total energy             -17.716746794472 Eh    ::
         :: gradient norm              0.008921749539 Eh/a0 ::
         :: HOMO-LUMO gap             11.224133873601 eV    ::
         ::.................................................::
         :: SCC energy               -17.925563949048 Eh    ::
         :: -> isotropic ES            0.021302178774 Eh    ::
         :: -> anisotropic ES          0.003953534846 Eh    ::
         :: -> anisotropic XC          0.005901625519 Eh    ::
         :: -> dispersion             -0.007323500352 Eh    ::
         :: repulsion energy           0.208817154576 Eh    ::
         :: add. restraining           0.000000000000 Eh    ::
         :: total charge               0.000000000000 e     ::
         :::::::::::::::::::::::::::::::::::::::::::::::::::::

           -------------------------------------------------
          |                Property Printout                |
           -------------------------------------------------

    * Orbital Energies and Occupations

         #    Occupation            Energy/Eh            Energy/eV
      -------------------------------------------------------------
         1        2.0000           -0.6884480             -18.7336
       ...           ...                  ...                  ...
         4        2.0000           -0.5897106             -16.0468
         5        2.0000           -0.5782765             -15.7357
         6        2.0000           -0.5443029             -14.8112
         7        2.0000           -0.5338131             -14.5258
         8        2.0000           -0.5233123             -14.2401
         9        2.0000           -0.4944214             -13.4539
        10        2.0000           -0.4850368             -13.1985
        11        2.0000           -0.4771342             -12.9835
        12        2.0000           -0.4699112             -12.7869
        13        2.0000           -0.4542587             -12.3610
        14        2.0000           -0.4361009             -11.8669
        15        2.0000           -0.4312557             -11.7351
        16        2.0000           -0.3941632             -10.7257 (HOMO)
        17                          0.0183161               0.4984 (LUMO)
        18                          0.0871060               2.3703
        19                          0.1068810               2.9084
        20                          0.1213701               3.3026
        21                          0.1394308               3.7941
        22                          0.1486434               4.0448
        23                          0.1657808               4.5111
        24                          0.1739944               4.7346
        25                          0.1954005               5.3171
        26                          0.2085968               5.6762
        27                          0.2439074               6.6371
       ...                                ...                  ...
        30                          0.3166917               8.6176
      -------------------------------------------------------------
                  HL-Gap            0.4124793 Eh           11.2241 eV
             Fermi-level           -0.1879235 Eh           -5.1137 eV

     #   Z          covCN         q      C6AA      α(0)
     1   6 C        3.750    -0.114    22.753     6.803
     2   6 C        3.687     0.084    19.366     6.299
     3   8 O        1.698    -0.329    19.509     5.963
     4   6 C        3.686     0.083    19.392     6.304
     5   6 C        3.749    -0.116    22.790     6.809
     6   1 H        0.925     0.038     2.473     2.459
     7   1 H        0.925     0.045     2.378     2.412
     8   1 H        0.925     0.047     2.360     2.402
     9   1 H        0.924     0.047     2.352     2.399
    10   1 H        0.923     0.017     2.776     2.605
    11   1 H        0.924     0.021     2.712     2.575
    12   1 H        0.924     0.042     2.426     2.436
    13   1 H        0.925     0.059     2.214     2.327
    14   1 H        0.925     0.035     2.510     2.477
    15   1 H        0.925     0.040     2.444     2.445

 Mol. C6AA /au·bohr⁶  :       1472.295762
 Mol. C8AA /au·bohr⁸  :      29835.645027
 Mol. α(0) /au        :         56.715632


Wiberg/Mayer (AO) data.
largest (>0.10) Wiberg bond orders for each atom

 ---------------------------------------------------------------------------
     #   Z sym  total        # sym  WBO       # sym  WBO       # sym  WBO
 ---------------------------------------------------------------------------
     1   6 C    3.996 --     2 C    1.009     8 H    0.987     7 H    0.986
                             6 H    0.985
     2   6 C    3.956 --     1 C    1.009     3 O    0.986     9 H    0.971
                            10 H    0.968
     3   8 O    2.071 --     2 C    0.986     4 C    0.982
     4   6 C    3.955 --     5 C    1.002     3 O    0.982    12 H    0.974
                            11 H    0.973
     5   6 C    3.995 --     4 C    1.002    15 H    0.990    14 H    0.990
                            13 H    0.984
     6   1 H    0.998 --     1 C    0.985
     7   1 H    0.998 --     1 C    0.986
     8   1 H    0.998 --     1 C    0.987
     9   1 H    0.998 --     2 C    0.971
    10   1 H    1.000 --     2 C    0.968
    11   1 H    1.000 --     4 C    0.973
    12   1 H    0.998 --     4 C    0.974
    13   1 H    0.997 --     5 C    0.984
    14   1 H    0.999 --     5 C    0.990
    15   1 H    0.998 --     5 C    0.990
 ---------------------------------------------------------------------------

Topologies differ in total number of bonds
Writing topology from bond orders to xtbtopo.mol

molecular dipole:
                 x           y           z       tot (Debye)
 q only:        0.066       0.250      -0.429
   full:        0.091       0.250      -0.602       1.672
molecular quadrupole (traceless):
                xx          xy          yy          xz          yz          zz
 q only:        2.435      -0.114      -0.594       0.372       0.770      -1.842
  q+dip:        1.890       0.008      -0.705       0.294       1.595      -1.185
   full:        2.409      -0.081      -0.783       0.366       1.385      -1.626


           -------------------------------------------------
          | TOTAL ENERGY              -17.716746794472 Eh   |
          | GRADIENT NORM               0.008921749539 Eh/α |
          | HOMO-LUMO GAP              11.224133873601 eV   |
           -------------------------------------------------

------------------------------------------------------------------------
 * finished run on 2025/04/07 at 02:42:52.415     
------------------------------------------------------------------------
 total:
 * wall-time:     0 d,  0 h,  0 min,  0.080 sec
 *  cpu-time:     0 d,  0 h,  0 min,  0.023 sec
 * ratio c/w:     0.281 speedup
 SCF:
 * wall-time:     0 d,  0 h,  0 min,  0.020 sec
 *  cpu-time:     0 d,  0 h,  0 min,  0.006 sec
 * ratio c/w:     0.311 speedup

