      -----------------------------------------------------------      
     |                   =====================                   |     
     |                           x T B                           |     
     |                   =====================                   |     
     |                         S. Grimme                         |     
     |          Mulliken Center for Theoretical Chemistry        |     
     |                    University of Bonn                     |     
      -----------------------------------------------------------      

   * xtb version 6.7.1 (edcfbbe) compiled by 'albert@albert-system' on 2024-07-22

   xtb is free software: you can redistribute it and/or modify it under
   the terms of the GNU Lesser General Public License as published by
   the Free Software Foundation, either version 3 of the License, or
   (at your option) any later version.
   
   xtb is distributed in the hope that it will be useful,
   but WITHOUT ANY WARRANTY; without even the implied warranty of
   MERCHANTABILITY or FITNESS FOR A PARTICULAR PURPOSE.  See the
   GNU Lesser General Public License for more details.
   
   Cite this work as:
   * C. Bannwarth, E. Caldeweyher, S. Ehlert, A. Hansen, P. Pracht,
     J. Seibert, S. Spicher, S. Grimme, WIREs Comput. Mol. Sci., 2020, 11,
     e01493. DOI: 10.1002/wcms.1493
   
   for GFN2-xTB:
   * C. Bannwarth, S. Ehlert and S. Grimme., J. Chem. Theory Comput., 2019,
     15, 1652-1671. DOI: 10.1021/acs.jctc.8b01176
   for GFN1-xTB:
   * S. Grimme, C. Bannwarth, P. Shushkov, J. Chem. Theory Comput., 2017,
     13, 1989-2009. DOI: 10.1021/acs.jctc.7b00118
   for GFN0-xTB:
   * P. Pracht, E. Caldeweyher, S. Ehlert, S. Grimme, ChemRxiv, 2019, preprint.
     DOI: 10.26434/chemrxiv.8326202.v1
   for GFN-FF:
   * S. Spicher and S. Grimme, Angew. Chem. Int. Ed., 2020, 59, 15665-15673.
     DOI: 10.1002/anie.202004239
   
   for ALPB and GBSA implicit solvation:
   * S. Ehlert, M. Stahn, S. Spicher, S. Grimme, J. Chem. Theory Comput.,
     2021, 17, 4250-4261. DOI: 10.1021/acs.jctc.1c00471
   
   for ddCOSMO and CPCM-X implicit solvation:
   * M. Stahn, S. Ehlert, S. Grimme, J. Phys. Chem. A,
     2023, XX, XXXX-XXXX. DOI: 10.1021/acs.jpca.3c04382
   
   for DFT-D4:
   * E. Caldeweyher, C. Bannwarth and S. Grimme, J. Chem. Phys., 2017,
     147, 034112. DOI: 10.1063/1.4993215
   * E. Caldeweyher, S. Ehlert, A. Hansen, H. Neugebauer, S. Spicher,
     C. Bannwarth and S. Grimme, J. Chem. Phys., 2019, 150, 154122.
     DOI: 10.1063/1.5090222
   * E. Caldeweyher, J.-M. Mewes, S. Ehlert and S. Grimme, Phys. Chem. Chem. Phys.
     2020, 22, 8499-8512. DOI: 10.1039/D0CP00502A
   
   for sTDA-xTB:
   * S. Grimme and C. Bannwarth, J. Chem. Phys., 2016, 145, 054103.
     DOI: 10.1063/1.4959605
   
   in the mass-spec context:
   * V. Asgeirsson, C. Bauer and S. Grimme, Chem. Sci., 2017, 8, 4879.
     DOI: 10.1039/c7sc00601b
   * J. Koopman and S. Grimme, ACS Omega 2019, 4, 12, 15120-15133.
     DOI: 10.1021/acsomega.9b02011
   
   for metadynamics refer to:
   * S. Grimme, J. Chem. Theory Comput., 2019, 155, 2847-2862
     DOI: 10.1021/acs.jctc.9b00143
   
   for SPH calculations refer to:
   * S. Spicher and S. Grimme, J. Chem. Theory Comput., 2021, 17, 1701-1714
     DOI: 10.1021/acs.jctc.0c01306
   
   for ONIOM refer to:
   * C. Plett, A. Katbashev, S. Ehlert, S. Grimme, M. Bursch,
     Phys. Chem. Chem. Phys., 2023, 25, 17860-17868. DOI: 10.1039/D3CP02178E
   
   for DIPRO refer to:
   * J. Kohn, N. Gildemeister, S. Grimme, D. Fazzi, A. Hansen,
     J. Chem. Phys., 2023, just accepted.
   
   for PTB refer to:
   * S. Grimme, M. Mueller, A. Hansen, J. Chem. Phys., 2023, 158, 124111.
     DOI: 10.1063/5.0137838
   
   with help from (in alphabetical order)
   P. Atkinson, C. Bannwarth, F. Bohle, G. Brandenburg, E. Caldeweyher
   M. Checinski, S. Dohm, S. Ehlert, S. Ehrlich, I. Gerasimov, C. Hölzer
   A. Katbashev, J. Kohn, J. Koopman, C. Lavigne, S. Lehtola, F. März, M. Müller,
   F. Musil, H. Neugebauer, J. Pisarek, C. Plett, P. Pracht, F. Pultar,
   J. Seibert, P. Shushkov, S. Spicher, M. Stahn, M. Steiner, T. Strunk,
   J. Stückrath, T. Rose, and J. Unsleber
   
 * started run on 2025/04/07 at 02:42:52.452     
   ID    Z sym.   atoms
    1    6 C      1, 2, 4, 5
    2    8 O      3
    3    1 H      6-15

           -------------------------------------------------
          |                Calculation Setup                |
           -------------------------------------------------

          program call               : /srv/scratch/z5358697/.xtb/bin/xtb solv.coord --gfn2 --sp --chrg 0 --norestart --parallel 1 --alpb water reference -I xtb_sp-xcontrol-inp
          hostname                   : k140
          coordinate file            : solv.coord
          omp threads                :                     1


           -------------------------------------------------
          |                 G F N 2 - x T B                 |
           -------------------------------------------------

        Reference                      10.1021/acs.jctc.8b01176
      * Hamiltonian:
        H0-scaling (s, p, d)           1.850000    2.230000    2.230000
        zeta-weighting                 0.500000
      * Dispersion:
        s8                             2.700000
        a1                             0.520000
        a2                             5.000000
        s9                             5.000000
      * Repulsion:
        kExp                           1.500000    1.000000
        rExp                           1.000000
      * Coulomb:
        alpha                          2.000000
        third order                    shell-resolved
        anisotropic                    true
        a3                             3.000000
        a5                             4.000000
        cn-shift                       1.200000
        cn-exp                         4.000000
        max-rad                        5.000000

      * Solvation model:               ALPB
        Solvent                        water
        Parameter file                 internal GFN2-xTB/ALPB
        Dielectric constant                8.0200E+01
        Reference state                gsolv=reference [X=1]
        Free energy shift                  2.8945E-03 Eh       1.8164E+00 kcal/mol
        Temperature                        2.9815E+02 K
        Density                            1.0000E+00 kg/L
        Solvent mass                       1.8000E+01 g/mol
        Interaction kernel             P16
        Born radius scaling (c1)           1.4744E+00
        Born radii integrator          GBOBC
        Born offset                        0.0000E+00 a0       0.0000E+00 AA
        H-bond correction              true
        Ion screening                  false
        Surface tension                    1.0000E-05 Eh       1.5569E+01 dyn/cm
        Grid points                               974 per atom

          ...................................................
          :                      SETUP                      :
          :.................................................:
          :  # basis functions                  30          :
          :  # atomic orbitals                  30          :
          :  # shells                           20          :
          :  # electrons                        32          :
          :  max. iterations                   250          :
          :  Hamiltonian                  GFN2-xTB          :
          :  restarted?                      false          :
          :  GBSA solvation                   true          :
          :  PC potential                    false          :
          :  electronic temp.          300.0000000     K    :
          :  accuracy                    1.0000000          :
          :  -> integral cutoff          0.2500000E+02      :
          :  -> integral neglect         0.1000000E-07      :
          :  -> SCF convergence          0.1000000E-05 Eh   :
          :  -> wf. convergence          0.1000000E-03 e    :
          :  Broyden damping             0.4000000          :
          :  net charge                          0          :
          :  unpaired electrons                  0          :
          ...................................................

 iter      E             dE          RMSdq      gap      omega  full diag
   1    -17.8889232 -0.178889E+02  0.371E+00   11.56       0.0  T
   2    -17.9253981 -0.364749E-01  0.187E+00   11.15       1.0  T
   3    -17.9260856 -0.687503E-03  0.722E-01   11.20       1.0  T
   4    -17.9262539 -0.168283E-03  0.123E-01   11.22       1.0  T
   5    -17.9262707 -0.167786E-04  0.663E-02   11.24       1.0  T
   6    -17.9262721 -0.140557E-05  0.733E-03   11.25       3.5  T
   7    -17.9262722 -0.126874E-06  0.265E-03   11.25       9.7  T
   8    -17.9262722 -0.103818E-07  0.130E-03   11.25      19.8  T
   9    -17.9262722 -0.160322E-08  0.206E-04   11.25     125.2  T
  10    -17.9262722 -0.146869E-09  0.987E-05   11.25     261.5  T

   *** convergence criteria satisfied after 10 iterations ***

         #    Occupation            Energy/Eh            Energy/eV
      -------------------------------------------------------------
         1        2.0000           -0.6977087             -18.9856
       ...           ...                  ...                  ...
        10        2.0000           -0.4846362             -13.1876
        11        2.0000           -0.4756953             -12.9443
        12        2.0000           -0.4667987             -12.7022
        13        2.0000           -0.4523950             -12.3103
        14        2.0000           -0.4351693             -11.8416
        15        2.0000           -0.4323840             -11.7658
        16        2.0000           -0.3993923             -10.8680 (HOMO)
        17                          0.0138999               0.3782 (LUMO)
        18                          0.0855179               2.3271
        19                          0.1061743               2.8892
        20                          0.1215196               3.3067
        21                          0.1403945               3.8203
       ...                                ...                  ...
        30                          0.3166982               8.6178
      -------------------------------------------------------------
                  HL-Gap            0.4132923 Eh           11.2463 eV
             Fermi-level           -0.1927462 Eh           -5.2449 eV

 SCC (total)                   0 d,  0 h,  0 min,  0.026 sec
 SCC setup                      ...        0 min,  0.001 sec (  2.631%)
 Dispersion                     ...        0 min,  0.000 sec (  0.233%)
 classical contributions        ...        0 min,  0.000 sec (  0.049%)
 integral evaluation            ...        0 min,  0.001 sec (  5.684%)
 iterations                     ...        0 min,  0.022 sec ( 84.227%)
 molecular gradient             ...        0 min,  0.002 sec (  6.785%)
 printout                       ...        0 min,  0.000 sec (  0.347%)

         :::::::::::::::::::::::::::::::::::::::::::::::::::::
         ::                     SUMMARY                     ::
         :::::::::::::::::::::::::::::::::::::::::::::::::::::
         :: total energy             -17.717442075632 Eh    ::
         :: total w/o Gsasa/hb       -17.719584994965 Eh    ::
         :: gradient norm              0.000263448302 Eh/a0 ::
         :: HOMO-LUMO gap             11.246254766688 eV    ::
         ::.................................................::
         :: SCC energy               -17.926259230208 Eh    ::
         :: -> isotropic ES            0.026294483797 Eh    ::
         :: -> anisotropic ES          0.003435494849 Eh    ::
         :: -> anisotropic XC          0.006308199980 Eh    ::
         :: -> dispersion             -0.007258744861 Eh    ::
         :: -> Gsolv                  -0.001356550613 Eh    ::
         ::    -> Gelec               -0.003499469947 Eh    ::
         ::    -> Gsasa                0.000152908754 Eh    ::
         ::    -> Ghb                 -0.000904538581 Eh    ::
         ::    -> Gshift               0.002894549160 Eh    ::
         :: repulsion energy           0.208817154576 Eh    ::
         :: add. restraining           0.000000000000 Eh    ::
         :: total charge               0.000000000000 e     ::
         :::::::::::::::::::::::::::::::::::::::::::::::::::::

           -------------------------------------------------
          |                Property Printout                |
           -------------------------------------------------

    * Orbital Energies and Occupations

         #    Occupation            Energy/Eh            Energy/eV
      -------------------------------------------------------------
         1        2.0000           -0.6977087             -18.9856
       ...           ...                  ...                  ...
         4        2.0000           -0.5886925             -16.0191
         5        2.0000           -0.5795949             -15.7716
         6        2.0000           -0.5471443             -14.8886
         7        2.0000           -0.5355570             -14.5732
         8        2.0000           -0.5247081             -14.2780
         9        2.0000           -0.4932941             -13.4232
        10        2.0000           -0.4846362             -13.1876
        11        2.0000           -0.4756953             -12.9443
        12        2.0000           -0.4667987             -12.7022
        13        2.0000           -0.4523950             -12.3103
        14        2.0000           -0.4351693             -11.8416
        15        2.0000           -0.4323840             -11.7658
        16        2.0000           -0.3993923             -10.8680 (HOMO)
        17                          0.0138999               0.3782 (LUMO)
        18                          0.0855179               2.3271
        19                          0.1061743               2.8892
        20                          0.1215196               3.3067
        21                          0.1403945               3.8203
        22                          0.1507674               4.1026
        23                          0.1667293               4.5369
        24                          0.1747935               4.7564
        25                          0.1954723               5.3191
        26                          0.2113967               5.7524
        27                          0.2476491               6.7389
       ...                                ...                  ...
        30                          0.3166982               8.6178
      -------------------------------------------------------------
                  HL-Gap            0.4132923 Eh           11.2463 eV
             Fermi-level           -0.1927462 Eh           -5.2449 eV

     #   Z          covCN         q      C6AA      α(0)
     1   6 C        3.750    -0.126    22.977     6.836
     2   6 C        3.687     0.080    19.432     6.310
     3   8 O        1.698    -0.369    20.238     6.074
     4   6 C        3.686     0.079    19.459     6.315
     5   6 C        3.749    -0.127    23.012     6.842
     6   1 H        0.925     0.053     2.287     2.365
     7   1 H        0.925     0.054     2.275     2.359
     8   1 H        0.925     0.050     2.318     2.381
     9   1 H        0.924     0.052     2.292     2.368
    10   1 H        0.923     0.022     2.698     2.569
    11   1 H        0.924     0.029     2.597     2.520
    12   1 H        0.924     0.045     2.382     2.414
    13   1 H        0.925     0.060     2.195     2.317
    14   1 H        0.925     0.049     2.330     2.387
    15   1 H        0.925     0.049     2.338     2.391

 Mol. C6AA /au·bohr⁶  :       1460.436333
 Mol. C8AA /au·bohr⁸  :      29719.267176
 Mol. α(0) /au        :         56.447180


Wiberg/Mayer (AO) data.
largest (>0.10) Wiberg bond orders for each atom

 ---------------------------------------------------------------------------
     #   Z sym  total        # sym  WBO       # sym  WBO       # sym  WBO
 ---------------------------------------------------------------------------
     1   6 C    3.994 --     2 C    1.010     8 H    0.986     7 H    0.985
                             6 H    0.984
     2   6 C    3.947 --     1 C    1.010     3 O    0.976     9 H    0.970
                            10 H    0.968
     3   8 O    2.049 --     2 C    0.976     4 C    0.973
     4   6 C    3.946 --     5 C    1.003    12 H    0.974     3 O    0.973
                            11 H    0.972
     5   6 C    3.993 --     4 C    1.003    15 H    0.989    14 H    0.989
                            13 H    0.984
     6   1 H    0.997 --     1 C    0.984
     7   1 H    0.997 --     1 C    0.985
     8   1 H    0.997 --     1 C    0.986
     9   1 H    0.997 --     2 C    0.970
    10   1 H    1.000 --     2 C    0.968
    11   1 H    0.999 --     4 C    0.972
    12   1 H    0.998 --     4 C    0.974
    13   1 H    0.996 --     5 C    0.984
    14   1 H    0.998 --     5 C    0.989
    15   1 H    0.998 --     5 C    0.989
 ---------------------------------------------------------------------------

Topologies differ in total number of bonds
Writing topology from bond orders to xtbtopo.mol

molecular dipole:
                 x           y           z       tot (Debye)
 q only:        0.080       0.336      -0.544
   full:        0.100       0.303      -0.669       1.884
molecular quadrupole (traceless):
                xx          xy          yy          xz          yz          zz
 q only:        2.971      -0.148      -0.836       0.381       0.750      -2.135
  q+dip:        2.199      -0.015      -0.865       0.284       1.568      -1.334
   full:        2.737      -0.105      -0.944       0.363       1.360      -1.793


           -------------------------------------------------
          | TOTAL ENERGY              -17.717442075632 Eh   |
          | GRADIENT NORM               0.000263448302 Eh/α |
          | HOMO-LUMO GAP              11.246254766688 eV   |
           -------------------------------------------------

------------------------------------------------------------------------
 * finished run on 2025/04/07 at 02:42:52.522     
------------------------------------------------------------------------
 total:
 * wall-time:     0 d,  0 h,  0 min,  0.069 sec
 *  cpu-time:     0 d,  0 h,  0 min,  0.015 sec
 * ratio c/w:     0.210 speedup
 SCF:
 * wall-time:     0 d,  0 h,  0 min,  0.026 sec
 *  cpu-time:     0 d,  0 h,  0 min,  0.008 sec
 * ratio c/w:     0.304 speedup

