      -----------------------------------------------------------      
     |                   =====================                   |     
     |                           x T B                           |     
     |                   =====================                   |     
     |                         S. Grimme                         |     
     |          Mulliken Center for Theoretical Chemistry        |     
     |                    University of Bonn                     |     
      -----------------------------------------------------------      

   * xtb version 6.7.1 (edcfbbe) compiled by 'albert@albert-system' on 2024-07-22

   xtb is free software: you can redistribute it and/or modify it under
   the terms of the GNU Lesser General Public License as published by
   the Free Software Foundation, either version 3 of the License, or
   (at your option) any later version.
   
   xtb is distributed in the hope that it will be useful,
   but WITHOUT ANY WARRANTY; without even the implied warranty of
   MERCHANTABILITY or FITNESS FOR A PARTICULAR PURPOSE.  See the
   GNU Lesser General Public License for more details.
   
   Cite this work as:
   * C. Bannwarth, E. Caldeweyher, S. Ehlert, A. Hansen, P. Pracht,
     J. Seibert, S. Spicher, S. Grimme, WIREs Comput. Mol. Sci., 2020, 11,
     e01493. DOI: 10.1002/wcms.1493
   
   for GFN2-xTB:
   * C. Bannwarth, S. Ehlert and S. Grimme., J. Chem. Theory Comput., 2019,
     15, 1652-1671. DOI: 10.1021/acs.jctc.8b01176
   for GFN1-xTB:
   * S. Grimme, C. Bannwarth, P. Shushkov, J. Chem. Theory Comput., 2017,
     13, 1989-2009. DOI: 10.1021/acs.jctc.7b00118
   for GFN0-xTB:
   * P. Pracht, E. Caldeweyher, S. Ehlert, S. Grimme, ChemRxiv, 2019, preprint.
     DOI: 10.26434/chemrxiv.8326202.v1
   for GFN-FF:
   * S. Spicher and S. Grimme, Angew. Chem. Int. Ed., 2020, 59, 15665-15673.
     DOI: 10.1002/anie.202004239
   
   for ALPB and GBSA implicit solvation:
   * S. Ehlert, M. Stahn, S. Spicher, S. Grimme, J. Chem. Theory Comput.,
     2021, 17, 4250-4261. DOI: 10.1021/acs.jctc.1c00471
   
   for ddCOSMO and CPCM-X implicit solvation:
   * M. Stahn, S. Ehlert, S. Grimme, J. Phys. Chem. A,
     2023, XX, XXXX-XXXX. DOI: 10.1021/acs.jpca.3c04382
   
   for DFT-D4:
   * E. Caldeweyher, C. Bannwarth and S. Grimme, J. Chem. Phys., 2017,
     147, 034112. DOI: 10.1063/1.4993215
   * E. Caldeweyher, S. Ehlert, A. Hansen, H. Neugebauer, S. Spicher,
     C. Bannwarth and S. Grimme, J. Chem. Phys., 2019, 150, 154122.
     DOI: 10.1063/1.5090222
   * E. Caldeweyher, J.-M. Mewes, S. Ehlert and S. Grimme, Phys. Chem. Chem. Phys.
     2020, 22, 8499-8512. DOI: 10.1039/D0CP00502A
   
   for sTDA-xTB:
   * S. Grimme and C. Bannwarth, J. Chem. Phys., 2016, 145, 054103.
     DOI: 10.1063/1.4959605
   
   in the mass-spec context:
   * V. Asgeirsson, C. Bauer and S. Grimme, Chem. Sci., 2017, 8, 4879.
     DOI: 10.1039/c7sc00601b
   * J. Koopman and S. Grimme, ACS Omega 2019, 4, 12, 15120-15133.
     DOI: 10.1021/acsomega.9b02011
   
   for metadynamics refer to:
   * S. Grimme, J. Chem. Theory Comput., 2019, 155, 2847-2862
     DOI: 10.1021/acs.jctc.9b00143
   
   for SPH calculations refer to:
   * S. Spicher and S. Grimme, J. Chem. Theory Comput., 2021, 17, 1701-1714
     DOI: 10.1021/acs.jctc.0c01306
   
   for ONIOM refer to:
   * C. Plett, A. Katbashev, S. Ehlert, S. Grimme, M. Bursch,
     Phys. Chem. Chem. Phys., 2023, 25, 17860-17868. DOI: 10.1039/D3CP02178E
   
   for DIPRO refer to:
   * J. Kohn, N. Gildemeister, S. Grimme, D. Fazzi, A. Hansen,
     J. Chem. Phys., 2023, just accepted.
   
   for PTB refer to:
   * S. Grimme, M. Mueller, A. Hansen, J. Chem. Phys., 2023, 158, 124111.
     DOI: 10.1063/5.0137838
   
   with help from (in alphabetical order)
   P. Atkinson, C. Bannwarth, F. Bohle, G. Brandenburg, E. Caldeweyher
   M. Checinski, S. Dohm, S. Ehlert, S. Ehrlich, I. Gerasimov, C. Hölzer
   A. Katbashev, J. Kohn, J. Koopman, C. Lavigne, S. Lehtola, F. März, M. Müller,
   F. Musil, H. Neugebauer, J. Pisarek, C. Plett, P. Pracht, F. Pultar,
   J. Seibert, P. Shushkov, S. Spicher, M. Stahn, M. Steiner, T. Strunk,
   J. Stückrath, T. Rose, and J. Unsleber
   
 * started run on 2025/04/06 at 22:31:19.858     
   ID    Z sym.   atoms
    1    6 C      1-4
    2    8 O      5
    3    1 H      6-15

           -------------------------------------------------
          |                Calculation Setup                |
           -------------------------------------------------

          program call               : /srv/scratch/z5358697/.xtb/bin/xtb gas.coord --gfn2 --sp --chrg 0 --norestart --parallel 1
          hostname                   : k159
          coordinate file            : gas.coord
          omp threads                :                     1


           -------------------------------------------------
          |                 G F N 2 - x T B                 |
           -------------------------------------------------

        Reference                      10.1021/acs.jctc.8b01176
      * Hamiltonian:
        H0-scaling (s, p, d)           1.850000    2.230000    2.230000
        zeta-weighting                 0.500000
      * Dispersion:
        s8                             2.700000
        a1                             0.520000
        a2                             5.000000
        s9                             5.000000
      * Repulsion:
        kExp                           1.500000    1.000000
        rExp                           1.000000
      * Coulomb:
        alpha                          2.000000
        third order                    shell-resolved
        anisotropic                    true
        a3                             3.000000
        a5                             4.000000
        cn-shift                       1.200000
        cn-exp                         4.000000
        max-rad                        5.000000


          ...................................................
          :                      SETUP                      :
          :.................................................:
          :  # basis functions                  30          :
          :  # atomic orbitals                  30          :
          :  # shells                           20          :
          :  # electrons                        32          :
          :  max. iterations                   250          :
          :  Hamiltonian                  GFN2-xTB          :
          :  restarted?                      false          :
          :  GBSA solvation                  false          :
          :  PC potential                    false          :
          :  electronic temp.          300.0000000     K    :
          :  accuracy                    1.0000000          :
          :  -> integral cutoff          0.2500000E+02      :
          :  -> integral neglect         0.1000000E-07      :
          :  -> SCF convergence          0.1000000E-05 Eh   :
          :  -> wf. convergence          0.1000000E-03 e    :
          :  Broyden damping             0.4000000          :
          :  net charge                          0          :
          :  unpaired electrons                  0          :
          ...................................................

 iter      E             dE          RMSdq      gap      omega  full diag
   1    -17.8978847 -0.178979E+02  0.323E+00   12.68       0.0  T
   2    -17.9320204 -0.341358E-01  0.172E+00   12.37       1.0  T
   3    -17.9326113 -0.590828E-03  0.747E-01   12.45       1.0  T
   4    -17.9327639 -0.152651E-03  0.107E-01   12.48       1.0  T
   5    -17.9327816 -0.177272E-04  0.608E-02   12.49       1.0  T
   6    -17.9327829 -0.123501E-05  0.845E-03   12.49       3.1  T
   7    -17.9327831 -0.185081E-06  0.425E-03   12.49       6.1  T
   8    -17.9327831 -0.145385E-07  0.106E-03   12.49      24.3  T
   9    -17.9327831 -0.978645E-09  0.350E-04   12.49      73.9  T
  10    -17.9327831 -0.231605E-09  0.602E-05   12.49     428.7  T

   *** convergence criteria satisfied after 10 iterations ***

         #    Occupation            Energy/Eh            Energy/eV
      -------------------------------------------------------------
         1        2.0000           -0.6837388             -18.6055
       ...           ...                  ...                  ...
        10        2.0000           -0.4868172             -13.2470
        11        2.0000           -0.4712634             -12.8237
        12        2.0000           -0.4506296             -12.2623
        13        2.0000           -0.4441684             -12.0864
        14        2.0000           -0.4369962             -11.8913
        15        2.0000           -0.4243867             -11.5481
        16        2.0000           -0.4067456             -11.0681 (HOMO)
        17                          0.0523145               1.4236 (LUMO)
        18                          0.0773040               2.1035
        19                          0.1112400               3.0270
        20                          0.1127785               3.0689
        21                          0.1503693               4.0918
       ...                                ...                  ...
        30                          0.3174593               8.6385
      -------------------------------------------------------------
                  HL-Gap            0.4590601 Eh           12.4917 eV
             Fermi-level           -0.1772155 Eh           -4.8223 eV

 SCC (total)                   0 d,  0 h,  0 min,  0.008 sec
 SCC setup                      ...        0 min,  0.000 sec (  1.581%)
 Dispersion                     ...        0 min,  0.000 sec (  0.644%)
 classical contributions        ...        0 min,  0.000 sec (  0.151%)
 integral evaluation            ...        0 min,  0.001 sec (  8.385%)
 iterations                     ...        0 min,  0.005 sec ( 63.884%)
 molecular gradient             ...        0 min,  0.002 sec ( 24.070%)
 printout                       ...        0 min,  0.000 sec (  1.150%)

         :::::::::::::::::::::::::::::::::::::::::::::::::::::
         ::                     SUMMARY                     ::
         :::::::::::::::::::::::::::::::::::::::::::::::::::::
         :: total energy             -17.719406566440 Eh    ::
         :: gradient norm              0.005544844994 Eh/a0 ::
         :: HOMO-LUMO gap             12.491660864242 eV    ::
         ::.................................................::
         :: SCC energy               -17.932773673124 Eh    ::
         :: -> isotropic ES            0.026608849230 Eh    ::
         :: -> anisotropic ES          0.003980006279 Eh    ::
         :: -> anisotropic XC          0.005974836480 Eh    ::
         :: -> dispersion             -0.007102029997 Eh    ::
         :: repulsion energy           0.213367106683 Eh    ::
         :: add. restraining           0.000000000000 Eh    ::
         :: total charge               0.000000000000 e     ::
         :::::::::::::::::::::::::::::::::::::::::::::::::::::

           -------------------------------------------------
          |                Property Printout                |
           -------------------------------------------------

    * Orbital Energies and Occupations

         #    Occupation            Energy/Eh            Energy/eV
      -------------------------------------------------------------
         1        2.0000           -0.6837388             -18.6055
       ...           ...                  ...                  ...
         4        2.0000           -0.5914646             -16.0946
         5        2.0000           -0.5678204             -15.4512
         6        2.0000           -0.5443042             -14.8113
         7        2.0000           -0.5275888             -14.3564
         8        2.0000           -0.5224667             -14.2170
         9        2.0000           -0.4979187             -13.5491
        10        2.0000           -0.4868172             -13.2470
        11        2.0000           -0.4712634             -12.8237
        12        2.0000           -0.4506296             -12.2623
        13        2.0000           -0.4441684             -12.0864
        14        2.0000           -0.4369962             -11.8913
        15        2.0000           -0.4243867             -11.5481
        16        2.0000           -0.4067456             -11.0681 (HOMO)
        17                          0.0523145               1.4236 (LUMO)
        18                          0.0773040               2.1035
        19                          0.1112400               3.0270
        20                          0.1127785               3.0689
        21                          0.1503693               4.0918
        22                          0.1599146               4.3515
        23                          0.1651900               4.4950
        24                          0.1689906               4.5985
        25                          0.1892113               5.1487
        26                          0.2143629               5.8331
        27                          0.2411980               6.5633
       ...                                ...                  ...
        30                          0.3174593               8.6385
      -------------------------------------------------------------
                  HL-Gap            0.4590601 Eh           12.4917 eV
             Fermi-level           -0.1772155 Eh           -4.8223 eV

     #   Z          covCN         q      C6AA      α(0)
     1   6 C        3.751    -0.104    22.547     6.772
     2   6 C        3.799    -0.055    21.570     6.613
     3   6 C        3.799    -0.072    21.869     6.658
     4   6 C        3.674     0.079    19.480     6.325
     5   8 O        1.655    -0.443    21.693     6.287
     6   1 H        0.925     0.033     2.548     2.496
     7   1 H        0.925     0.034     2.524     2.484
     8   1 H        0.925     0.035     2.523     2.484
     9   1 H        0.924     0.031     2.578     2.511
    10   1 H        0.924     0.048     2.343     2.394
    11   1 H        0.924     0.039     2.468     2.457
    12   1 H        0.924     0.029     2.601     2.522
    13   1 H        0.924     0.048     2.341     2.393
    14   1 H        0.923     0.013     2.834     2.633
    15   1 H        0.805     0.284     0.771     1.379

 Mol. C6AA /au·bohr⁶  :       1462.229097
 Mol. C8AA /au·bohr⁸  :      29850.906996
 Mol. α(0) /au        :         56.407830


Wiberg/Mayer (AO) data.
largest (>0.10) Wiberg bond orders for each atom

 ---------------------------------------------------------------------------
     #   Z sym  total        # sym  WBO       # sym  WBO       # sym  WBO
 ---------------------------------------------------------------------------
     1   6 C    3.997 --     2 C    1.021     6 H    0.988     7 H    0.988
                             8 H    0.987
     2   6 C    3.996 --     1 C    1.021     3 C    1.002     9 H    0.982
                            10 H    0.976
     3   6 C    3.997 --     2 C    1.002     4 C    1.000    12 H    0.979
                            11 H    0.976
     4   6 C    3.956 --     3 C    1.000     5 O    0.998    13 H    0.973
                            14 H    0.971
     5   8 O    1.960 --     4 C    0.998    15 H    0.904
     6   1 H    0.999 --     1 C    0.988
     7   1 H    0.999 --     1 C    0.988
     8   1 H    0.999 --     1 C    0.987
     9   1 H    0.999 --     2 C    0.982
    10   1 H    0.998 --     2 C    0.976
    11   1 H    0.999 --     3 C    0.976
    12   1 H    0.999 --     3 C    0.979
    13   1 H    0.998 --     4 C    0.973
    14   1 H    1.000 --     4 C    0.971
    15   1 H    0.919 --     5 O    0.904
 ---------------------------------------------------------------------------

Topologies differ in total number of bonds
Writing topology from bond orders to xtbtopo.mol

molecular dipole:
                 x           y           z       tot (Debye)
 q only:        0.226      -0.453      -0.115
   full:        0.225      -0.691      -0.150       1.885
molecular quadrupole (traceless):
                xx          xy          yy          xz          yz          zz
 q only:       -1.013       3.131      -0.083      -0.093      -1.170       1.096
  q+dip:       -1.993       4.628       0.892       0.518      -2.118       1.100
   full:       -1.669       4.615       0.447       0.152      -1.964       1.221


           -------------------------------------------------
          | TOTAL ENERGY              -17.719406566440 Eh   |
          | GRADIENT NORM               0.005544844994 Eh/α |
          | HOMO-LUMO GAP              12.491660864242 eV   |
           -------------------------------------------------

------------------------------------------------------------------------
 * finished run on 2025/04/06 at 22:31:19.893     
------------------------------------------------------------------------
 total:
 * wall-time:     0 d,  0 h,  0 min,  0.035 sec
 *  cpu-time:     0 d,  0 h,  0 min,  0.012 sec
 * ratio c/w:     0.344 speedup
 SCF:
 * wall-time:     0 d,  0 h,  0 min,  0.008 sec
 *  cpu-time:     0 d,  0 h,  0 min,  0.006 sec
 * ratio c/w:     0.786 speedup

