! wb97x-v def2-tzvp def2/J RIJCOSX DEFGRID2 scfconv7 GCP(DFT/TZ) printgap
%output
    printlevel normal
end
* xyz 0 1
C 1.6917390915905524 -1.0708618845629014 0.1603409113805533
C 1.0396188109870648 0.25757763269836453 -0.20178748917219735
C -0.45782751427638946 0.3476480309608817 -0.06213484212346533
O -1.0734663125706996 1.3962075343549831 -0.14614091368732207
O -1.1560480974187244 -0.7927731823861704 0.14619666903515294
H 2.7757506109949466 -0.9885189231527232 0.04847283565487447
H 1.4857670348238712 -1.3505140486093858 1.1985801791133974
H 1.3628361175428874 -1.8818275002991802 -0.49913864168204286
H 1.4471415626842583 1.0754280578292046 0.40142920551335154
H 1.2510513445252724 0.5211786623201495 -1.2461484293833573
H -0.560230198546639 -1.5576462233434094 0.1937317955309763
*
