! wb97x-v def2-tzvp def2/J RIJCOSX DEFGRID2 scfconv7 GCP(DFT/TZ) printgap
%output
    printlevel normal
end
* xyz 0 1
C 1.9667742362487661 0.14713382325448243 -0.4980871970660413
C 0.7966862717421311 0.04381314502410824 0.4617393644531229
H 1.1684926987716546 -0.0585862660122866 1.4893929744110108
C -0.20414245819598215 1.2062404793436028 0.3502509372128595
C -1.3138723725007888 0.6308768540997637 -0.5349133104433434
C -1.3467685267816687 -0.8115953977318955 -0.06206680245781334
O 0.037728815685662755 -1.165213436685807 0.14241979632546287
H 1.6136584321476064 0.31118775625208095 -1.5222548027552452
H 2.61280933496622 0.9842058250437707 -0.2137054068292196
H 2.567222517308964 -0.7679232742498456 -0.4781306879385489
H -0.6068035706093698 1.4590403240924874 1.3359975964204511
H 0.26267774000677413 2.100435266899658 -0.07059251265508686
H -2.272548622752709 1.1387602399768821 -0.40331637484309557
H -1.0339434825469862 0.6754507723212376 -1.5926218691115057
H -1.9018367741560571 -0.9026217385668012 0.8843916454185025
H -1.7674002391900066 -1.5133250796374882 -0.7885176401060521
*
