! r2scan-3c def2/J RI DEFGRID2 scfconv6 printgap
%output
    printlevel normal
end
* xyz 0 1
C -0.732283552 -1.2043162522 0.0001080238
C 0.6510970526 -1.209107027 -2.58057e-05
C 1.3185145304 -0.0013727335 4.04048e-05
C 0.6521388306 1.2092269097 9.75488e-05
C -0.7283801708 1.2053516105 0.0001314481
C -1.4301773484 0.0002539906 0.0001920462
O -2.7824972344 0.0568140752 -0.0001837095
F 2.6886140891 -0.0029075241 -0.0001058016
H -1.2653774695 -2.1425075498 9.05309e-05
H 1.2070349783 -2.1322751795 -1.23846e-05
H 1.2092908335 2.1314412258 -0.0006686107
H -1.2844051417 2.1283220842 -0.000397322
H -3.1694135769 -0.8324425454 -0.0005802847
*
