! r2scan-3c def2/J RI DEFGRID2 scfconv6 printgap
%output
    printlevel normal
end
%cpcm
    smd true
    smdsolvent "water"
end
* xyz 0 1
C -3.4355027504 -1.1898628379 -0.0015079255
C -2.053588167 -0.6084523851 0.0018440238
C -1.8676152723 0.7854008814 0.0009888837
C -0.6236730419 1.3622250246 -8.32715e-05
C 0.5272392303 0.5290913449 1.9337e-06
C 1.8431422481 1.0397990651 0.0008355299
C 2.9255963922 0.2043730477 0.0006024689
C 2.7497190807 -1.1873108899 -0.0005415941
C 1.4902149476 -1.7156488022 -0.0006917241
C 0.352032649 -0.8810274389 -0.0001158898
C -0.9490096407 -1.4199406668 0.0008681952
C -0.4861157267 2.8552466096 -0.001039093
H -4.1873749294 -0.4082965328 0.065835741
H -3.6032930733 -1.7555825367 -0.9168477042
H -3.5620744747 -1.8711375089 0.8379549938
H -2.7433116255 1.4200537911 0.0007163776
H 1.9966214722 2.1074757779 0.0020288325
H 3.9259402691 0.611916545 0.0013041647
H 3.6151619767 -1.8335668975 -0.001167025
H 1.3434094122 -2.7865197595 -0.0011555194
H -1.0641343747 -2.4949725424 0.0011567626
H 0.0529273225 3.190965726 0.8835435428
H 0.0621691218 3.1890887325 -0.8806365399
H -1.4660403301 3.3250605178 -0.0065754964
*
