      -----------------------------------------------------------      
     |                   =====================                   |     
     |                           x T B                           |     
     |                   =====================                   |     
     |                         S. Grimme                         |     
     |          Mulliken Center for Theoretical Chemistry        |     
     |                    University of Bonn                     |     
      -----------------------------------------------------------      

   * xtb version 6.7.1 (edcfbbe) compiled by 'albert@albert-system' on 2024-07-22

   xtb is free software: you can redistribute it and/or modify it under
   the terms of the GNU Lesser General Public License as published by
   the Free Software Foundation, either version 3 of the License, or
   (at your option) any later version.
   
   xtb is distributed in the hope that it will be useful,
   but WITHOUT ANY WARRANTY; without even the implied warranty of
   MERCHANTABILITY or FITNESS FOR A PARTICULAR PURPOSE.  See the
   GNU Lesser General Public License for more details.
   
   Cite this work as:
   * C. Bannwarth, E. Caldeweyher, S. Ehlert, A. Hansen, P. Pracht,
     J. Seibert, S. Spicher, S. Grimme, WIREs Comput. Mol. Sci., 2020, 11,
     e01493. DOI: 10.1002/wcms.1493
   
   for GFN2-xTB:
   * C. Bannwarth, S. Ehlert and S. Grimme., J. Chem. Theory Comput., 2019,
     15, 1652-1671. DOI: 10.1021/acs.jctc.8b01176
   for GFN1-xTB:
   * S. Grimme, C. Bannwarth, P. Shushkov, J. Chem. Theory Comput., 2017,
     13, 1989-2009. DOI: 10.1021/acs.jctc.7b00118
   for GFN0-xTB:
   * P. Pracht, E. Caldeweyher, S. Ehlert, S. Grimme, ChemRxiv, 2019, preprint.
     DOI: 10.26434/chemrxiv.8326202.v1
   for GFN-FF:
   * S. Spicher and S. Grimme, Angew. Chem. Int. Ed., 2020, 59, 15665-15673.
     DOI: 10.1002/anie.202004239
   
   for ALPB and GBSA implicit solvation:
   * S. Ehlert, M. Stahn, S. Spicher, S. Grimme, J. Chem. Theory Comput.,
     2021, 17, 4250-4261. DOI: 10.1021/acs.jctc.1c00471
   
   for ddCOSMO and CPCM-X implicit solvation:
   * M. Stahn, S. Ehlert, S. Grimme, J. Phys. Chem. A,
     2023, XX, XXXX-XXXX. DOI: 10.1021/acs.jpca.3c04382
   
   for DFT-D4:
   * E. Caldeweyher, C. Bannwarth and S. Grimme, J. Chem. Phys., 2017,
     147, 034112. DOI: 10.1063/1.4993215
   * E. Caldeweyher, S. Ehlert, A. Hansen, H. Neugebauer, S. Spicher,
     C. Bannwarth and S. Grimme, J. Chem. Phys., 2019, 150, 154122.
     DOI: 10.1063/1.5090222
   * E. Caldeweyher, J.-M. Mewes, S. Ehlert and S. Grimme, Phys. Chem. Chem. Phys.
     2020, 22, 8499-8512. DOI: 10.1039/D0CP00502A
   
   for sTDA-xTB:
   * S. Grimme and C. Bannwarth, J. Chem. Phys., 2016, 145, 054103.
     DOI: 10.1063/1.4959605
   
   in the mass-spec context:
   * V. Asgeirsson, C. Bauer and S. Grimme, Chem. Sci., 2017, 8, 4879.
     DOI: 10.1039/c7sc00601b
   * J. Koopman and S. Grimme, ACS Omega 2019, 4, 12, 15120-15133.
     DOI: 10.1021/acsomega.9b02011
   
   for metadynamics refer to:
   * S. Grimme, J. Chem. Theory Comput., 2019, 155, 2847-2862
     DOI: 10.1021/acs.jctc.9b00143
   
   for SPH calculations refer to:
   * S. Spicher and S. Grimme, J. Chem. Theory Comput., 2021, 17, 1701-1714
     DOI: 10.1021/acs.jctc.0c01306
   
   for ONIOM refer to:
   * C. Plett, A. Katbashev, S. Ehlert, S. Grimme, M. Bursch,
     Phys. Chem. Chem. Phys., 2023, 25, 17860-17868. DOI: 10.1039/D3CP02178E
   
   for DIPRO refer to:
   * J. Kohn, N. Gildemeister, S. Grimme, D. Fazzi, A. Hansen,
     J. Chem. Phys., 2023, just accepted.
   
   for PTB refer to:
   * S. Grimme, M. Mueller, A. Hansen, J. Chem. Phys., 2023, 158, 124111.
     DOI: 10.1063/5.0137838
   
   with help from (in alphabetical order)
   P. Atkinson, C. Bannwarth, F. Bohle, G. Brandenburg, E. Caldeweyher
   M. Checinski, S. Dohm, S. Ehlert, S. Ehrlich, I. Gerasimov, C. Hölzer
   A. Katbashev, J. Kohn, J. Koopman, C. Lavigne, S. Lehtola, F. März, M. Müller,
   F. Musil, H. Neugebauer, J. Pisarek, C. Plett, P. Pracht, F. Pultar,
   J. Seibert, P. Shushkov, S. Spicher, M. Stahn, M. Steiner, T. Strunk,
   J. Stückrath, T. Rose, and J. Unsleber
   
 * started run on 2025/04/06 at 22:31:19.724     
   ID    Z sym.   atoms
    1    6 C      1-4
    2    8 O      5
    3    1 H      6-15

           -------------------------------------------------
          |                Calculation Setup                |
           -------------------------------------------------

          program call               : /srv/scratch/z5358697/.xtb/bin/xtb gas.coord --gfn2 --sp --chrg 0 --norestart --parallel 1
          hostname                   : k159
          coordinate file            : gas.coord
          omp threads                :                     1


           -------------------------------------------------
          |                 G F N 2 - x T B                 |
           -------------------------------------------------

        Reference                      10.1021/acs.jctc.8b01176
      * Hamiltonian:
        H0-scaling (s, p, d)           1.850000    2.230000    2.230000
        zeta-weighting                 0.500000
      * Dispersion:
        s8                             2.700000
        a1                             0.520000
        a2                             5.000000
        s9                             5.000000
      * Repulsion:
        kExp                           1.500000    1.000000
        rExp                           1.000000
      * Coulomb:
        alpha                          2.000000
        third order                    shell-resolved
        anisotropic                    true
        a3                             3.000000
        a5                             4.000000
        cn-shift                       1.200000
        cn-exp                         4.000000
        max-rad                        5.000000


          ...................................................
          :                      SETUP                      :
          :.................................................:
          :  # basis functions                  30          :
          :  # atomic orbitals                  30          :
          :  # shells                           20          :
          :  # electrons                        32          :
          :  max. iterations                   250          :
          :  Hamiltonian                  GFN2-xTB          :
          :  restarted?                      false          :
          :  GBSA solvation                  false          :
          :  PC potential                    false          :
          :  electronic temp.          300.0000000     K    :
          :  accuracy                    1.0000000          :
          :  -> integral cutoff          0.2500000E+02      :
          :  -> integral neglect         0.1000000E-07      :
          :  -> SCF convergence          0.1000000E-05 Eh   :
          :  -> wf. convergence          0.1000000E-03 e    :
          :  Broyden damping             0.4000000          :
          :  net charge                          0          :
          :  unpaired electrons                  0          :
          ...................................................

 iter      E             dE          RMSdq      gap      omega  full diag
   1    -17.8977088 -0.178977E+02  0.311E+00   12.59       0.0  T
   2    -17.9323137 -0.346049E-01  0.164E+00   12.25       1.0  T
   3    -17.9329667 -0.653008E-03  0.738E-01   12.31       1.0  T
   4    -17.9331431 -0.176415E-03  0.112E-01   12.31       1.0  T
   5    -17.9331681 -0.249737E-04  0.622E-02   12.32       1.0  T
   6    -17.9331696 -0.154334E-05  0.862E-03   12.33       3.0  T
   7    -17.9331698 -0.189169E-06  0.424E-03   12.33       6.1  T
   8    -17.9331698 -0.137430E-07  0.128E-03   12.33      20.1  T
   9    -17.9331698 -0.175772E-08  0.318E-04   12.33      81.3  T
  10    -17.9331698 -0.267338E-09  0.886E-05   12.33     291.4  T

   *** convergence criteria satisfied after 10 iterations ***

         #    Occupation            Energy/Eh            Energy/eV
      -------------------------------------------------------------
         1        2.0000           -0.6827899             -18.5797
       ...           ...                  ...                  ...
        10        2.0000           -0.4853925             -13.2082
        11        2.0000           -0.4675709             -12.7233
        12        2.0000           -0.4572823             -12.4433
        13        2.0000           -0.4359240             -11.8621
        14        2.0000           -0.4288267             -11.6690
        15        2.0000           -0.4213617             -11.4658
        16        2.0000           -0.4048483             -11.0165 (HOMO)
        17                          0.0482615               1.3133 (LUMO)
        18                          0.0954915               2.5985
        19                          0.1133400               3.0841
        20                          0.1254858               3.4146
        21                          0.1348203               3.6686
       ...                                ...                  ...
        30                          0.3052887               8.3073
      -------------------------------------------------------------
                  HL-Gap            0.4531098 Eh           12.3297 eV
             Fermi-level           -0.1782934 Eh           -4.8516 eV

 SCC (total)                   0 d,  0 h,  0 min,  0.021 sec
 SCC setup                      ...        0 min,  0.000 sec (  0.529%)
 Dispersion                     ...        0 min,  0.000 sec (  0.237%)
 classical contributions        ...        0 min,  0.000 sec (  0.062%)
 integral evaluation            ...        0 min,  0.001 sec (  3.292%)
 iterations                     ...        0 min,  0.018 sec ( 87.018%)
 molecular gradient             ...        0 min,  0.002 sec (  8.370%)
 printout                       ...        0 min,  0.000 sec (  0.449%)

         :::::::::::::::::::::::::::::::::::::::::::::::::::::
         ::                     SUMMARY                     ::
         :::::::::::::::::::::::::::::::::::::::::::::::::::::
         :: total energy             -17.719330165139 Eh    ::
         :: gradient norm              0.004977905364 Eh/a0 ::
         :: HOMO-LUMO gap             12.329745084611 eV    ::
         ::.................................................::
         :: SCC energy               -17.933156777953 Eh    ::
         :: -> isotropic ES            0.026539974119 Eh    ::
         :: -> anisotropic ES          0.004694411409 Eh    ::
         :: -> anisotropic XC          0.005664159123 Eh    ::
         :: -> dispersion             -0.007307690656 Eh    ::
         :: repulsion energy           0.213826612814 Eh    ::
         :: add. restraining           0.000000000000 Eh    ::
         :: total charge              -0.000000000000 e     ::
         :::::::::::::::::::::::::::::::::::::::::::::::::::::

           -------------------------------------------------
          |                Property Printout                |
           -------------------------------------------------

    * Orbital Energies and Occupations

         #    Occupation            Energy/Eh            Energy/eV
      -------------------------------------------------------------
         1        2.0000           -0.6827899             -18.5797
       ...           ...                  ...                  ...
         4        2.0000           -0.5817997             -15.8316
         5        2.0000           -0.5661094             -15.4046
         6        2.0000           -0.5524507             -15.0329
         7        2.0000           -0.5290437             -14.3960
         8        2.0000           -0.5068030             -13.7908
         9        2.0000           -0.4928719             -13.4117
        10        2.0000           -0.4853925             -13.2082
        11        2.0000           -0.4675709             -12.7233
        12        2.0000           -0.4572823             -12.4433
        13        2.0000           -0.4359240             -11.8621
        14        2.0000           -0.4288267             -11.6690
        15        2.0000           -0.4213617             -11.4658
        16        2.0000           -0.4048483             -11.0165 (HOMO)
        17                          0.0482615               1.3133 (LUMO)
        18                          0.0954915               2.5985
        19                          0.1133400               3.0841
        20                          0.1254858               3.4146
        21                          0.1348203               3.6686
        22                          0.1457611               3.9664
        23                          0.1642927               4.4706
        24                          0.1888432               5.1387
        25                          0.2048545               5.5744
        26                          0.2333938               6.3510
        27                          0.2436405               6.6298
       ...                                ...                  ...
        30                          0.3052887               8.3073
      -------------------------------------------------------------
                  HL-Gap            0.4531098 Eh           12.3297 eV
             Fermi-level           -0.1782934 Eh           -4.8516 eV

     #   Z          covCN         q      C6AA      α(0)
     1   6 C        3.751    -0.103    22.521     6.768
     2   6 C        3.800    -0.055    21.558     6.611
     3   6 C        3.801    -0.061    21.679     6.629
     4   6 C        3.673     0.088    19.338     6.302
     5   8 O        1.655    -0.442    21.682     6.286
     6   1 H        0.925     0.032     2.563     2.504
     7   1 H        0.925     0.034     2.533     2.489
     8   1 H        0.925     0.033     2.539     2.492
     9   1 H        0.924     0.050     2.315     2.379
    10   1 H        0.924     0.030     2.581     2.512
    11   1 H        0.924     0.048     2.345     2.395
    12   1 H        0.924     0.033     2.540     2.492
    13   1 H        0.923     0.012     2.857     2.643
    14   1 H        0.924     0.018     2.766     2.601
    15   1 H        0.805     0.281     0.780     1.387

 Mol. C6AA /au·bohr⁶  :       1465.921348
 Mol. C8AA /au·bohr⁸  :      29881.688852
 Mol. α(0) /au        :         56.489517


Wiberg/Mayer (AO) data.
largest (>0.10) Wiberg bond orders for each atom

 ---------------------------------------------------------------------------
     #   Z sym  total        # sym  WBO       # sym  WBO       # sym  WBO
 ---------------------------------------------------------------------------
     1   6 C    3.998 --     2 C    1.021     6 H    0.988     7 H    0.987
                             8 H    0.986
     2   6 C    3.996 --     1 C    1.021     3 C    1.008    10 H    0.979
                             9 H    0.976
     3   6 C    3.996 --     2 C    1.008     4 C    1.005    11 H    0.976
                            12 H    0.976
     4   6 C    3.957 --     3 C    1.005     5 O    0.992    13 H    0.972
                            14 H    0.970
     5   8 O    1.951 --     4 C    0.992    15 H    0.907
     6   1 H    0.999 --     1 C    0.988
     7   1 H    0.999 --     1 C    0.987
     8   1 H    0.999 --     1 C    0.986
     9   1 H    0.997 --     2 C    0.976
    10   1 H    0.999 --     2 C    0.979
    11   1 H    0.998 --     3 C    0.976
    12   1 H    0.999 --     3 C    0.976
    13   1 H    1.000 --     4 C    0.972
    14   1 H    1.000 --     4 C    0.970
    15   1 H    0.921 --     5 O    0.907
 ---------------------------------------------------------------------------

Topologies differ in total number of bonds
Writing topology from bond orders to xtbtopo.mol

molecular dipole:
                 x           y           z       tot (Debye)
 q only:        0.001       0.058      -0.396
   full:       -0.119       0.051      -0.643       1.667
molecular quadrupole (traceless):
                xx          xy          yy          xz          yz          zz
 q only:        0.915       0.916      -0.166       2.556       0.769      -0.750
  q+dip:        1.334       1.068      -0.167       4.026       1.488      -1.167
   full:        1.501       1.306      -0.334       3.955       1.311      -1.168


           -------------------------------------------------
          | TOTAL ENERGY              -17.719330165139 Eh   |
          | GRADIENT NORM               0.004977905364 Eh/α |
          | HOMO-LUMO GAP              12.329745084611 eV   |
           -------------------------------------------------

------------------------------------------------------------------------
 * finished run on 2025/04/06 at 22:31:19.768     
------------------------------------------------------------------------
 total:
 * wall-time:     0 d,  0 h,  0 min,  0.043 sec
 *  cpu-time:     0 d,  0 h,  0 min,  0.011 sec
 * ratio c/w:     0.255 speedup
 SCF:
 * wall-time:     0 d,  0 h,  0 min,  0.021 sec
 *  cpu-time:     0 d,  0 h,  0 min,  0.006 sec
 * ratio c/w:     0.280 speedup

