      -----------------------------------------------------------      
     |                   =====================                   |     
     |                           x T B                           |     
     |                   =====================                   |     
     |                         S. Grimme                         |     
     |          Mulliken Center for Theoretical Chemistry        |     
     |                    University of Bonn                     |     
      -----------------------------------------------------------      

   * xtb version 6.7.1 (edcfbbe) compiled by 'albert@albert-system' on 2024-07-22

   xtb is free software: you can redistribute it and/or modify it under
   the terms of the GNU Lesser General Public License as published by
   the Free Software Foundation, either version 3 of the License, or
   (at your option) any later version.
   
   xtb is distributed in the hope that it will be useful,
   but WITHOUT ANY WARRANTY; without even the implied warranty of
   MERCHANTABILITY or FITNESS FOR A PARTICULAR PURPOSE.  See the
   GNU Lesser General Public License for more details.
   
   Cite this work as:
   * C. Bannwarth, E. Caldeweyher, S. Ehlert, A. Hansen, P. Pracht,
     J. Seibert, S. Spicher, S. Grimme, WIREs Comput. Mol. Sci., 2020, 11,
     e01493. DOI: 10.1002/wcms.1493
   
   for GFN2-xTB:
   * C. Bannwarth, S. Ehlert and S. Grimme., J. Chem. Theory Comput., 2019,
     15, 1652-1671. DOI: 10.1021/acs.jctc.8b01176
   for GFN1-xTB:
   * S. Grimme, C. Bannwarth, P. Shushkov, J. Chem. Theory Comput., 2017,
     13, 1989-2009. DOI: 10.1021/acs.jctc.7b00118
   for GFN0-xTB:
   * P. Pracht, E. Caldeweyher, S. Ehlert, S. Grimme, ChemRxiv, 2019, preprint.
     DOI: 10.26434/chemrxiv.8326202.v1
   for GFN-FF:
   * S. Spicher and S. Grimme, Angew. Chem. Int. Ed., 2020, 59, 15665-15673.
     DOI: 10.1002/anie.202004239
   
   for ALPB and GBSA implicit solvation:
   * S. Ehlert, M. Stahn, S. Spicher, S. Grimme, J. Chem. Theory Comput.,
     2021, 17, 4250-4261. DOI: 10.1021/acs.jctc.1c00471
   
   for ddCOSMO and CPCM-X implicit solvation:
   * M. Stahn, S. Ehlert, S. Grimme, J. Phys. Chem. A,
     2023, XX, XXXX-XXXX. DOI: 10.1021/acs.jpca.3c04382
   
   for DFT-D4:
   * E. Caldeweyher, C. Bannwarth and S. Grimme, J. Chem. Phys., 2017,
     147, 034112. DOI: 10.1063/1.4993215
   * E. Caldeweyher, S. Ehlert, A. Hansen, H. Neugebauer, S. Spicher,
     C. Bannwarth and S. Grimme, J. Chem. Phys., 2019, 150, 154122.
     DOI: 10.1063/1.5090222
   * E. Caldeweyher, J.-M. Mewes, S. Ehlert and S. Grimme, Phys. Chem. Chem. Phys.
     2020, 22, 8499-8512. DOI: 10.1039/D0CP00502A
   
   for sTDA-xTB:
   * S. Grimme and C. Bannwarth, J. Chem. Phys., 2016, 145, 054103.
     DOI: 10.1063/1.4959605
   
   in the mass-spec context:
   * V. Asgeirsson, C. Bauer and S. Grimme, Chem. Sci., 2017, 8, 4879.
     DOI: 10.1039/c7sc00601b
   * J. Koopman and S. Grimme, ACS Omega 2019, 4, 12, 15120-15133.
     DOI: 10.1021/acsomega.9b02011
   
   for metadynamics refer to:
   * S. Grimme, J. Chem. Theory Comput., 2019, 155, 2847-2862
     DOI: 10.1021/acs.jctc.9b00143
   
   for SPH calculations refer to:
   * S. Spicher and S. Grimme, J. Chem. Theory Comput., 2021, 17, 1701-1714
     DOI: 10.1021/acs.jctc.0c01306
   
   for ONIOM refer to:
   * C. Plett, A. Katbashev, S. Ehlert, S. Grimme, M. Bursch,
     Phys. Chem. Chem. Phys., 2023, 25, 17860-17868. DOI: 10.1039/D3CP02178E
   
   for DIPRO refer to:
   * J. Kohn, N. Gildemeister, S. Grimme, D. Fazzi, A. Hansen,
     J. Chem. Phys., 2023, just accepted.
   
   for PTB refer to:
   * S. Grimme, M. Mueller, A. Hansen, J. Chem. Phys., 2023, 158, 124111.
     DOI: 10.1063/5.0137838
   
   with help from (in alphabetical order)
   P. Atkinson, C. Bannwarth, F. Bohle, G. Brandenburg, E. Caldeweyher
   M. Checinski, S. Dohm, S. Ehlert, S. Ehrlich, I. Gerasimov, C. Hölzer
   A. Katbashev, J. Kohn, J. Koopman, C. Lavigne, S. Lehtola, F. März, M. Müller,
   F. Musil, H. Neugebauer, J. Pisarek, C. Plett, P. Pracht, F. Pultar,
   J. Seibert, P. Shushkov, S. Spicher, M. Stahn, M. Steiner, T. Strunk,
   J. Stückrath, T. Rose, and J. Unsleber
   
 * started run on 2025/04/06 at 22:31:19.802     
   ID    Z sym.   atoms
    1    6 C      1-4
    2    8 O      5
    3    1 H      6-15

           -------------------------------------------------
          |                Calculation Setup                |
           -------------------------------------------------

          program call               : /srv/scratch/z5358697/.xtb/bin/xtb solv.coord --gfn2 --sp --chrg 0 --norestart --parallel 1 --alpb water reference -I xtb_sp-xcontrol-inp
          hostname                   : k159
          coordinate file            : solv.coord
          omp threads                :                     1


           -------------------------------------------------
          |                 G F N 2 - x T B                 |
           -------------------------------------------------

        Reference                      10.1021/acs.jctc.8b01176
      * Hamiltonian:
        H0-scaling (s, p, d)           1.850000    2.230000    2.230000
        zeta-weighting                 0.500000
      * Dispersion:
        s8                             2.700000
        a1                             0.520000
        a2                             5.000000
        s9                             5.000000
      * Repulsion:
        kExp                           1.500000    1.000000
        rExp                           1.000000
      * Coulomb:
        alpha                          2.000000
        third order                    shell-resolved
        anisotropic                    true
        a3                             3.000000
        a5                             4.000000
        cn-shift                       1.200000
        cn-exp                         4.000000
        max-rad                        5.000000

      * Solvation model:               ALPB
        Solvent                        water
        Parameter file                 internal GFN2-xTB/ALPB
        Dielectric constant                8.0200E+01
        Reference state                gsolv=reference [X=1]
        Free energy shift                  2.8945E-03 Eh       1.8164E+00 kcal/mol
        Temperature                        2.9815E+02 K
        Density                            1.0000E+00 kg/L
        Solvent mass                       1.8000E+01 g/mol
        Interaction kernel             P16
        Born radius scaling (c1)           1.4744E+00
        Born radii integrator          GBOBC
        Born offset                        0.0000E+00 a0       0.0000E+00 AA
        H-bond correction              true
        Ion screening                  false
        Surface tension                    1.0000E-05 Eh       1.5569E+01 dyn/cm
        Grid points                               974 per atom

          ...................................................
          :                      SETUP                      :
          :.................................................:
          :  # basis functions                  30          :
          :  # atomic orbitals                  30          :
          :  # shells                           20          :
          :  # electrons                        32          :
          :  max. iterations                   250          :
          :  Hamiltonian                  GFN2-xTB          :
          :  restarted?                      false          :
          :  GBSA solvation                   true          :
          :  PC potential                    false          :
          :  electronic temp.          300.0000000     K    :
          :  accuracy                    1.0000000          :
          :  -> integral cutoff          0.2500000E+02      :
          :  -> integral neglect         0.1000000E-07      :
          :  -> SCF convergence          0.1000000E-05 Eh   :
          :  -> wf. convergence          0.1000000E-03 e    :
          :  Broyden damping             0.4000000          :
          :  net charge                          0          :
          :  unpaired electrons                  0          :
          ...................................................

 iter      E             dE          RMSdq      gap      omega  full diag
   1    -17.9129527 -0.179130E+02  0.317E+00   12.63       0.0  T
   2    -17.9378017 -0.248490E-01  0.165E+00   12.42       1.0  T
   3    -17.9386328 -0.831134E-03  0.600E-01   12.40       1.0  T
   4    -17.9387953 -0.162486E-03  0.118E-01   12.40       1.0  T
   5    -17.9388157 -0.203374E-04  0.654E-02   12.42       1.0  T
   6    -17.9388188 -0.318090E-05  0.133E-02   12.43       1.9  T
   7    -17.9388191 -0.300622E-06  0.610E-03   12.43       4.2  T
   8    -17.9388192 -0.702489E-07  0.233E-03   12.43      11.1  T
   9    -17.9388192 -0.736652E-08  0.747E-04   12.43      34.6  T
  10    -17.9388192 -0.135348E-08  0.178E-04   12.43     145.2  T

   *** convergence criteria satisfied after 10 iterations ***

         #    Occupation            Energy/Eh            Energy/eV
      -------------------------------------------------------------
         1        2.0000           -0.6849729             -18.6391
       ...           ...                  ...                  ...
        10        2.0000           -0.4851866             -13.2026
        11        2.0000           -0.4668710             -12.7042
        12        2.0000           -0.4558654             -12.4047
        13        2.0000           -0.4360531             -11.8656
        14        2.0000           -0.4291719             -11.6784
        15        2.0000           -0.4213398             -11.4652
        16        2.0000           -0.4052709             -11.0280 (HOMO)
        17                          0.0514562               1.4002 (LUMO)
        18                          0.0956768               2.6035
        19                          0.1132222               3.0809
        20                          0.1275258               3.4702
        21                          0.1350786               3.6757
       ...                                ...                  ...
        30                          0.3054374               8.3114
      -------------------------------------------------------------
                  HL-Gap            0.4567270 Eh           12.4282 eV
             Fermi-level           -0.1769074 Eh           -4.8139 eV

 SCC (total)                   0 d,  0 h,  0 min,  0.007 sec
 SCC setup                      ...        0 min,  0.001 sec (  9.369%)
 Dispersion                     ...        0 min,  0.000 sec (  0.696%)
 classical contributions        ...        0 min,  0.000 sec (  0.163%)
 integral evaluation            ...        0 min,  0.001 sec ( 12.422%)
 iterations                     ...        0 min,  0.004 sec ( 52.154%)
 molecular gradient             ...        0 min,  0.002 sec ( 23.809%)
 printout                       ...        0 min,  0.000 sec (  1.226%)

         :::::::::::::::::::::::::::::::::::::::::::::::::::::
         ::                     SUMMARY                     ::
         :::::::::::::::::::::::::::::::::::::::::::::::::::::
         :: total energy             -17.724979541201 Eh    ::
         :: total w/o Gsasa/hb       -17.721775496880 Eh    ::
         :: gradient norm              0.000260432760 Eh/a0 ::
         :: HOMO-LUMO gap             12.428175600901 eV    ::
         ::.................................................::
         :: SCC energy               -17.938806154016 Eh    ::
         :: -> isotropic ES            0.035915874877 Eh    ::
         :: -> anisotropic ES          0.004081211714 Eh    ::
         :: -> anisotropic XC          0.005868645016 Eh    ::
         :: -> dispersion             -0.007292197624 Eh    ::
         :: -> Gsolv                  -0.007818658853 Eh    ::
         ::    -> Gelec               -0.004614614532 Eh    ::
         ::    -> Gsasa                0.000344886486 Eh    ::
         ::    -> Ghb                 -0.006443479967 Eh    ::
         ::    -> Gshift               0.002894549160 Eh    ::
         :: repulsion energy           0.213826612814 Eh    ::
         :: add. restraining           0.000000000000 Eh    ::
         :: total charge              -0.000000000000 e     ::
         :::::::::::::::::::::::::::::::::::::::::::::::::::::

           -------------------------------------------------
          |                Property Printout                |
           -------------------------------------------------

    * Orbital Energies and Occupations

         #    Occupation            Energy/Eh            Energy/eV
      -------------------------------------------------------------
         1        2.0000           -0.6849729             -18.6391
       ...           ...                  ...                  ...
         4        2.0000           -0.5815142             -15.8238
         5        2.0000           -0.5633771             -15.3303
         6        2.0000           -0.5524371             -15.0326
         7        2.0000           -0.5285918             -14.3837
         8        2.0000           -0.5073718             -13.8063
         9        2.0000           -0.4925355             -13.4026
        10        2.0000           -0.4851866             -13.2026
        11        2.0000           -0.4668710             -12.7042
        12        2.0000           -0.4558654             -12.4047
        13        2.0000           -0.4360531             -11.8656
        14        2.0000           -0.4291719             -11.6784
        15        2.0000           -0.4213398             -11.4652
        16        2.0000           -0.4052709             -11.0280 (HOMO)
        17                          0.0514562               1.4002 (LUMO)
        18                          0.0956768               2.6035
        19                          0.1132222               3.0809
        20                          0.1275258               3.4702
        21                          0.1350786               3.6757
        22                          0.1461986               3.9783
        23                          0.1639727               4.4619
        24                          0.1913821               5.2078
        25                          0.2098227               5.7096
        26                          0.2370454               6.4503
        27                          0.2460126               6.6943
       ...                                ...                  ...
        30                          0.3054374               8.3114
      -------------------------------------------------------------
                  HL-Gap            0.4567270 Eh           12.4282 eV
             Fermi-level           -0.1769074 Eh           -4.8139 eV

     #   Z          covCN         q      C6AA      α(0)
     1   6 C        3.751    -0.111    22.693     6.793
     2   6 C        3.800    -0.059    21.628     6.621
     3   6 C        3.801    -0.068    21.808     6.649
     4   6 C        3.673     0.085    19.393     6.311
     5   8 O        1.655    -0.522    23.378     6.527
     6   1 H        0.925     0.038     2.476     2.461
     7   1 H        0.925     0.039     2.465     2.455
     8   1 H        0.925     0.036     2.496     2.471
     9   1 H        0.924     0.043     2.406     2.426
    10   1 H        0.924     0.033     2.539     2.492
    11   1 H        0.924     0.045     2.379     2.412
    12   1 H        0.924     0.041     2.431     2.438
    13   1 H        0.923     0.017     2.774     2.605
    14   1 H        0.924     0.024     2.679     2.560
    15   1 H        0.805     0.358     0.569     1.185

 Mol. C6AA /au·bohr⁶  :       1464.026143
 Mol. C8AA /au·bohr⁸  :      29944.929042
 Mol. α(0) /au        :         56.406004


Wiberg/Mayer (AO) data.
largest (>0.10) Wiberg bond orders for each atom

 ---------------------------------------------------------------------------
     #   Z sym  total        # sym  WBO       # sym  WBO       # sym  WBO
 ---------------------------------------------------------------------------
     1   6 C    3.997 --     2 C    1.021     6 H    0.987     7 H    0.987
                             8 H    0.985
     2   6 C    3.997 --     1 C    1.021     3 C    1.008    10 H    0.979
                             9 H    0.977
     3   6 C    3.996 --     2 C    1.008     4 C    1.006    11 H    0.976
                            12 H    0.975
     4   6 C    3.955 --     3 C    1.006     5 O    0.990    13 H    0.972
                            14 H    0.970
     5   8 O    1.900 --     4 C    0.990    15 H    0.859
     6   1 H    0.999 --     1 C    0.987
     7   1 H    0.998 --     1 C    0.987
     8   1 H    0.999 --     1 C    0.985
     9   1 H    0.998 --     2 C    0.977
    10   1 H    0.999 --     2 C    0.979
    11   1 H    0.998 --     3 C    0.976
    12   1 H    0.998 --     3 C    0.975
    13   1 H    1.000 --     4 C    0.972
    14   1 H    0.999 --     4 C    0.970
    15   1 H    0.872 --     5 O    0.859
 ---------------------------------------------------------------------------

Topologies differ in total number of bonds
Writing topology from bond orders to xtbtopo.mol

molecular dipole:
                 x           y           z       tot (Debye)
 q only:       -0.069       0.021      -0.532
   full:       -0.165       0.025      -0.726       1.893
molecular quadrupole (traceless):
                xx          xy          yy          xz          yz          zz
 q only:        1.740       1.523      -0.429       3.037       0.931      -1.310
  q+dip:        1.883       1.494      -0.345       4.358       1.607      -1.538
   full:        2.050       1.733      -0.509       4.274       1.424      -1.542


           -------------------------------------------------
          | TOTAL ENERGY              -17.724979541201 Eh   |
          | GRADIENT NORM               0.000260432760 Eh/α |
          | HOMO-LUMO GAP              12.428175600901 eV   |
           -------------------------------------------------

------------------------------------------------------------------------
 * finished run on 2025/04/06 at 22:31:19.836     
------------------------------------------------------------------------
 total:
 * wall-time:     0 d,  0 h,  0 min,  0.034 sec
 *  cpu-time:     0 d,  0 h,  0 min,  0.012 sec
 * ratio c/w:     0.352 speedup
 SCF:
 * wall-time:     0 d,  0 h,  0 min,  0.008 sec
 *  cpu-time:     0 d,  0 h,  0 min,  0.007 sec
 * ratio c/w:     0.882 speedup

