! pbe def2-sv(p) def2/J RI DEFGRID1 loosescf d4 GCP(DFT/SV(P)) printgap
%output
    printlevel normal
end
* xyz 0 1
C -2.3177141423 -0.1992531209 -0.5653209105
C -1.2768867745 -0.5865667287 0.4869997615
C 0.0081086312 0.1611470933 0.2414200328
O 0.1257129879 1.3682954049 0.2802800009
O 1.0046826654 -0.6660865307 -0.0485796204
C 2.2981625376 -0.120802312 -0.3278095467
H -2.4553691712 0.8793935734 -0.5703350856
H -1.994176099 -0.5125621428 -1.5548221157
H -3.2664748616 -0.6760303788 -0.3396931721
H -1.0708292639 -1.6553387845 0.4593095529
H -1.6414995781 -0.3070314081 1.4763978245
H 2.7190839838 -0.7173095277 -1.1328130181
H 2.9138177366 -0.1998218895 0.5675873662
H 2.2041546395 0.9254524938 -0.6207836934
*
