 Entering Gaussian System
 *********************************************
 Gaussian 98:
 frequency output generated by the xtb code
 *********************************************
                         Standard orientation:
 --------------------------------------------------------------------
  Center     Atomic     Atomic              Coordinates (Angstroms)
  Number     Number      Type              X           Y           Z
 --------------------------------------------------------------------
    1          6             0        2.058277    0.482593    0.326590
    2          6             0        1.019103   -0.079815   -0.641208
    3          8             0       -0.000016   -0.831781    0.000487
    4          6             0       -1.019096   -0.079069    0.641366
    5          6             0       -2.058243    0.482338   -0.327041
    6          1             0        2.462526   -0.319250    0.938848
    7          1             0        2.863813    0.941289   -0.238445
    8          1             0        1.621148    1.233444    0.980092
    9          1             0        1.493416   -0.794082   -1.318827
   10          1             0        0.580763    0.728658   -1.238144
   11          1             0       -1.493443   -0.792578    1.319762
   12          1             0       -0.580716    0.730029    1.237424
   13          1             0       -2.863756    0.941686    0.237497
   14          1             0       -1.621079    1.232459   -0.981357
   15          1             0       -2.462532   -0.320149   -0.938427
 --------------------------------------------------------------------
     1 basis functions        1 primitive gaussians
     1 alpha electrons        1 beta electrons
 
 Harmonic frequencies (cm**-1), IR intensities (km*mol⁻¹),
 Raman scattering activities (A**4/amu), Raman depolarization ratios,
 reduced masses (AMU), force constants (mDyne/A) and normal coordinates:
                      1                      2                      3
                        a                      a                      a 
 Frequencies --    31.0874               125.2200               186.6341
 Red. masses --     7.4388                 6.1275                 1.8872
 Frc consts  --     0.0000                 0.0000                 0.0000
 IR Inten    --     0.0250                 4.6600                 0.4781
 Raman Activ --     0.0000                 0.0000                 0.0000
 Depolar     --     0.0000                 0.0000                 0.0000
 Atom AN      X      Y      Z        X      Y      Z        X      Y      Z
   1   6    -0.29   0.33  -0.07    -0.16   0.06   0.22     0.12  -0.10  -0.02
   2   6    -0.01  -0.23  -0.04     0.19  -0.11  -0.06     0.03   0.05  -0.02
   3   8    -0.00  -0.24   0.00    -0.06  -0.00  -0.38     0.00   0.13  -0.00
   4   6     0.01  -0.23   0.04     0.19   0.11  -0.06    -0.03   0.05   0.02
   5   6     0.29   0.33   0.07    -0.16  -0.06   0.22    -0.12  -0.10   0.02
   6   1    -0.11   0.19   0.13    -0.24   0.07   0.26    -0.26  -0.00   0.23
   7   1    -0.05   0.03  -0.03     0.10  -0.17   0.12     0.23  -0.38  -0.01
   8   1    -0.14   0.19  -0.16    -0.06   0.18  -0.13     0.16   0.24  -0.24
   9   1     0.07  -0.12   0.09     0.12  -0.07   0.07    -0.02  -0.00  -0.00
  10   1    -0.01  -0.16  -0.13     0.12  -0.06  -0.11     0.03   0.02  -0.01
  11   1    -0.07  -0.12  -0.09     0.12   0.07   0.07     0.02  -0.00   0.00
  12   1     0.01  -0.16   0.13     0.12   0.06  -0.11    -0.03   0.02   0.01
  13   1     0.05   0.03   0.03     0.10   0.17   0.12    -0.23  -0.38   0.01
  14   1     0.14   0.19   0.16    -0.06  -0.18  -0.13    -0.16   0.24   0.24
  15   1     0.11   0.19  -0.13    -0.24  -0.07   0.26     0.26  -0.00  -0.23
                      4                      5                      6
                        a                      a                      a 
 Frequencies --   226.9899               303.2514               449.1293
 Red. masses --     4.0022                 8.2716                10.9222
 Frc consts  --     0.0000                 0.0000                 0.0000
 IR Inten    --     1.3046                 0.1088                16.3750
 Raman Activ --     0.0000                 0.0000                 0.0000
 Depolar     --     0.0000                 0.0000                 0.0000
 Atom AN      X      Y      Z        X      Y      Z        X      Y      Z
   1   6     0.12  -0.01  -0.10    -0.40  -0.13   0.08    -0.22  -0.14   0.01
   2   6    -0.16   0.25   0.05    -0.31   0.17  -0.15     0.04   0.01  -0.27
   3   8     0.08   0.00   0.15    -0.00  -0.08   0.00     0.51  -0.00   0.43
   4   6    -0.16  -0.25   0.05     0.31   0.17   0.15     0.04  -0.01  -0.27
   5   6     0.12   0.01  -0.10     0.40  -0.13  -0.07    -0.22   0.14   0.01
   6   1    -0.19  -0.00   0.12    -0.22  -0.10   0.01    -0.19  -0.11   0.00
   7   1     0.18  -0.30  -0.07    -0.04  -0.06   0.11     0.03  -0.01   0.17
   8   1     0.19   0.22  -0.18    -0.11  -0.04   0.03    -0.16  -0.10   0.01
   9   1    -0.09   0.13  -0.09    -0.09   0.14  -0.14     0.00   0.02  -0.10
  10   1    -0.10   0.12   0.11    -0.15   0.09   0.06    -0.07  -0.02  -0.04
  11   1    -0.09  -0.13  -0.09     0.09   0.14   0.14     0.00  -0.02  -0.10
  12   1    -0.10  -0.12   0.11     0.15   0.09  -0.06    -0.07   0.02  -0.04
  13   1     0.18   0.30  -0.07     0.04  -0.06  -0.11     0.03   0.01   0.17
  14   1     0.19  -0.22  -0.18     0.11  -0.04  -0.03    -0.16   0.10   0.01
  15   1    -0.20   0.00   0.13     0.22  -0.10  -0.01    -0.19   0.11   0.00
                      7                      8                      9
                        a                      a                      a 
 Frequencies --   451.4349               808.0977               810.3670
 Red. masses --     8.6795                 2.2128                 4.5863
 Frc consts  --     0.0000                 0.0000                 0.0000
 IR Inten    --     6.9100                 7.8239                21.5787
 Raman Activ --     0.0000                 0.0000                 0.0000
 Depolar     --     0.0000                 0.0000                 0.0000
 Atom AN      X      Y      Z        X      Y      Z        X      Y      Z
   1   6     0.11   0.14   0.03     0.02  -0.08  -0.00     0.15   0.02   0.00
   2   6    -0.18   0.05   0.31     0.09  -0.20   0.01     0.25  -0.05  -0.23
   3   8    -0.00  -0.52  -0.00    -0.02  -0.00  -0.03     0.00  -0.19   0.00
   4   6     0.18   0.05  -0.31     0.09   0.20   0.01    -0.25  -0.05   0.23
   5   6    -0.11   0.14  -0.03     0.02   0.08  -0.00    -0.15   0.02  -0.00
   6   1     0.08   0.08   0.02     0.12   0.20   0.20     0.03   0.13   0.16
   7   1    -0.02  -0.04  -0.13    -0.06   0.09  -0.00     0.08   0.14   0.16
   8   1     0.15   0.12  -0.01    -0.25   0.01  -0.20    -0.24  -0.03  -0.15
   9   1    -0.03   0.18  -0.06    -0.15   0.11  -0.28    -0.09   0.11  -0.30
  10   1    -0.17   0.06   0.25    -0.01   0.16   0.31     0.00   0.14   0.19
  11   1     0.03   0.18   0.07    -0.15  -0.11  -0.28     0.09   0.12   0.30
  12   1     0.17   0.06  -0.25    -0.01  -0.16   0.31    -0.00   0.14  -0.19
  13   1     0.02  -0.04   0.13    -0.06  -0.09  -0.00    -0.08   0.14  -0.16
  14   1    -0.15   0.12   0.01    -0.25  -0.01  -0.20     0.24  -0.03   0.15
  15   1    -0.08   0.08  -0.02     0.12  -0.20   0.20    -0.03   0.13  -0.16
                     10                     11                     12
                        a                      a                      a 
 Frequencies --   867.3309               940.9888              1043.7434
 Red. masses --     6.8480                 8.3452                 8.5395
 Frc consts  --     0.0000                 0.0000                 0.0000
 IR Inten    --     3.5203                12.4722                22.8243
 Raman Activ --     0.0000                 0.0000                 0.0000
 Depolar     --     0.0000                 0.0000                 0.0000
 Atom AN      X      Y      Z        X      Y      Z        X      Y      Z
   1   6    -0.14  -0.19  -0.03     0.30   0.16   0.04    -0.28  -0.12  -0.14
   2   6    -0.10  -0.14   0.23    -0.01   0.05  -0.22     0.42   0.19   0.05
   3   8     0.00   0.43  -0.00    -0.45   0.00   0.19    -0.00  -0.17   0.00
   4   6     0.10  -0.15  -0.23    -0.01  -0.05  -0.22    -0.42   0.19  -0.05
   5   6     0.14  -0.18   0.03     0.30  -0.16   0.04     0.28  -0.12   0.14
   6   1     0.15   0.17   0.14    -0.08  -0.02   0.04    -0.01  -0.03  -0.08
   7   1    -0.18  -0.00  -0.18     0.23   0.13   0.30    -0.14  -0.10  -0.19
   8   1    -0.13   0.03  -0.16    -0.10  -0.06   0.01     0.03   0.02  -0.03
   9   1    -0.17  -0.03  -0.05    -0.13  -0.08  -0.04     0.22   0.15  -0.01
  10   1     0.11   0.12   0.16    -0.04  -0.01  -0.05     0.10   0.07   0.06
  11   1     0.18  -0.03   0.05    -0.13   0.08  -0.04    -0.22   0.15   0.01
  12   1    -0.11   0.12  -0.16    -0.04   0.01  -0.05    -0.10   0.07  -0.06
  13   1     0.18  -0.00   0.18     0.23  -0.13   0.30     0.14  -0.10   0.19
  14   1     0.13   0.03   0.16    -0.10   0.06   0.01    -0.03   0.02   0.03
  15   1    -0.15   0.17  -0.14    -0.08   0.02   0.04     0.01  -0.03   0.08
                     13                     14                     15
                        a                      a                      a 
 Frequencies --  1069.2658              1080.5504              1094.5794
 Red. masses --     9.4709                 6.7329                 7.6904
 Frc consts  --     0.0000                 0.0000                 0.0000
 IR Inten    --    60.4319                 2.0278                95.9991
 Raman Activ --     0.0000                 0.0000                 0.0000
 Depolar     --     0.0000                 0.0000                 0.0000
 Atom AN      X      Y      Z        X      Y      Z        X      Y      Z
   1   6    -0.12  -0.11  -0.31    -0.00  -0.03   0.33    -0.05  -0.13   0.18
   2   6     0.30   0.27   0.24    -0.05  -0.01  -0.38     0.10   0.24  -0.29
   3   8    -0.23   0.00   0.09    -0.00  -0.04   0.00    -0.22   0.00   0.31
   4   6     0.30  -0.27   0.24     0.05  -0.01   0.38     0.10  -0.24  -0.29
   5   6    -0.12   0.11  -0.31     0.00  -0.03  -0.33    -0.05   0.13   0.18
   6   1    -0.12  -0.05  -0.04     0.24   0.11   0.08     0.21   0.12   0.10
   7   1     0.02   0.04   0.06    -0.17  -0.08  -0.23    -0.17  -0.04  -0.20
   8   1    -0.19  -0.08  -0.12     0.20   0.13   0.05     0.06   0.09  -0.05
   9   1    -0.01  -0.04   0.13     0.05   0.02  -0.08    -0.03  -0.06   0.03
  10   1     0.14   0.07   0.02     0.04   0.04  -0.09     0.19   0.11  -0.12
  11   1    -0.01   0.04   0.13    -0.05   0.02   0.08    -0.03   0.06   0.03
  12   1     0.14  -0.07   0.02    -0.04   0.04   0.09     0.19  -0.11  -0.12
  13   1     0.02  -0.04   0.06     0.17  -0.08   0.23    -0.17   0.04  -0.20
  14   1    -0.19   0.08  -0.12    -0.20   0.13  -0.05     0.06  -0.09  -0.05
  15   1    -0.12   0.05  -0.04    -0.24   0.11  -0.08     0.21  -0.12   0.10
                     16                     17                     18
                        a                      a                      a 
 Frequencies --  1124.4684              1184.4821              1251.8780
 Red. masses --     7.1498                 6.8214                 2.4049
 Frc consts  --     0.0000                 0.0000                 0.0000
 IR Inten    --    67.1220                20.0202                 2.8357
 Raman Activ --     0.0000                 0.0000                 0.0000
 Depolar     --     0.0000                 0.0000                 0.0000
 Atom AN      X      Y      Z        X      Y      Z        X      Y      Z
   1   6    -0.15   0.14   0.01     0.12  -0.22  -0.03     0.10  -0.17  -0.01
   2   6     0.32  -0.13  -0.09    -0.14   0.35   0.02    -0.02   0.10  -0.01
   3   8    -0.36   0.00   0.18    -0.00  -0.29   0.00    -0.14   0.00   0.03
   4   6     0.32   0.13  -0.09     0.14   0.35  -0.02    -0.02  -0.10  -0.01
   5   6    -0.15  -0.14   0.01    -0.12  -0.22   0.04     0.10   0.17  -0.01
   6   1    -0.07  -0.11  -0.16     0.11   0.13   0.17     0.08   0.09   0.12
   7   1    -0.00  -0.11  -0.07    -0.04   0.10   0.02    -0.03   0.04  -0.01
   8   1     0.19   0.04   0.14    -0.20  -0.03  -0.18    -0.13  -0.02  -0.13
   9   1     0.15   0.18  -0.18     0.07  -0.05   0.22     0.39   0.22   0.07
  10   1    -0.12   0.00   0.18     0.08  -0.02  -0.22    -0.34  -0.22  -0.07
  11   1     0.15  -0.18  -0.18    -0.07  -0.05  -0.22     0.39  -0.22   0.07
  12   1    -0.12  -0.00   0.18    -0.08  -0.02   0.22    -0.34   0.22  -0.07
  13   1    -0.00   0.11  -0.07     0.04   0.10  -0.02    -0.03  -0.04  -0.01
  14   1     0.19  -0.04   0.14     0.20  -0.03   0.18    -0.13   0.02  -0.13
  15   1    -0.07   0.11  -0.16    -0.11   0.13  -0.17     0.08  -0.09   0.12
                     19                     20                     21
                        a                      a                      a 
 Frequencies --  1286.4743              1322.7878              1326.4954
 Red. masses --     2.7851                 3.0790                 3.4179
 Frc consts  --     0.0000                 0.0000                 0.0000
 IR Inten    --     4.2336                28.8110                15.2351
 Raman Activ --     0.0000                 0.0000                 0.0000
 Depolar     --     0.0000                 0.0000                 0.0000
 Atom AN      X      Y      Z        X      Y      Z        X      Y      Z
   1   6     0.05  -0.12   0.01    -0.00  -0.00  -0.12     0.02   0.02  -0.10
   2   6     0.02  -0.06   0.01    -0.22  -0.13  -0.03    -0.25  -0.18  -0.03
   3   8     0.00   0.29  -0.00    -0.04   0.00   0.14    -0.00   0.05   0.00
   4   6    -0.02  -0.06  -0.01    -0.22   0.13  -0.03     0.25  -0.18   0.03
   5   6    -0.05  -0.12  -0.01    -0.00   0.00  -0.12    -0.02   0.02   0.10
   6   1     0.06   0.05   0.08    -0.01   0.04   0.04    -0.01   0.04   0.04
   7   1    -0.03   0.05   0.00     0.08   0.06   0.13     0.08   0.02   0.10
   8   1    -0.06   0.00  -0.08     0.04  -0.02   0.03     0.02  -0.04   0.04
   9   1     0.31   0.22  -0.03     0.36   0.22   0.03     0.41   0.25   0.01
  10   1    -0.44  -0.26  -0.00     0.38   0.23   0.02     0.32   0.19   0.03
  11   1    -0.31   0.22   0.03     0.36  -0.22   0.03    -0.41   0.25  -0.01
  12   1     0.44  -0.26   0.01     0.38  -0.23   0.02    -0.32   0.19  -0.03
  13   1     0.03   0.05  -0.00     0.08  -0.06   0.13    -0.08   0.02  -0.10
  14   1     0.05   0.00   0.08     0.04   0.02   0.03    -0.02  -0.04  -0.04
  15   1    -0.06   0.05  -0.08    -0.01  -0.04   0.04     0.01   0.04  -0.04
                     22                     23                     24
                        a                      a                      a 
 Frequencies --  1391.8674              1396.1124              1453.8399
 Red. masses --     3.1814                 3.1008                 1.8681
 Frc consts  --     0.0000                 0.0000                 0.0000
 IR Inten    --     3.5575                17.0076                 2.1874
 Raman Activ --     0.0000                 0.0000                 0.0000
 Depolar     --     0.0000                 0.0000                 0.0000
 Atom AN      X      Y      Z        X      Y      Z        X      Y      Z
   1   6     0.23   0.11   0.17     0.23   0.11   0.16    -0.00  -0.03  -0.01
   2   6    -0.05  -0.04   0.01    -0.05  -0.04  -0.01     0.03   0.01   0.18
   3   8     0.00   0.00  -0.00    -0.02   0.00   0.03    -0.05   0.00   0.05
   4   6     0.05  -0.04  -0.01    -0.05   0.04  -0.01     0.03  -0.01   0.18
   5   6    -0.23   0.11  -0.17     0.23  -0.11   0.16    -0.00   0.03  -0.01
   6   1    -0.26  -0.23  -0.12    -0.27  -0.24  -0.13    -0.04   0.01   0.05
   7   1    -0.17  -0.05  -0.32    -0.18  -0.03  -0.31    -0.04   0.07   0.01
   8   1    -0.31  -0.06  -0.12    -0.30  -0.05  -0.13     0.06   0.02   0.01
   9   1     0.05   0.09  -0.06     0.07   0.06  -0.02    -0.14   0.26  -0.37
  10   1     0.07  -0.00  -0.06     0.10   0.05  -0.02     0.16  -0.20  -0.40
  11   1    -0.05   0.09   0.06     0.07  -0.06  -0.02    -0.14  -0.26  -0.37
  12   1    -0.07  -0.00   0.06     0.10  -0.05  -0.02     0.16   0.20  -0.40
  13   1     0.17  -0.05   0.32    -0.18   0.03  -0.31    -0.04  -0.07   0.01
  14   1     0.31  -0.06   0.12    -0.30   0.05  -0.13     0.06  -0.02   0.01
  15   1     0.26  -0.23   0.12    -0.27   0.24  -0.13    -0.04  -0.01   0.05
                     25                     26                     27
                        a                      a                      a 
 Frequencies --  1461.0070              1481.8191              1483.0193
 Red. masses --     1.8311                 1.5621                 1.5393
 Frc consts  --     0.0000                 0.0000                 0.0000
 IR Inten    --     0.1704                 0.5766                 3.9793
 Raman Activ --     0.0000                 0.0000                 0.0000
 Depolar     --     0.0000                 0.0000                 0.0000
 Atom AN      X      Y      Z        X      Y      Z        X      Y      Z
   1   6     0.06  -0.02  -0.00     0.06  -0.14  -0.02     0.05  -0.13  -0.03
   2   6    -0.00  -0.01  -0.18     0.02  -0.02  -0.03     0.02  -0.03   0.05
   3   8     0.00   0.02  -0.00     0.01  -0.00  -0.01     0.00  -0.01   0.00
   4   6     0.00  -0.01   0.18     0.02   0.02  -0.03    -0.02  -0.03  -0.05
   5   6    -0.06  -0.02   0.00     0.06   0.14  -0.02    -0.05  -0.13   0.03
   6   1    -0.14  -0.05   0.03    -0.28  -0.08   0.10    -0.28  -0.06   0.12
   7   1    -0.09   0.12  -0.05    -0.23   0.44   0.03    -0.22   0.42   0.03
   8   1     0.02   0.03  -0.02     0.27   0.20  -0.06     0.28   0.17  -0.02
   9   1     0.14  -0.25   0.35     0.00  -0.05   0.05    -0.06   0.06  -0.11
  10   1    -0.15   0.20   0.39    -0.05   0.02   0.08     0.08  -0.04  -0.10
  11   1    -0.14  -0.25  -0.35     0.00   0.05   0.05     0.06   0.06   0.11
  12   1     0.15   0.20  -0.39    -0.05  -0.02   0.08    -0.08  -0.04   0.10
  13   1     0.09   0.12   0.05    -0.23  -0.44   0.03     0.22   0.42  -0.03
  14   1    -0.02   0.03   0.02     0.27  -0.20  -0.06    -0.28   0.17   0.02
  15   1     0.14  -0.05  -0.03    -0.28   0.08   0.10     0.28  -0.06  -0.12
                     28                     29                     30
                        a                      a                      a 
 Frequencies --  1489.2932              1491.7598              2900.0975
 Red. masses --     1.5871                 1.5534                 1.7615
 Frc consts  --     0.0000                 0.0000                 0.0000
 IR Inten    --     2.1894                 0.1415                73.1282
 Raman Activ --     0.0000                 0.0000                 0.0000
 Depolar     --     0.0000                 0.0000                 0.0000
 Atom AN      X      Y      Z        X      Y      Z        X      Y      Z
   1   6    -0.07  -0.05   0.13     0.06   0.05  -0.13     0.00   0.00  -0.00
   2   6    -0.03  -0.02   0.03     0.03   0.02  -0.01     0.09  -0.14   0.08
   3   8     0.00   0.00  -0.00     0.00  -0.00  -0.00    -0.01   0.00   0.01
   4   6    -0.03   0.02   0.03    -0.03   0.02   0.01     0.09   0.14   0.08
   5   6    -0.07   0.05   0.13    -0.06   0.05   0.13     0.00  -0.00  -0.00
   6   1     0.22  -0.17  -0.36    -0.19   0.19   0.36     0.01  -0.02   0.02
   7   1     0.08   0.06   0.19    -0.06  -0.09  -0.18    -0.00   0.00   0.00
   8   1    -0.02   0.30  -0.35     0.01  -0.31   0.36    -0.00   0.00  -0.00
   9   1     0.01   0.02  -0.01    -0.03  -0.01  -0.02    -0.02   0.04   0.06
  10   1     0.02  -0.00  -0.02    -0.03  -0.03  -0.03    -0.28   0.50  -0.36
  11   1     0.01  -0.02  -0.01     0.03  -0.01   0.02    -0.02  -0.04   0.06
  12   1     0.02   0.00  -0.02     0.03  -0.03   0.03    -0.28  -0.50  -0.36
  13   1     0.08  -0.06   0.19     0.06  -0.09   0.18    -0.00  -0.00   0.00
  14   1    -0.02  -0.30  -0.35    -0.01  -0.31  -0.36    -0.00  -0.00  -0.00
  15   1     0.22   0.17  -0.36     0.19   0.19  -0.36     0.01   0.02   0.02
                     31                     32                     33
                        a                      a                      a 
 Frequencies --  2902.8481              2961.4402              2961.6593
 Red. masses --     1.7559                 1.6649                 1.6626
 Frc consts  --     0.0000                 0.0000                 0.0000
 IR Inten    --    77.9358                23.3111                77.4980
 Raman Activ --     0.0000                 0.0000                 0.0000
 Depolar     --     0.0000                 0.0000                 0.0000
 Atom AN      X      Y      Z        X      Y      Z        X      Y      Z
   1   6    -0.00  -0.01  -0.00    -0.01   0.00   0.00     0.01  -0.00  -0.01
   2   6    -0.09   0.14  -0.08     0.07  -0.11  -0.12    -0.07   0.11   0.12
   3   8     0.00   0.02  -0.00    -0.00   0.00   0.00    -0.02   0.00   0.01
   4   6     0.09   0.14   0.08    -0.07  -0.11   0.12    -0.07  -0.11   0.12
   5   6     0.00  -0.01   0.00     0.01   0.00  -0.00     0.01   0.00  -0.01
   6   1    -0.01   0.02  -0.02     0.00  -0.01   0.01    -0.00   0.00  -0.01
   7   1     0.01   0.00  -0.01     0.01   0.01  -0.01    -0.01  -0.01   0.01
   8   1    -0.01   0.01   0.02     0.02  -0.03  -0.03    -0.02   0.04   0.03
   9   1     0.02  -0.03  -0.06    -0.30   0.45   0.41     0.30  -0.45  -0.41
  10   1     0.28  -0.50   0.36     0.04  -0.07   0.02    -0.04   0.08  -0.03
  11   1    -0.02  -0.03   0.06     0.30   0.45  -0.41     0.30   0.45  -0.41
  12   1    -0.28  -0.50  -0.36    -0.04  -0.07  -0.02    -0.04  -0.08  -0.03
  13   1    -0.01   0.00   0.01    -0.01   0.01   0.01    -0.01   0.01   0.01
  14   1     0.01   0.01  -0.02    -0.02  -0.03   0.03    -0.02  -0.04   0.03
  15   1     0.01   0.02   0.02    -0.00  -0.01  -0.01    -0.00  -0.00  -0.01
                     34                     35                     36
                        a                      a                      a 
 Frequencies --  3035.3100              3035.6874              3046.0143
 Red. masses --     1.8742                 1.8711                 1.6683
 Frc consts  --     0.0000                 0.0000                 0.0000
 IR Inten    --    55.8455                63.3075                21.7214
 Raman Activ --     0.0000                 0.0000                 0.0000
 Depolar     --     0.0000                 0.0000                 0.0000
 Atom AN      X      Y      Z        X      Y      Z        X      Y      Z
   1   6     0.10  -0.14  -0.09    -0.10   0.14   0.09    -0.03   0.11  -0.13
   2   6     0.01  -0.01  -0.01    -0.01   0.02   0.01    -0.00   0.01  -0.01
   3   8     0.00  -0.00  -0.00    -0.00   0.00  -0.00     0.00  -0.00   0.00
   4   6     0.01   0.01  -0.01     0.01   0.02  -0.01     0.00   0.01   0.01
   5   6     0.10   0.14  -0.09     0.10   0.14  -0.09     0.03   0.11   0.13
   6   1    -0.05   0.11  -0.11     0.04  -0.11   0.11     0.25  -0.50   0.36
   7   1    -0.05  -0.06   0.03     0.05   0.06  -0.04    -0.05  -0.01   0.02
   8   1    -0.27   0.45   0.39     0.27  -0.45  -0.39    -0.07   0.13   0.08
   9   1    -0.03   0.04   0.03     0.02  -0.03  -0.03    -0.00   0.00  -0.00
  10   1     0.00  -0.00   0.00     0.01  -0.02   0.01     0.01  -0.02   0.01
  11   1    -0.03  -0.04   0.03    -0.02  -0.03   0.03     0.00   0.00   0.00
  12   1     0.00   0.00   0.00    -0.01  -0.02  -0.01    -0.01  -0.02  -0.01
  13   1    -0.05   0.06   0.03    -0.05   0.06   0.04     0.05  -0.01  -0.02
  14   1    -0.27  -0.45   0.39    -0.27  -0.45   0.39     0.07   0.12  -0.08
  15   1    -0.05  -0.11  -0.11    -0.04  -0.11  -0.11    -0.25  -0.50  -0.36
                     37                     38                     39
                        a                      a                      a 
 Frequencies --  3046.1171              3052.6439              3052.7198
 Red. masses --     1.6646                 1.6167                 1.6161
 Frc consts  --     0.0000                 0.0000                 0.0000
 IR Inten    --    58.3639                16.9838                49.1620
 Raman Activ --     0.0000                 0.0000                 0.0000
 Depolar     --     0.0000                 0.0000                 0.0000
 Atom AN      X      Y      Z        X      Y      Z        X      Y      Z
   1   6    -0.03   0.11  -0.13     0.13   0.08  -0.07     0.12   0.08  -0.07
   2   6    -0.00   0.01  -0.01     0.00   0.00  -0.01     0.00  -0.00  -0.00
   3   8     0.00   0.00   0.00     0.00  -0.00   0.00     0.00   0.00   0.00
   4   6    -0.00  -0.01  -0.01    -0.00   0.00   0.01     0.00  -0.00  -0.00
   5   6    -0.03  -0.11  -0.13    -0.12   0.08   0.07     0.13  -0.08  -0.07
   6   1     0.25  -0.49   0.36    -0.00   0.04  -0.04    -0.00   0.05  -0.04
   7   1    -0.06  -0.01   0.02    -0.50  -0.28   0.36    -0.49  -0.28   0.36
   8   1    -0.07   0.13   0.08     0.06  -0.06  -0.07     0.06  -0.06  -0.07
   9   1    -0.00   0.00   0.00    -0.00   0.01   0.01    -0.01   0.01   0.01
  10   1     0.01  -0.02   0.01     0.01  -0.01   0.01     0.00  -0.00   0.00
  11   1    -0.00  -0.00   0.00     0.00   0.01  -0.01    -0.01  -0.01   0.01
  12   1     0.01   0.02   0.01    -0.01  -0.01  -0.01     0.00   0.00   0.00
  13   1    -0.06   0.01   0.02     0.49  -0.28  -0.36    -0.50   0.28   0.36
  14   1    -0.07  -0.13   0.08    -0.06  -0.06   0.07     0.06   0.06  -0.07
  15   1     0.25   0.50   0.36     0.00   0.04   0.03    -0.00  -0.05  -0.04
