 Entering Gaussian System
 *********************************************
 Gaussian 98:
 frequency output generated by the xtb code
 *********************************************
                         Standard orientation:
 --------------------------------------------------------------------
  Center     Atomic     Atomic              Coordinates (Angstroms)
  Number     Number      Type              X           Y           Z
 --------------------------------------------------------------------
    1          6             0        2.377455    0.415133   -0.006132
    2          6             0        1.181768   -0.516354    0.106510
    3          8             0       -0.001506    0.243113   -0.046548
    4          6             0       -1.183837   -0.528665    0.036010
    5          6             0       -2.380702    0.392346   -0.135094
    6          1             0        3.296263   -0.150285    0.112279
    7          1             0        2.373865    0.901112   -0.977416
    8          1             0        2.320728    1.179425    0.763416
    9          1             0        1.172518   -1.017866    1.087154
   10          1             0        1.222602   -1.294734   -0.671721
   11          1             0       -1.174228   -1.301245   -0.749027
   12          1             0       -1.223421   -1.037783    1.011931
   13          1             0       -3.298846   -0.183424   -0.076546
   14          1             0       -2.376685    1.147986    0.645013
   15          1             0       -2.325939    0.889810   -1.098989
 --------------------------------------------------------------------
     1 basis functions        1 primitive gaussians
     1 alpha electrons        1 beta electrons
 
 Harmonic frequencies (cm**-1), IR intensities (km*mol⁻¹),
 Raman scattering activities (A**4/amu), Raman depolarization ratios,
 reduced masses (AMU), force constants (mDyne/A) and normal coordinates:
                      1                      2                      3
                        a                      a                      a 
 Frequencies --    94.6222                97.3012               182.6370
 Red. masses --     5.3404                10.9457                 9.2972
 Frc consts  --     0.0000                 0.0000                 0.0000
 IR Inten    --     0.0108                 8.8340                 2.1690
 Raman Activ --     0.0000                 0.0000                 0.0000
 Depolar     --     0.0000                 0.0000                 0.0000
 Atom AN      X      Y      Z        X      Y      Z        X      Y      Z
   1   6     0.01  -0.03  -0.18    -0.01   0.05   0.33    -0.29   0.33  -0.06
   2   6    -0.01   0.06   0.39     0.00  -0.01  -0.05     0.11  -0.18   0.03
   3   8     0.00  -0.00  -0.02     0.02  -0.11  -0.70     0.00  -0.44   0.07
   4   6     0.01  -0.06  -0.40    -0.00  -0.00  -0.02    -0.11  -0.18   0.02
   5   6    -0.01   0.03   0.20    -0.01   0.05   0.32     0.29   0.34  -0.04
   6   1    -0.00   0.02   0.10    -0.01   0.04   0.26     0.00   0.23  -0.03
   7   1     0.04  -0.22  -0.16     0.12  -0.04   0.07    -0.18   0.09  -0.02
   8   1    -0.02   0.16  -0.22    -0.13   0.06   0.04    -0.18   0.10  -0.02
   9   1    -0.00   0.18   0.20    -0.10   0.04   0.01     0.09  -0.05   0.01
  10   1    -0.01  -0.11   0.24     0.10  -0.04   0.02     0.09  -0.05   0.01
  11   1    -0.00   0.11  -0.24    -0.10  -0.05   0.04    -0.09  -0.05   0.00
  12   1     0.02  -0.18  -0.20     0.10   0.05   0.03    -0.09  -0.05   0.01
  13   1     0.00  -0.01  -0.09    -0.01   0.04   0.26    -0.00   0.23  -0.04
  14   1    -0.03  -0.16   0.22     0.13   0.07   0.04     0.18   0.09  -0.01
  15   1     0.01   0.22   0.17    -0.13  -0.06   0.05     0.18   0.10  -0.01
                      4                      5                      6
                        a                      a                      a 
 Frequencies --   202.1495               209.5959               406.0070
 Red. masses --     2.4867                 3.6318                 9.3129
 Frc consts  --     0.0000                 0.0000                 0.0000
 IR Inten    --     0.0042                 2.3790                 2.9847
 Raman Activ --     0.0000                 0.0000                 0.0000
 Depolar     --     0.0000                 0.0000                 0.0000
 Atom AN      X      Y      Z        X      Y      Z        X      Y      Z
   1   6     0.00   0.00   0.03     0.00  -0.00  -0.03    -0.27   0.04  -0.01
   2   6     0.01  -0.04  -0.26     0.00  -0.02  -0.13     0.12  -0.40   0.07
   3   8    -0.00   0.01   0.01    -0.01   0.06   0.37     0.43   0.00   0.01
   4   6    -0.01   0.04   0.25     0.00  -0.02  -0.15     0.12   0.40  -0.06
   5   6    -0.00  -0.01  -0.03     0.00  -0.00  -0.02    -0.27  -0.04  -0.00
   6   1    -0.01   0.06   0.40    -0.01   0.06   0.34     0.04   0.19  -0.03
   7   1     0.26  -0.23  -0.10     0.21  -0.22  -0.12    -0.21   0.01  -0.00
   8   1    -0.25   0.18  -0.18    -0.21   0.17  -0.20    -0.21   0.01  -0.01
   9   1     0.01  -0.09  -0.11     0.04  -0.09  -0.08     0.02  -0.11   0.02
  10   1    -0.00   0.05  -0.13    -0.04   0.06  -0.11     0.02  -0.11   0.01
  11   1    -0.00  -0.04   0.12     0.04   0.06  -0.11     0.02   0.11  -0.01
  12   1    -0.00   0.08   0.11    -0.04  -0.09  -0.09     0.02   0.11  -0.02
  13   1     0.01  -0.06  -0.38    -0.01   0.06   0.37     0.04  -0.19   0.03
  14   1    -0.24  -0.17   0.15     0.23   0.19  -0.20    -0.21  -0.01  -0.00
  15   1     0.23   0.21   0.11    -0.22  -0.24  -0.14    -0.21  -0.01  -0.01
                      7                      8                      9
                        a                      a                      a 
 Frequencies --   427.3690               833.0482               844.1350
 Red. masses --     9.9969                 1.8782                 2.0442
 Frc consts  --     0.0000                 0.0000                 0.0000
 IR Inten    --     0.0118                 0.0003                 5.1198
 Raman Activ --     0.0000                 0.0000                 0.0000
 Depolar     --     0.0000                 0.0000                 0.0000
 Atom AN      X      Y      Z        X      Y      Z        X      Y      Z
   1   6     0.43   0.13  -0.01     0.00  -0.01  -0.09    -0.00   0.02   0.10
   2   6     0.36   0.04   0.00     0.01  -0.03  -0.18    -0.01   0.03   0.16
   3   8     0.00  -0.33   0.05    -0.00   0.00   0.00     0.00  -0.02  -0.12
   4   6    -0.36   0.04  -0.02    -0.01   0.03   0.17    -0.00   0.02   0.16
   5   6    -0.43   0.12  -0.03    -0.00   0.01   0.09    -0.00   0.02   0.10
   6   1     0.10  -0.00   0.00    -0.00   0.02   0.11     0.00  -0.02  -0.11
   7   1     0.16   0.03  -0.00     0.21   0.22   0.09    -0.22  -0.23  -0.09
   8   1     0.16   0.04   0.00    -0.21  -0.18   0.15     0.22   0.19  -0.15
   9   1     0.16   0.02   0.00     0.12   0.31   0.12    -0.15  -0.28  -0.11
  10   1     0.16   0.02   0.00    -0.13  -0.25   0.20     0.16   0.23  -0.18
  11   1    -0.16   0.02  -0.01    -0.12   0.25  -0.21    -0.15   0.23  -0.19
  12   1    -0.16   0.01  -0.01     0.13  -0.30  -0.12     0.16  -0.28  -0.11
  13   1    -0.10  -0.01  -0.00     0.00  -0.02  -0.11     0.00  -0.02  -0.11
  14   1    -0.16   0.03  -0.01    -0.21   0.18  -0.16    -0.22   0.19  -0.16
  15   1    -0.16   0.03  -0.01     0.21  -0.22  -0.08     0.22  -0.23  -0.08
                     10                     11                     12
                        a                      a                      a 
 Frequencies --   884.2962               965.7011              1083.8930
 Red. masses --     7.4159                 8.1091                 8.6449
 Frc consts  --     0.0000                 0.0000                 0.0000
 IR Inten    --    11.9296                20.0590                 4.2081
 Raman Activ --     0.0000                 0.0000                 0.0000
 Depolar     --     0.0000                 0.0000                 0.0000
 Atom AN      X      Y      Z        X      Y      Z        X      Y      Z
   1   6    -0.21   0.09  -0.02     0.34  -0.00   0.01    -0.14  -0.35   0.05
   2   6    -0.18   0.23  -0.04     0.00  -0.19   0.03     0.29   0.33  -0.04
   3   8     0.00  -0.46   0.07    -0.50  -0.00  -0.01    -0.13  -0.00  -0.00
   4   6     0.18   0.24  -0.03     0.00   0.19  -0.03     0.29  -0.32   0.06
   5   6     0.21   0.09  -0.01     0.34   0.00   0.01    -0.14   0.35  -0.06
   6   1    -0.26  -0.31   0.04     0.28   0.30  -0.04     0.08   0.10  -0.01
   7   1     0.18   0.01  -0.01    -0.11   0.02   0.01    -0.22  -0.08   0.02
   8   1     0.18   0.01   0.02    -0.11   0.02  -0.02    -0.22  -0.09  -0.00
   9   1     0.07   0.05  -0.01    -0.11  -0.04   0.00     0.06   0.09  -0.01
  10   1     0.07   0.04  -0.00    -0.11  -0.04   0.00     0.07   0.09  -0.01
  11   1    -0.07   0.05  -0.01    -0.11   0.04  -0.01     0.06  -0.09   0.02
  12   1    -0.07   0.04  -0.01    -0.11   0.04  -0.01     0.07  -0.09   0.01
  13   1     0.26  -0.31   0.05     0.28  -0.30   0.05     0.08  -0.10   0.02
  14   1    -0.18   0.01   0.01    -0.11  -0.02   0.02    -0.22   0.08  -0.01
  15   1    -0.18   0.00  -0.02    -0.11  -0.02  -0.02    -0.22   0.08  -0.03
                     13                     14                     15
                        a                      a                      a 
 Frequencies --  1086.2539              1106.1671              1137.2488
 Red. masses --     9.4949                10.8618                 4.5939
 Frc consts  --     0.0000                 0.0000                 0.0000
 IR Inten    --    22.7125               162.7062                 0.0011
 Raman Activ --     0.0000                 0.0000                 0.0000
 Depolar     --     0.0000                 0.0000                 0.0000
 Atom AN      X      Y      Z        X      Y      Z        X      Y      Z
   1   6    -0.29  -0.20   0.02     0.15  -0.05   0.01    -0.01   0.03   0.21
   2   6     0.45   0.10  -0.00    -0.37   0.25  -0.05     0.01  -0.05  -0.34
   3   8     0.00   0.25  -0.04     0.56   0.00   0.02     0.00  -0.00   0.00
   4   6    -0.46   0.09  -0.03    -0.37  -0.26   0.03    -0.01   0.05   0.34
   5   6     0.29  -0.20   0.04     0.15   0.05  -0.01     0.01  -0.03  -0.21
   6   1    -0.12  -0.12   0.02     0.14   0.16  -0.02     0.00  -0.01  -0.10
   7   1    -0.06  -0.07  -0.00    -0.10   0.02   0.01    -0.16  -0.17  -0.04
   8   1    -0.06  -0.07   0.02    -0.11   0.01  -0.02     0.16   0.15  -0.08
   9   1     0.19   0.06   0.01    -0.14   0.02  -0.02    -0.20   0.25   0.05
  10   1     0.19   0.06  -0.01    -0.14   0.03  -0.00     0.20  -0.22   0.14
  11   1    -0.19   0.06  -0.02    -0.14  -0.03  -0.01     0.20   0.23  -0.12
  12   1    -0.19   0.06  -0.00    -0.14  -0.03   0.01    -0.20  -0.25  -0.06
  13   1     0.12  -0.12   0.02     0.14  -0.16   0.03    -0.00   0.02   0.10
  14   1     0.06  -0.07   0.02    -0.10  -0.01   0.02     0.16  -0.15   0.09
  15   1     0.06  -0.07   0.00    -0.11  -0.01  -0.02    -0.16   0.16   0.03
                     16                     17                     18
                        a                      a                      a 
 Frequencies --  1156.2928              1162.4781              1247.8928
 Red. masses --     9.0195                 5.6319                 2.0544
 Frc consts  --     0.0000                 0.0000                 0.0000
 IR Inten    --    66.4538                38.5835                 0.0002
 Raman Activ --     0.0000                 0.0000                 0.0000
 Depolar     --     0.0000                 0.0000                 0.0000
 Atom AN      X      Y      Z        X      Y      Z        X      Y      Z
   1   6    -0.06   0.27  -0.04    -0.00   0.03   0.22     0.01  -0.03  -0.20
   2   6     0.07  -0.42   0.06     0.01  -0.05  -0.35    -0.00   0.01   0.07
   3   8    -0.00   0.39  -0.06    -0.00   0.03   0.24     0.00   0.00  -0.00
   4   6    -0.07  -0.42   0.06     0.01  -0.05  -0.35     0.00  -0.01  -0.07
   5   6     0.05   0.27  -0.04    -0.01   0.03   0.22    -0.01   0.03   0.20
   6   1    -0.16  -0.18   0.02     0.01  -0.01  -0.10    -0.00   0.01   0.07
   7   1     0.21   0.04  -0.02    -0.16  -0.17  -0.04     0.12   0.14   0.02
   8   1     0.21   0.05   0.02     0.16   0.15  -0.08    -0.12  -0.12   0.06
   9   1    -0.01  -0.07   0.02    -0.14   0.26   0.06    -0.43  -0.03  -0.01
  10   1    -0.01  -0.08   0.01     0.14  -0.22   0.14     0.43   0.03   0.01
  11   1     0.01  -0.08   0.00    -0.14  -0.23   0.13     0.44  -0.03   0.02
  12   1     0.01  -0.08   0.02     0.14   0.26   0.07    -0.44   0.03  -0.02
  13   1     0.16  -0.18   0.03     0.00  -0.01  -0.10     0.00  -0.01  -0.07
  14   1    -0.21   0.04   0.01    -0.16   0.15  -0.09    -0.12   0.12  -0.06
  15   1    -0.21   0.04  -0.04     0.16  -0.17  -0.03     0.12  -0.14  -0.02
                     19                     20                     21
                        a                      a                      a 
 Frequencies --  1256.8791              1324.6105              1347.0683
 Red. masses --     2.2849                 3.1787                 3.8722
 Frc consts  --     0.0000                 0.0000                 0.0000
 IR Inten    --     7.1906                33.6664                 5.2251
 Raman Activ --     0.0000                 0.0000                 0.0000
 Depolar     --     0.0000                 0.0000                 0.0000
 Atom AN      X      Y      Z        X      Y      Z        X      Y      Z
   1   6    -0.01   0.03   0.19    -0.03   0.10  -0.02     0.04   0.11  -0.02
   2   6     0.00  -0.01  -0.04     0.29   0.05   0.00     0.30   0.09  -0.01
   3   8     0.00  -0.03  -0.17     0.05   0.00   0.00     0.00  -0.15   0.02
   4   6     0.00  -0.01  -0.04     0.29  -0.05   0.02    -0.30   0.09  -0.02
   5   6    -0.01   0.03   0.19    -0.03  -0.10   0.01    -0.04   0.11  -0.02
   6   1     0.00  -0.01  -0.06    -0.09  -0.11   0.01    -0.12  -0.17   0.02
   7   1    -0.11  -0.13  -0.02    -0.01  -0.04  -0.03    -0.10  -0.08  -0.05
   8   1     0.11   0.11  -0.05    -0.01  -0.03   0.05    -0.11  -0.06   0.06
   9   1     0.44   0.01  -0.00    -0.43  -0.01  -0.02    -0.38  -0.05  -0.03
  10   1    -0.44  -0.02  -0.02    -0.43  -0.01  -0.00    -0.38  -0.04   0.03
  11   1     0.44  -0.01  -0.00    -0.43   0.00  -0.02     0.37  -0.04   0.05
  12   1    -0.44   0.01  -0.03    -0.43   0.00  -0.01     0.38  -0.05  -0.01
  13   1     0.00  -0.01  -0.06    -0.09   0.11  -0.02     0.12  -0.17   0.03
  14   1    -0.11   0.11  -0.06    -0.01   0.03  -0.05     0.10  -0.06   0.07
  15   1     0.11  -0.12  -0.02    -0.01   0.04   0.03     0.11  -0.07  -0.04
                     22                     23                     24
                        a                      a                      a 
 Frequencies --  1392.8755              1399.4253              1465.2090
 Red. masses --     3.2870                 3.6791                 1.5270
 Frc consts  --     0.0000                 0.0000                 0.0000
 IR Inten    --    14.6693                 2.5031                 0.0141
 Raman Activ --     0.0000                 0.0000                 0.0000
 Depolar     --     0.0000                 0.0000                 0.0000
 Atom AN      X      Y      Z        X      Y      Z        X      Y      Z
   1   6    -0.27  -0.16   0.02     0.27   0.15  -0.01    -0.01   0.02   0.16
   2   6     0.05   0.01  -0.00    -0.15  -0.05   0.00    -0.00   0.01   0.03
   3   8     0.03   0.00   0.00    -0.00   0.08  -0.01    -0.00  -0.00  -0.00
   4   6     0.06  -0.01   0.00     0.15  -0.05   0.01     0.00  -0.00  -0.03
   5   6    -0.27   0.16  -0.03    -0.26   0.14  -0.03     0.00  -0.02  -0.14
   6   1     0.18   0.32  -0.04    -0.16  -0.29   0.04     0.02  -0.08  -0.53
   7   1     0.32   0.12   0.07    -0.30  -0.10  -0.06     0.33  -0.09  -0.04
   8   1     0.32   0.09  -0.08    -0.31  -0.08   0.07    -0.33   0.07  -0.08
   9   1    -0.08   0.04   0.01     0.17  -0.01   0.00    -0.01  -0.01   0.00
  10   1    -0.07   0.03  -0.03     0.17  -0.01   0.01     0.01   0.01  -0.00
  11   1    -0.08  -0.03   0.02    -0.17  -0.01   0.00     0.01  -0.01   0.00
  12   1    -0.08  -0.04  -0.02    -0.17  -0.01  -0.01    -0.01   0.01  -0.00
  13   1     0.18  -0.32   0.05     0.16  -0.29   0.05    -0.01   0.07   0.47
  14   1     0.32  -0.09   0.10     0.30  -0.08   0.09    -0.30  -0.07   0.06
  15   1     0.33  -0.12  -0.05     0.30  -0.10  -0.04     0.29   0.08   0.05
                     25                     26                     27
                        a                      a                      a 
 Frequencies --  1465.8100              1487.3695              1488.6132
 Red. masses --     1.5249                 1.6300                 1.5995
 Frc consts  --     0.0000                 0.0000                 0.0000
 IR Inten    --     4.6882                 3.0093                 1.6851
 Raman Activ --     0.0000                 0.0000                 0.0000
 Depolar     --     0.0000                 0.0000                 0.0000
 Atom AN      X      Y      Z        X      Y      Z        X      Y      Z
   1   6    -0.00   0.02   0.14     0.03  -0.11   0.02    -0.07   0.14  -0.02
   2   6    -0.00   0.00   0.03     0.05   0.11  -0.02    -0.04   0.07  -0.01
   3   8     0.00  -0.00  -0.00    -0.04   0.00  -0.00    -0.01   0.01  -0.00
   4   6    -0.00   0.01   0.03     0.04  -0.11   0.02     0.04   0.03  -0.00
   5   6    -0.00   0.02   0.16     0.03   0.10  -0.01     0.06   0.12  -0.02
   6   1     0.01  -0.07  -0.47    -0.06  -0.11   0.02     0.10   0.19  -0.03
   7   1     0.30  -0.08  -0.03    -0.06   0.31   0.16     0.11  -0.42  -0.22
   8   1    -0.30   0.07  -0.07    -0.04   0.24  -0.25     0.09  -0.33   0.34
   9   1    -0.01  -0.01   0.00    -0.00  -0.30  -0.15     0.05  -0.12  -0.06
  10   1     0.01   0.01  -0.00    -0.01  -0.24   0.23     0.04  -0.09   0.10
  11   1    -0.01   0.01  -0.00    -0.00   0.24  -0.23    -0.04  -0.02   0.02
  12   1     0.01  -0.02   0.00    -0.01   0.29   0.15    -0.04  -0.03  -0.02
  13   1     0.02  -0.08  -0.53    -0.06   0.10  -0.02    -0.09   0.15  -0.03
  14   1     0.33   0.08  -0.06    -0.05  -0.23   0.23    -0.09  -0.29   0.29
  15   1    -0.33  -0.09  -0.06    -0.04  -0.29  -0.16    -0.08  -0.36  -0.20
                     28                     29                     30
                        a                      a                      a 
 Frequencies --  1488.8819              1493.8531              2819.5455
 Red. masses --     1.7858                 1.7491                 1.9446
 Frc consts  --     0.0000                 0.0000                 0.0000
 IR Inten    --     0.2724                10.4026               263.3945
 Raman Activ --     0.0000                 0.0000                 0.0000
 Depolar     --     0.0000                 0.0000                 0.0000
 Atom AN      X      Y      Z        X      Y      Z        X      Y      Z
   1   6     0.05  -0.07   0.01     0.01   0.03  -0.01     0.00  -0.00  -0.00
   2   6     0.00  -0.14   0.02    -0.01  -0.16   0.03    -0.01   0.03   0.20
   3   8     0.03   0.00   0.00    -0.00  -0.08   0.01    -0.00   0.00   0.01
   4   6     0.01   0.15  -0.02     0.01  -0.17   0.03    -0.01   0.03   0.20
   5   6     0.07   0.11  -0.01    -0.01   0.03  -0.00     0.00  -0.00  -0.00
   6   1    -0.06  -0.11   0.02     0.01   0.01  -0.00     0.00  -0.00  -0.00
   7   1    -0.07   0.22   0.11    -0.00  -0.08  -0.04    -0.00  -0.01   0.01
   8   1    -0.06   0.17  -0.18    -0.00  -0.07   0.07     0.00   0.01   0.01
   9   1    -0.04   0.30   0.15    -0.07   0.42   0.20    -0.00   0.23  -0.42
  10   1    -0.02   0.24  -0.24    -0.05   0.33  -0.33     0.02  -0.35  -0.33
  11   1    -0.05  -0.25   0.24     0.07   0.34  -0.33    -0.00  -0.35  -0.33
  12   1    -0.03  -0.31  -0.16     0.05   0.42   0.22     0.02   0.23  -0.41
  13   1    -0.08   0.16  -0.03    -0.01   0.01  -0.00     0.00  -0.00  -0.00
  14   1    -0.10  -0.25   0.25     0.00  -0.07   0.07    -0.00   0.01   0.01
  15   1    -0.09  -0.32  -0.17     0.00  -0.08  -0.04     0.00  -0.01   0.01
                     31                     32                     33
                        a                      a                      a 
 Frequencies --  2823.7718              2858.7743              2865.4254
 Red. masses --     1.9805                 1.4174                 1.4051
 Frc consts  --     0.0000                 0.0000                 0.0000
 IR Inten    --     0.0022                14.5903               180.9011
 Raman Activ --     0.0000                 0.0000                 0.0000
 Depolar     --     0.0000                 0.0000                 0.0000
 Atom AN      X      Y      Z        X      Y      Z        X      Y      Z
   1   6     0.00   0.00   0.00    -0.00   0.00  -0.00    -0.00   0.00  -0.00
   2   6     0.01  -0.03  -0.21    -0.01  -0.13   0.02    -0.01  -0.13   0.02
   3   8     0.00   0.00   0.00     0.03   0.00   0.00    -0.00  -0.03   0.00
   4   6    -0.01   0.03   0.21    -0.01   0.13  -0.02     0.01  -0.13   0.02
   5   6     0.00  -0.00  -0.00    -0.00  -0.00  -0.00     0.00   0.00  -0.00
   6   1    -0.00   0.00   0.00     0.01  -0.00   0.00     0.01  -0.01   0.00
   7   1     0.00   0.01  -0.01    -0.00  -0.00   0.01    -0.00  -0.00   0.01
   8   1    -0.00  -0.01  -0.01    -0.00  -0.01  -0.01     0.00  -0.01  -0.01
   9   1    -0.01  -0.23   0.42     0.00   0.19  -0.45    -0.00   0.19  -0.45
  10   1    -0.01   0.34   0.33    -0.02   0.32   0.37    -0.03   0.32   0.37
  11   1     0.01  -0.35  -0.33     0.00  -0.32  -0.37     0.00   0.32   0.37
  12   1     0.01   0.23  -0.42    -0.02  -0.20   0.45     0.03   0.20  -0.45
  13   1     0.00  -0.00  -0.00     0.01   0.00  -0.00    -0.01  -0.01   0.00
  14   1    -0.00   0.01   0.01    -0.00   0.01   0.01     0.00  -0.01  -0.01
  15   1     0.00  -0.01   0.01    -0.00   0.00  -0.01    -0.00  -0.01   0.01
                     34                     35                     36
                        a                      a                      a 
 Frequencies --  3049.7100              3049.8551              3053.4458
 Red. masses --     1.9574                 1.9563                 1.2710
 Frc consts  --     0.0000                 0.0000                 0.0000
 IR Inten    --     2.8427                81.1167                35.6750
 Raman Activ --     0.0000                 0.0000                 0.0000
 Depolar     --     0.0000                 0.0000                 0.0000
 Atom AN      X      Y      Z        X      Y      Z        X      Y      Z
   1   6    -0.01   0.04   0.24    -0.00   0.03   0.16     0.11   0.03  -0.00
   2   6    -0.00   0.00   0.01    -0.00   0.00   0.01     0.00   0.00  -0.00
   3   8    -0.00  -0.00  -0.00     0.00  -0.00  -0.00     0.00   0.00  -0.00
   4   6     0.00  -0.00  -0.01    -0.00   0.00   0.01     0.00  -0.00   0.00
   5   6     0.00  -0.02  -0.16    -0.01   0.04   0.24     0.10  -0.02   0.01
   6   1    -0.00   0.01   0.03    -0.01   0.01   0.02    -0.44   0.29  -0.06
   7   1    -0.01   0.26  -0.50    -0.01   0.18  -0.34     0.02  -0.15   0.31
   8   1     0.04  -0.40  -0.38     0.03  -0.28  -0.26     0.03  -0.24  -0.25
   9   1    -0.00   0.01  -0.01    -0.00   0.00  -0.01     0.00   0.00   0.00
  10   1     0.00  -0.01  -0.01     0.00  -0.01  -0.01     0.00  -0.00  -0.00
  11   1     0.00   0.01   0.01    -0.00  -0.01  -0.01     0.00   0.00   0.00
  12   1    -0.00  -0.00   0.01     0.00   0.01  -0.01     0.00   0.00  -0.00
  13   1    -0.00  -0.00  -0.02     0.00   0.01   0.03    -0.41  -0.27   0.03
  14   1     0.01   0.27   0.27    -0.01  -0.40  -0.39     0.02   0.22   0.23
  15   1    -0.02  -0.18   0.33     0.04   0.27  -0.48     0.03   0.14  -0.29
                     37                     38                     39
                        a                      a                      a 
 Frequencies --  3053.6481              3055.0630              3055.9066
 Red. masses --     1.3001                 1.9363                 1.9034
 Frc consts  --     0.0000                 0.0000                 0.0000
 IR Inten    --     2.3959                19.0798                68.6335
 Raman Activ --     0.0000                 0.0000                 0.0000
 Depolar     --     0.0000                 0.0000                 0.0000
 Atom AN      X      Y      Z        X      Y      Z        X      Y      Z
   1   6    -0.11  -0.01   0.00    -0.11   0.17  -0.03     0.10  -0.17   0.03
   2   6    -0.00   0.00  -0.00    -0.00   0.01  -0.00     0.00  -0.01   0.00
   3   8     0.00  -0.00   0.00     0.00  -0.00   0.00     0.00   0.00  -0.00
   4   6     0.00   0.00   0.00    -0.00  -0.01   0.00    -0.00  -0.01   0.00
   5   6     0.12  -0.01   0.01    -0.11  -0.17   0.02    -0.10  -0.18   0.02
   6   1     0.43  -0.28   0.06     0.40  -0.24   0.05    -0.34   0.20  -0.04
   7   1    -0.02   0.13  -0.27    -0.01  -0.14   0.33     0.01   0.14  -0.34
   8   1    -0.03   0.20   0.21     0.01  -0.24  -0.27    -0.01   0.25   0.28
   9   1    -0.00  -0.00  -0.00    -0.00  -0.00   0.01    -0.00   0.00  -0.01
  10   1    -0.00  -0.00   0.00     0.00  -0.01  -0.01    -0.00   0.01   0.01
  11   1     0.00  -0.00  -0.00    -0.00   0.01   0.01     0.00   0.01   0.01
  12   1     0.00  -0.00   0.00     0.00   0.00  -0.01     0.00   0.00  -0.01
  13   1    -0.48  -0.32   0.03     0.37   0.23  -0.02     0.35   0.21  -0.02
  14   1     0.02   0.21   0.22    -0.01   0.23   0.27    -0.01   0.25   0.30
  15   1     0.03   0.14  -0.28     0.01   0.14  -0.32     0.01   0.16  -0.36
