      -----------------------------------------------------------      
     |                   =====================                   |     
     |                           x T B                           |     
     |                   =====================                   |     
     |                         S. Grimme                         |     
     |          Mulliken Center for Theoretical Chemistry        |     
     |                    University of Bonn                     |     
      -----------------------------------------------------------      

   * xtb version 6.7.1 (edcfbbe) compiled by 'albert@albert-system' on 2024-07-22

   xtb is free software: you can redistribute it and/or modify it under
   the terms of the GNU Lesser General Public License as published by
   the Free Software Foundation, either version 3 of the License, or
   (at your option) any later version.
   
   xtb is distributed in the hope that it will be useful,
   but WITHOUT ANY WARRANTY; without even the implied warranty of
   MERCHANTABILITY or FITNESS FOR A PARTICULAR PURPOSE.  See the
   GNU Lesser General Public License for more details.
   
   Cite this work as:
   * C. Bannwarth, E. Caldeweyher, S. Ehlert, A. Hansen, P. Pracht,
     J. Seibert, S. Spicher, S. Grimme, WIREs Comput. Mol. Sci., 2020, 11,
     e01493. DOI: 10.1002/wcms.1493
   
   for GFN2-xTB:
   * C. Bannwarth, S. Ehlert and S. Grimme., J. Chem. Theory Comput., 2019,
     15, 1652-1671. DOI: 10.1021/acs.jctc.8b01176
   for GFN1-xTB:
   * S. Grimme, C. Bannwarth, P. Shushkov, J. Chem. Theory Comput., 2017,
     13, 1989-2009. DOI: 10.1021/acs.jctc.7b00118
   for GFN0-xTB:
   * P. Pracht, E. Caldeweyher, S. Ehlert, S. Grimme, ChemRxiv, 2019, preprint.
     DOI: 10.26434/chemrxiv.8326202.v1
   for GFN-FF:
   * S. Spicher and S. Grimme, Angew. Chem. Int. Ed., 2020, 59, 15665-15673.
     DOI: 10.1002/anie.202004239
   
   for ALPB and GBSA implicit solvation:
   * S. Ehlert, M. Stahn, S. Spicher, S. Grimme, J. Chem. Theory Comput.,
     2021, 17, 4250-4261. DOI: 10.1021/acs.jctc.1c00471
   
   for ddCOSMO and CPCM-X implicit solvation:
   * M. Stahn, S. Ehlert, S. Grimme, J. Phys. Chem. A,
     2023, XX, XXXX-XXXX. DOI: 10.1021/acs.jpca.3c04382
   
   for DFT-D4:
   * E. Caldeweyher, C. Bannwarth and S. Grimme, J. Chem. Phys., 2017,
     147, 034112. DOI: 10.1063/1.4993215
   * E. Caldeweyher, S. Ehlert, A. Hansen, H. Neugebauer, S. Spicher,
     C. Bannwarth and S. Grimme, J. Chem. Phys., 2019, 150, 154122.
     DOI: 10.1063/1.5090222
   * E. Caldeweyher, J.-M. Mewes, S. Ehlert and S. Grimme, Phys. Chem. Chem. Phys.
     2020, 22, 8499-8512. DOI: 10.1039/D0CP00502A
   
   for sTDA-xTB:
   * S. Grimme and C. Bannwarth, J. Chem. Phys., 2016, 145, 054103.
     DOI: 10.1063/1.4959605
   
   in the mass-spec context:
   * V. Asgeirsson, C. Bauer and S. Grimme, Chem. Sci., 2017, 8, 4879.
     DOI: 10.1039/c7sc00601b
   * J. Koopman and S. Grimme, ACS Omega 2019, 4, 12, 15120-15133.
     DOI: 10.1021/acsomega.9b02011
   
   for metadynamics refer to:
   * S. Grimme, J. Chem. Theory Comput., 2019, 155, 2847-2862
     DOI: 10.1021/acs.jctc.9b00143
   
   for SPH calculations refer to:
   * S. Spicher and S. Grimme, J. Chem. Theory Comput., 2021, 17, 1701-1714
     DOI: 10.1021/acs.jctc.0c01306
   
   for ONIOM refer to:
   * C. Plett, A. Katbashev, S. Ehlert, S. Grimme, M. Bursch,
     Phys. Chem. Chem. Phys., 2023, 25, 17860-17868. DOI: 10.1039/D3CP02178E
   
   for DIPRO refer to:
   * J. Kohn, N. Gildemeister, S. Grimme, D. Fazzi, A. Hansen,
     J. Chem. Phys., 2023, just accepted.
   
   for PTB refer to:
   * S. Grimme, M. Mueller, A. Hansen, J. Chem. Phys., 2023, 158, 124111.
     DOI: 10.1063/5.0137838
   
   with help from (in alphabetical order)
   P. Atkinson, C. Bannwarth, F. Bohle, G. Brandenburg, E. Caldeweyher
   M. Checinski, S. Dohm, S. Ehlert, S. Ehrlich, I. Gerasimov, C. Hölzer
   A. Katbashev, J. Kohn, J. Koopman, C. Lavigne, S. Lehtola, F. März, M. Müller,
   F. Musil, H. Neugebauer, J. Pisarek, C. Plett, P. Pracht, F. Pultar,
   J. Seibert, P. Shushkov, S. Spicher, M. Stahn, M. Steiner, T. Strunk,
   J. Stückrath, T. Rose, and J. Unsleber
   
 * started run on 2025/04/07 at 02:52:02.462     
   ID    Z sym.   atoms
    1    6 C      1, 2, 4, 5
    2    8 O      3
    3    1 H      6-15

           -------------------------------------------------
          |                Calculation Setup                |
           -------------------------------------------------

          program call               : /srv/scratch/z5358697/.xtb/bin/xtb xtb_rrho.coord --gfn2 --ohess vtight --chrg 0 --enso --norestart -I rrho-xcontrol-inp --parallel 1 --alpb water
          hostname                   : k140
          coordinate file            : xtb_rrho.coord
          omp threads                :                     1


           -------------------------------------------------
          |                 G F N 2 - x T B                 |
           -------------------------------------------------

        Reference                      10.1021/acs.jctc.8b01176
      * Hamiltonian:
        H0-scaling (s, p, d)           1.850000    2.230000    2.230000
        zeta-weighting                 0.500000
      * Dispersion:
        s8                             2.700000
        a1                             0.520000
        a2                             5.000000
        s9                             5.000000
      * Repulsion:
        kExp                           1.500000    1.000000
        rExp                           1.000000
      * Coulomb:
        alpha                          2.000000
        third order                    shell-resolved
        anisotropic                    true
        a3                             3.000000
        a5                             4.000000
        cn-shift                       1.200000
        cn-exp                         4.000000
        max-rad                        5.000000

      * Solvation model:               ALPB
        Solvent                        water
        Parameter file                 internal GFN2-xTB/ALPB
        Dielectric constant                8.0200E+01
        Reference state                gsolv [1 M gas/solution]
        Free energy shift                  1.0808E-03 Eh       6.7819E-01 kcal/mol
        Temperature                        2.9815E+02 K
        Density                            1.0000E+00 kg/L
        Solvent mass                       1.8000E+01 g/mol
        Interaction kernel             P16
        Born radius scaling (c1)           1.4744E+00
        Born radii integrator          GBOBC
        Born offset                        0.0000E+00 a0       0.0000E+00 AA
        H-bond correction              true
        Ion screening                  false
        Surface tension                    1.0000E-05 Eh       1.5569E+01 dyn/cm
        Grid points                               974 per atom

          ...................................................
          :                      SETUP                      :
          :.................................................:
          :  # basis functions                  30          :
          :  # atomic orbitals                  30          :
          :  # shells                           20          :
          :  # electrons                        32          :
          :  max. iterations                   250          :
          :  Hamiltonian                  GFN2-xTB          :
          :  restarted?                      false          :
          :  GBSA solvation                   true          :
          :  PC potential                    false          :
          :  electronic temp.          300.0000000     K    :
          :  accuracy                    1.0000000          :
          :  -> integral cutoff          0.2500000E+02      :
          :  -> integral neglect         0.1000000E-07      :
          :  -> SCF convergence          0.1000000E-05 Eh   :
          :  -> wf. convergence          0.1000000E-03 e    :
          :  Broyden damping             0.4000000          :
          :  net charge                          0          :
          :  unpaired electrons                  0          :
          ...................................................

 iter      E             dE          RMSdq      gap      omega  full diag
   1    -17.8825352 -0.178825E+02  0.390E+00   11.35       0.0  T
   2    -17.9229918 -0.404566E-01  0.197E+00   10.86       1.0  T
   3    -17.9238581 -0.866269E-03  0.764E-01   10.92       1.0  T
   4    -17.9240952 -0.237134E-03  0.139E-01   10.97       1.0  T
   5    -17.9241240 -0.287949E-04  0.778E-02   10.99       1.0  T
   6    -17.9241270 -0.299798E-05  0.106E-02   11.00       2.4  T
   7    -17.9241272 -0.214033E-06  0.422E-03   11.01       6.1  T
   8    -17.9241272 -0.145136E-07  0.190E-03   11.00      13.6  T
   9    -17.9241272 -0.268757E-07  0.265E-04   11.01      97.3  T
  10    -17.9241272  0.654339E-10  0.159E-04   11.01     162.2  T

   *** convergence criteria satisfied after 10 iterations ***

         #    Occupation            Energy/Eh            Energy/eV
      -------------------------------------------------------------
         1        2.0000           -0.6951723             -18.9166
       ...           ...                  ...                  ...
        10        2.0000           -0.4760761             -12.9547
        11        2.0000           -0.4621520             -12.5758
        12        2.0000           -0.4616234             -12.5614
        13        2.0000           -0.4533062             -12.3351
        14        2.0000           -0.4496145             -12.2346
        15        2.0000           -0.4404449             -11.9851
        16        2.0000           -0.4005800             -10.9003 (HOMO)
        17                          0.0038537               0.1049 (LUMO)
        18                          0.0876580               2.3853
        19                          0.1050577               2.8588
        20                          0.1373873               3.7385
        21                          0.1469100               3.9976
       ...                                ...                  ...
        30                          0.2659095               7.2358
      -------------------------------------------------------------
                  HL-Gap            0.4044337 Eh           11.0052 eV
             Fermi-level           -0.1983631 Eh           -5.3977 eV

 SCC (total)                   0 d,  0 h,  0 min,  0.021 sec
 SCC setup                      ...        0 min,  0.001 sec (  3.180%)
 Dispersion                     ...        0 min,  0.000 sec (  0.265%)
 classical contributions        ...        0 min,  0.000 sec (  0.072%)
 integral evaluation            ...        0 min,  0.001 sec (  3.271%)
 iterations                     ...        0 min,  0.018 sec ( 84.264%)
 molecular gradient             ...        0 min,  0.002 sec (  8.453%)
 printout                       ...        0 min,  0.000 sec (  0.451%)

         :::::::::::::::::::::::::::::::::::::::::::::::::::::
         ::                     SUMMARY                     ::
         :::::::::::::::::::::::::::::::::::::::::::::::::::::
         :: total energy             -17.722198602322 Eh    ::
         :: total w/o Gsasa/hb       -17.722172650897 Eh    ::
         :: gradient norm              0.029760622236 Eh/a0 ::
         :: HOMO-LUMO gap             11.005202255697 eV    ::
         ::.................................................::
         :: SCC energy               -17.924122243084 Eh    ::
         :: -> isotropic ES            0.026284845628 Eh    ::
         :: -> anisotropic ES          0.003816332758 Eh    ::
         :: -> anisotropic XC          0.006427837459 Eh    ::
         :: -> dispersion             -0.006541925109 Eh    ::
         :: -> Gsolv                  -0.003592077739 Eh    ::
         ::    -> Gelec               -0.003566126314 Eh    ::
         ::    -> Gsasa               -0.000136939997 Eh    ::
         ::    -> Ghb                 -0.000969771126 Eh    ::
         ::    -> Gshift               0.001080759698 Eh    ::
         :: repulsion energy           0.201923640762 Eh    ::
         :: add. restraining           0.000000000000 Eh    ::
         :: total charge               0.000000000000 e     ::
         :::::::::::::::::::::::::::::::::::::::::::::::::::::

      ----------------------------------------------------------- 
     |                   =====================                   |
     |                        A N C O P T                        |
     |                   =====================                   |
     |               Approximate Normal Coordinate               |
     |                Rational Function Optimizer                |
      ----------------------------------------------------------- 
      ----------------------------------------------------------- 
     |                   =====================                   |
     |                        A N C O P T                        |
     |                   =====================                   |
     |               Approximate Normal Coordinate               |
     |                Rational Function Optimizer                |
      ----------------------------------------------------------- 

          ...................................................
          :                      SETUP                      :
          :.................................................:
          :   optimization level         verytight          :
          :   max. optcycles                   300          :
          :   ANC micro-cycles                  20          :
          :   degrees of freedom                39          :
          :.................................................:
          :   RF solver                   davidson          :
          :   write xtbopt.log                true          :
          :   linear?                        false          :
          :   energy convergence         0.1000000E-06 Eh   :
          :   grad. convergence          0.2000000E-03 Eh/α :
          :   maxmium RF displ.          1.0000000          :
          :   Hlow (freq-cutoff)         0.1000000E-01      :
          :   Hmax (freq-cutoff)         5.0000000          :
          :   S6 in model hess.         20.0000000          :
          ...................................................

generating ANC from exact Hessian ...
Using Lindh-Hessian (1995)
 Shifting diagonal of input Hessian by   7.268620688918293E-003
 Lowest  eigenvalues of input Hessian
    0.000000    0.000000    0.000000    0.000000    0.000000    0.000000
    0.010000    0.011884    0.013165    0.019132    0.026920    0.029790
    0.032411    0.048426    0.053077    0.061402    0.062470    0.074705
 Highest eigenvalues
    1.152113    1.154585    1.235701    1.240925    1.287781    1.469459
 

........................................................................
.............................. CYCLE    1 ..............................
........................................................................

 iter      E             dE          RMSdq      gap      omega  full diag
   1    -17.9241272 -0.179241E+02  0.696E-06   11.01       0.0  T
   2    -17.9241272 -0.248690E-13  0.426E-06   11.01    6062.1  T
   3    -17.9241272  0.000000E+00  0.586E-07   11.01   44093.3  T
     SCC iter.                  ...        0 min,  0.001 sec
     gradient                   ...        0 min,  0.002 sec
 * total energy  :   -17.7221986 Eh     change       -0.2303970E-09 Eh
   gradient norm :     0.0297593 Eh/α   predicted     0.0000000E+00 (-100.00%)
   displ. norm   :     0.0686275 α      lambda       -0.1197152E-02
   maximum displ.:     0.0400020 α      in ANC's #3, #27, #18, ...

........................................................................
.............................. CYCLE    2 ..............................
........................................................................

 iter      E             dE          RMSdq      gap      omega  full diag
   1    -17.9303712 -0.179304E+02  0.960E-02   11.11       0.0  T
   2    -17.9303760 -0.479466E-05  0.562E-02   11.11       1.0  T
   3    -17.9303765 -0.466963E-06  0.103E-02   11.12       2.5  T
   4    -17.9303767 -0.173560E-06  0.291E-03   11.12       8.9  T
   5    -17.9303767 -0.105932E-07  0.166E-03   11.12      15.6  T
   6    -17.9303767 -0.174689E-08  0.506E-04   11.12      51.0  T
   7    -17.9303767 -0.256481E-09  0.939E-05   11.12     274.9  T
     SCC iter.                  ...        0 min,  0.001 sec
     gradient                   ...        0 min,  0.002 sec
 * total energy  :   -17.7229624 Eh     change       -0.7638169E-03 Eh
   gradient norm :     0.0120294 Eh/α   predicted    -0.6013949E-03 ( -21.26%)
   displ. norm   :     0.0710135 α      lambda       -0.2650303E-03
   maximum displ.:     0.0593041 α      in ANC's #3, #6, #11, ...

........................................................................
.............................. CYCLE    3 ..............................
........................................................................

 iter      E             dE          RMSdq      gap      omega  full diag
   1    -17.9328608 -0.179329E+02  0.443E-02   11.31       0.0  T
   2    -17.9328637 -0.285886E-05  0.261E-02   11.31       1.0  T
   3    -17.9328639 -0.252562E-06  0.776E-03   11.32       3.3  T
   4    -17.9328640 -0.369966E-07  0.191E-03   11.32      13.5  T
   5    -17.9328640 -0.103224E-07  0.895E-04   11.32      28.9  T
   6    -17.9328640 -0.762604E-09  0.452E-04   11.32      57.1  T
     SCC iter.                  ...        0 min,  0.001 sec
     gradient                   ...        0 min,  0.002 sec
 * total energy  :   -17.7231182 Eh     change       -0.1558253E-03 Eh
   gradient norm :     0.0032052 Eh/α   predicted    -0.1331847E-03 ( -14.53%)
   displ. norm   :     0.0416339 α      lambda       -0.3413493E-04
   maximum displ.:     0.0404950 α      in ANC's #3, #1, #36, ...

........................................................................
.............................. CYCLE    4 ..............................
........................................................................

 iter      E             dE          RMSdq      gap      omega  full diag
   1    -17.9326171 -0.179326E+02  0.213E-02   11.38       0.0  T
   2    -17.9326173 -0.209714E-06  0.127E-02   11.38       2.0  T
   3    -17.9326173 -0.265366E-07  0.183E-03   11.38      14.1  T
   4    -17.9326173 -0.685308E-08  0.556E-04   11.38      46.5  T
   5    -17.9326173 -0.818975E-09  0.267E-04   11.38      96.5  T
     SCC iter.                  ...        0 min,  0.001 sec
     gradient                   ...        0 min,  0.002 sec
 * total energy  :   -17.7231410 Eh     change       -0.2278555E-04 Eh
   gradient norm :     0.0011411 Eh/α   predicted    -0.1709808E-04 ( -24.96%)
   displ. norm   :     0.0471168 α      lambda       -0.1029438E-04
   maximum displ.:     0.0453749 α      in ANC's #3, #1, #6, ...

........................................................................
.............................. CYCLE    5 ..............................
........................................................................

 iter      E             dE          RMSdq      gap      omega  full diag
   1    -17.9319475 -0.179319E+02  0.205E-02   11.41       0.0  T
   2    -17.9319475 -0.513167E-07  0.121E-02   11.41       2.1  T
   3    -17.9319475 -0.845229E-08  0.836E-04   11.41      30.9  T
   4    -17.9319475 -0.181328E-08  0.339E-04   11.41      76.3  T
     SCC iter.                  ...        0 min,  0.001 sec
     gradient                   ...        0 min,  0.002 sec
 * total energy  :   -17.7231482 Eh     change       -0.7210325E-05 Eh
   gradient norm :     0.0011140 Eh/α   predicted    -0.5152066E-05 ( -28.55%)
   displ. norm   :     0.0077200 α      lambda       -0.1596453E-05
   maximum displ.:     0.0058344 α      in ANC's #3, #1, #36, ...

........................................................................
.............................. CYCLE    6 ..............................
........................................................................

 iter      E             dE          RMSdq      gap      omega  full diag
   1    -17.9320839 -0.179321E+02  0.422E-03   11.40       0.0  T
   2    -17.9320839 -0.169947E-07  0.250E-03   11.40      10.3  T
   3    -17.9320839 -0.187371E-08  0.552E-04   11.40      46.8  T
   4    -17.9320839 -0.264684E-09  0.102E-04   11.40     252.1  T
     SCC iter.                  ...        0 min,  0.001 sec
     gradient                   ...        0 min,  0.002 sec
 * total energy  :   -17.7231499 Eh     change       -0.1620898E-05 Eh
   gradient norm :     0.0003488 Eh/α   predicted    -0.7972121E-06 ( -50.82%)
   displ. norm   :     0.0107030 α      lambda       -0.5596472E-06
   maximum displ.:     0.0076890 α      in ANC's #3, #1, #2, ...

........................................................................
.............................. CYCLE    7 ..............................
........................................................................

 iter      E             dE          RMSdq      gap      omega  full diag
   1    -17.9322102 -0.179322E+02  0.355E-03   11.39       0.0  T
   2    -17.9322102 -0.416286E-08  0.211E-03   11.39      12.2  T
   3    -17.9322102 -0.441979E-09  0.274E-04   11.39      94.4  T
   4    -17.9322102 -0.152259E-09  0.813E-05   11.39     317.5  T
     SCC iter.                  ...        0 min,  0.001 sec
     gradient                   ...        0 min,  0.002 sec
 * total energy  :   -17.7231504 Eh     change       -0.5307642E-06 Eh
   gradient norm :     0.0001017 Eh/α   predicted    -0.2789443E-06 ( -47.44%)
   displ. norm   :     0.0070556 α      lambda       -0.1321209E-06
   maximum displ.:     0.0056100 α      in ANC's #1, #3, #2, ...

........................................................................
.............................. CYCLE    8 ..............................
........................................................................

 iter      E             dE          RMSdq      gap      omega  full diag
   1    -17.9322141 -0.179322E+02  0.208E-03   11.39       0.0  T
   2    -17.9322141 -0.367638E-09  0.124E-03   11.39      20.8  T
   3    -17.9322141 -0.444658E-10  0.791E-05   11.39     326.6  T
   4    -17.9322141 -0.211138E-10  0.322E-05   11.39     801.8  T
     SCC iter.                  ...        0 min,  0.001 sec
     gradient                   ...        0 min,  0.002 sec
 * total energy  :   -17.7231505 Eh     change       -0.1505220E-06 Eh
   gradient norm :     0.0000962 Eh/α   predicted    -0.6525107E-07 ( -56.65%)
   displ. norm   :     0.0047891 α      lambda       -0.7292020E-07
   maximum displ.:     0.0042461 α      in ANC's #1, #3, #2, ...

........................................................................
.............................. CYCLE    9 ..............................
........................................................................

 iter      E             dE          RMSdq      gap      omega  full diag
   1    -17.9322065 -0.179322E+02  0.145E-03   11.39       0.0  T
   2    -17.9322065 -0.632845E-10  0.866E-04   11.39      29.8  T
   3    -17.9322065 -0.222755E-10  0.335E-05   11.39     770.2  T
     SCC iter.                  ...        0 min,  0.001 sec
     gradient                   ...        0 min,  0.002 sec
 * total energy  :   -17.7231506 Eh     change       -0.9122637E-07 Eh
   gradient norm :     0.0000505 Eh/α   predicted    -0.3515676E-07 ( -61.46%)
   displ. norm   :     0.0040323 α      lambda       -0.5736623E-07
   maximum displ.:     0.0036233 α      in ANC's #1, #2, #4, ...

   *** GEOMETRY OPTIMIZATION CONVERGED AFTER 9 ITERATIONS ***

------------------------------------------------------------------------
 total energy gain   :        -0.0009520 Eh       -0.5974 kcal/mol
 total RMSD          :         0.0580650 a0        0.0307 Å
 total power (kW/mol):        -0.2777288 (step)  -56.9286 (real)
------------------------------------------------------------------------

 ANCopt (total)                0 d,  0 h,  0 min,  0.044 sec
 optimizer setup                ...        0 min,  0.000 sec (  0.916%)
 model hessian                  ...        0 min,  0.001 sec (  3.265%)
 ANC generation                 ...        0 min,  0.000 sec (  0.483%)
 coordinate transformation      ...        0 min,  0.000 sec (  0.084%)
 single point calculation       ...        0 min,  0.035 sec ( 80.296%)
 optimization log               ...        0 min,  0.006 sec ( 12.530%)
 hessian update                 ...        0 min,  0.000 sec (  0.072%)
 rational function              ...        0 min,  0.001 sec (  1.661%)

================
 final structure:
================
$coord
        4.49273429828140        0.78451180130487       -0.01157162746846      C
        2.23322165681051       -0.97575641373959        0.20128132359905      C
       -0.00284869353703        0.45941724479938       -0.08796299350928      O
       -2.23712157360042       -0.99904379174633        0.06803893889884      C
       -4.49887770915603        0.74140372446292       -0.25530452035168      C
        6.22903410024803       -0.28396612522324        0.21219759908331      H
        4.48595163232311        1.70288068247124       -1.84703053937907      H
        4.38552387143751        2.22881030370389        1.44266567439048      H
        2.21574029558837       -1.92347941763380        2.05442676066465      H
        2.31039993894513       -2.44667862926789       -1.26936574069196      H
       -2.21895156037344       -2.45900613880408       -1.41546697482477      H
       -2.31192762365421       -1.96114110500172        1.91226162559132      H
       -6.23391271317265       -0.34665258464067       -0.14467318038588      H
       -4.49129871536255        2.16935269473341        1.21888520463683      H
       -4.39538924276322        1.68147773337982       -2.07680136836522      H
$end
 
 Bond Distances (Angstroems)
 ---------------------------
C1-C2=1.5199         C1-H6=1.0853         C1-H7=1.0861         C1-H8=1.0861         C2-C1=1.5199         C2-O3=1.4143         
C2-H9=1.1015         C2-H10=1.1014        O3-C2=1.4143         O3-C4=1.4143         C4-O3=1.4143         C4-C5=1.5199         
C4-H11=1.1015        C4-H12=1.1014        C5-C4=1.5199         C5-H13=1.0853        C5-H14=1.0861        C5-H15=1.0861        
H6-C1=1.0853         H7-C1=1.0861         H8-C1=1.0861         H9-C2=1.1015         H10-C2=1.1014        H11-C4=1.1015        
H12-C4=1.1014        H13-C5=1.0853        H14-C5=1.0861        H15-C5=1.0861        
 C  H  Rav=1.0921 sigma=0.0077  Rmin=1.0853  Rmax=1.1015    10
 C  C  Rav=1.5199 sigma=0.0000  Rmin=1.5199  Rmax=1.5199     2
 O  C  Rav=1.4143 sigma=0.0000  Rmin=1.4143  Rmax=1.4143     2
 
 selected bond angles (degree)
 --------------------
H6-C1-C2=109.79                H7-C1-C2=109.75                H7-C1-H6=109.48                H8-C1-C2=109.74                
H8-C1-H6=109.48                H8-C1-H7=108.58                O3-C2-C1=108.73                H9-C2-C1=110.59                
H9-C2-O3=109.50                H10-C2-C1=110.58               H10-C2-O3=109.51               H10-C2-H9=107.91               
C4-O3-C2=113.58                C5-C4-O3=108.73                H11-C4-O3=109.50               H11-C4-C5=110.59               
H12-C4-O3=109.51               H12-C4-C5=110.58               H12-C4-H11=107.91              H13-C5-C4=109.79               
H14-C5-C4=109.74               H14-C5-H13=109.48              H15-C5-C4=109.74               H15-C5-H13=109.48              
H15-C5-H14=108.58              
 
 selected dihedral angles (degree)
 ---------------------------------
O3-C2-C1-H6=179.81            O3-C2-C1-H7=300.20            O3-C2-C1-H8= 59.43            H9-C2-C1-H6= 59.56            
H9-C2-C1-H7=179.94            H9-C2-C1-H8=299.18            H10-C2-C1-H6=300.08           H10-C2-C1-H7= 60.47           
H10-C2-C1-H8=179.70           C4-O3-C2-C1=179.77            C4-O3-C2-H9=300.69            C4-O3-C2-H10= 58.84           
C5-C4-O3-C2=179.72            H11-C4-O3-C2=300.65           H12-C4-O3-C2= 58.79           H13-C5-C4-O3=179.89           
H13-C5-C4-H11= 59.63          H13-C5-C4-H12=300.15          H14-C5-C4-O3=300.27           H14-C5-C4-H11=180.01          
H14-C5-C4-H12= 60.53          H15-C5-C4-O3= 59.51           H15-C5-C4-H11=299.25          H15-C5-C4-H12=179.77          
           -------------------------------------------------
          |                Final Singlepoint                |
           -------------------------------------------------

          ...................................................
          :                      SETUP                      :
          :.................................................:
          :  # basis functions                  30          :
          :  # atomic orbitals                  30          :
          :  # shells                           20          :
          :  # electrons                        32          :
          :  max. iterations                   250          :
          :  Hamiltonian                  GFN2-xTB          :
          :  restarted?                      false          :
          :  GBSA solvation                   true          :
          :  PC potential                    false          :
          :  electronic temp.          300.0000000     K    :
          :  accuracy                    1.0000000          :
          :  -> integral cutoff          0.2500000E+02      :
          :  -> integral neglect         0.1000000E-07      :
          :  -> SCF convergence          0.1000000E-05 Eh   :
          :  -> wf. convergence          0.1000000E-03 e    :
          :  Broyden damping             0.4000000          :
          :  net charge                          0          :
          :  unpaired electrons                  0          :
          ...................................................

 iter      E             dE          RMSdq      gap      omega  full diag
   1    -17.9322065 -0.179322E+02  0.182E-05   11.39       0.0  T
   2    -17.9322065 -0.145661E-12  0.109E-05   11.39    2367.5  T
   3    -17.9322065 -0.426326E-13  0.235E-06   11.39   10968.1  T

   *** convergence criteria satisfied after 3 iterations ***

         #    Occupation            Energy/Eh            Energy/eV
      -------------------------------------------------------------
         1        2.0000           -0.6991959             -19.0261
       ...           ...                  ...                  ...
        10        2.0000           -0.4759141             -12.9503
        11        2.0000           -0.4625647             -12.5870
        12        2.0000           -0.4615754             -12.5601
        13        2.0000           -0.4545675             -12.3694
        14        2.0000           -0.4479966             -12.1906
        15        2.0000           -0.4410815             -12.0024
        16        2.0000           -0.3993686             -10.8674 (HOMO)
        17                          0.0192003               0.5225 (LUMO)
        18                          0.1022207               2.7816
        19                          0.1079816               2.9383
        20                          0.1462920               3.9808
        21                          0.1471516               4.0042
       ...                                ...                  ...
        30                          0.2745179               7.4700
      -------------------------------------------------------------
                  HL-Gap            0.4185689 Eh           11.3898 eV
             Fermi-level           -0.1900842 Eh           -5.1725 eV

 SCC (total)                   0 d,  0 h,  0 min,  0.004 sec
 SCC setup                      ...        0 min,  0.001 sec ( 15.604%)
 Dispersion                     ...        0 min,  0.000 sec (  0.771%)
 classical contributions        ...        0 min,  0.000 sec (  0.253%)
 integral evaluation            ...        0 min,  0.001 sec ( 16.351%)
 iterations                     ...        0 min,  0.001 sec ( 16.666%)
 molecular gradient             ...        0 min,  0.002 sec ( 47.955%)
 printout                       ...        0 min,  0.000 sec (  2.092%)

         :::::::::::::::::::::::::::::::::::::::::::::::::::::
         ::                     SUMMARY                     ::
         :::::::::::::::::::::::::::::::::::::::::::::::::::::
         :: total energy             -17.723150634046 Eh    ::
         :: total w/o Gsasa/hb       -17.723049757463 Eh    ::
         :: gradient norm              0.000050769700 Eh/a0 ::
         :: HOMO-LUMO gap             11.389839059915 eV    ::
         ::.................................................::
         :: SCC energy               -17.932200879427 Eh    ::
         :: -> isotropic ES            0.025271371026 Eh    ::
         :: -> anisotropic ES          0.003205198038 Eh    ::
         :: -> anisotropic XC          0.005835722367 Eh    ::
         :: -> dispersion             -0.006575112968 Eh    ::
         :: -> Gsolv                  -0.003368459101 Eh    ::
         ::    -> Gelec               -0.003267582518 Eh    ::
         ::    -> Gsasa               -0.000204205473 Eh    ::
         ::    -> Ghb                 -0.000977430808 Eh    ::
         ::    -> Gshift               0.001080759698 Eh    ::
         :: repulsion energy           0.209050245381 Eh    ::
         :: add. restraining           0.000000000000 Eh    ::
         :: total charge               0.000000000000 e     ::
         :::::::::::::::::::::::::::::::::::::::::::::::::::::

           ------------------------------------------------- 
          |                Numerical Hessian                |
           ------------------------------------------------- 
step length          :   0.00500
SCC accuracy         :   0.30000
Hessian scale factor :   1.00000
frozen atoms in %    :   0.00000    0
RMS gradient         :   0.00005
estimated CPU  time      0.01 min
estimated wall time      0.01 min

writing file <hessian>.

 projected vibrational frequencies (cm⁻¹)
eigval :       -0.00    -0.00    -0.00    -0.00    -0.00     0.00
eigval :       94.62    97.30   182.64   202.15   209.60   406.01
eigval :      427.37   833.05   844.14   884.30   965.70  1083.89
eigval :     1086.25  1106.17  1137.25  1156.29  1162.48  1247.89
eigval :     1256.88  1324.61  1347.07  1392.88  1399.43  1465.21
eigval :     1465.81  1487.37  1488.61  1488.88  1493.85  2819.55
eigval :     2823.77  2858.77  2865.43  3049.71  3049.86  3053.45
eigval :     3053.65  3055.06  3055.91
           -------------------------------------------------
          |                Property Printout                |
           -------------------------------------------------

    * Orbital Energies and Occupations

         #    Occupation            Energy/Eh            Energy/eV
      -------------------------------------------------------------
         1        2.0000           -0.6991959             -19.0261
       ...           ...                  ...                  ...
         4        2.0000           -0.5914127             -16.0932
         5        2.0000           -0.5782644             -15.7354
         6        2.0000           -0.5525100             -15.0346
         7        2.0000           -0.5481859             -14.9169
         8        2.0000           -0.5148469             -14.0097
         9        2.0000           -0.5062322             -13.7753
        10        2.0000           -0.4759141             -12.9503
        11        2.0000           -0.4625647             -12.5870
        12        2.0000           -0.4615754             -12.5601
        13        2.0000           -0.4545675             -12.3694
        14        2.0000           -0.4479966             -12.1906
        15        2.0000           -0.4410815             -12.0024
        16        2.0000           -0.3993687             -10.8674 (HOMO)
        17                          0.0192002               0.5225 (LUMO)
        18                          0.1022207               2.7816
        19                          0.1079816               2.9383
        20                          0.1462920               3.9808
        21                          0.1471516               4.0042
        22                          0.1563051               4.2533
        23                          0.1656631               4.5079
        24                          0.1776252               4.8334
        25                          0.1818529               4.9485
        26                          0.1935066               5.2656
        27                          0.2517523               6.8505
       ...                                ...                  ...
        30                          0.2745179               7.4700
      -------------------------------------------------------------
                  HL-Gap            0.4185689 Eh           11.3898 eV
             Fermi-level           -0.1900842 Eh           -5.1725 eV

     #   Z          covCN         q      C6AA      α(0)
     1   6 C        3.751    -0.126    22.982     6.837
     2   6 C        3.696     0.088    19.273     6.280
     3   8 O        1.701    -0.360    20.074     6.049
     4   6 C        3.696     0.088    19.273     6.280
     5   6 C        3.751    -0.126    22.982     6.837
     6   1 H        0.925     0.060     2.198     2.318
     7   1 H        0.925     0.060     2.200     2.319
     8   1 H        0.925     0.060     2.199     2.319
     9   1 H        0.923     0.019     2.752     2.594
    10   1 H        0.923     0.019     2.752     2.594
    11   1 H        0.923     0.019     2.752     2.594
    12   1 H        0.923     0.019     2.752     2.594
    13   1 H        0.925     0.060     2.198     2.318
    14   1 H        0.925     0.060     2.199     2.319
    15   1 H        0.925     0.060     2.199     2.319

 Mol. C6AA /au·bohr⁶  :       1466.547382
 Mol. C8AA /au·bohr⁸  :      29781.071995
 Mol. α(0) /au        :         56.571900


Wiberg/Mayer (AO) data.
largest (>0.10) Wiberg bond orders for each atom

 ---------------------------------------------------------------------------
     #   Z sym  total        # sym  WBO       # sym  WBO       # sym  WBO
 ---------------------------------------------------------------------------
     1   6 C    3.990 --     2 C    1.016     7 H    0.985     8 H    0.985
                             6 H    0.984
     2   6 C    3.950 --     1 C    1.016     3 O    0.974    10 H    0.969
                             9 H    0.969
     3   8 O    2.043 --     2 C    0.974     4 C    0.974
     4   6 C    3.950 --     5 C    1.016     3 O    0.974    12 H    0.969
                            11 H    0.969
     5   6 C    3.990 --     4 C    1.016    14 H    0.985    15 H    0.985
                            13 H    0.984
     6   1 H    0.996 --     1 C    0.984
     7   1 H    0.996 --     1 C    0.985
     8   1 H    0.996 --     1 C    0.985
     9   1 H    1.000 --     2 C    0.969
    10   1 H    1.000 --     2 C    0.969
    11   1 H    1.000 --     4 C    0.969
    12   1 H    1.000 --     4 C    0.969
    13   1 H    0.996 --     5 C    0.984
    14   1 H    0.996 --     5 C    0.985
    15   1 H    0.996 --     5 C    0.985
 ---------------------------------------------------------------------------

Topologies differ in total number of bonds
Writing topology from bond orders to xtbtopo.mol

molecular dipole:
                 x           y           z       tot (Debye)
 q only:        0.000      -0.269       0.042
   full:        0.000      -0.488       0.075       1.256
molecular quadrupole (traceless):
                xx          xy          yy          xz          yz          zz
 q only:        4.495       0.035      -1.975       0.196      -0.078      -2.520
  q+dip:        1.776       0.013      -1.593       0.055       0.235      -0.183
   full:        2.804       0.022      -1.610       0.113       0.079      -1.193

           -------------------------------------------------
          |                Geometry Summary                 |
           -------------------------------------------------

      molecular mass/u    :       74.1217560
   center of mass at/Å    :       -0.0013653       0.0021957      -0.0092112
  moments of inertia/u·Å² :        0.2803455E+02   0.2260360E+03   0.2414030E+03
rotational constants/cm⁻¹ :        0.6013162E+00   0.7457943E-01   0.6983190E-01

 * 14 selected distances

     #   Z          #   Z                                           value/Å
     1   6 C        2   6 C                                       1.5198767
     2   6 C        3   8 O                                       1.4143391
     3   8 O        4   6 C                                       1.4143415
     4   6 C        5   6 C                                       1.5198768 (max)
     1   6 C        6   1 H                                       1.0853237
     1   6 C        7   1 H                                       1.0860848
     1   6 C        8   1 H                                       1.0860773
     2   6 C        9   1 H                                       1.1014812
     2   6 C       10   1 H                                       1.1014480
     4   6 C       11   1 H                                       1.1014784
     4   6 C       12   1 H                                       1.1014497
     5   6 C       13   1 H                                       1.0853234 (min)
     5   6 C       14   1 H                                       1.0860815
     5   6 C       15   1 H                                       1.0860775

 * 3 distinct bonds (by element types)

   Z      Z             #   av. dist./Å        max./Å        min./Å
   1 H    6 C          10     1.0920826     1.1014812     1.0853234
   6 C    6 C           2     1.5198767     1.5198768     1.5198767
   6 C    8 O           2     1.4143403     1.4143415     1.4143391

           -------------------------------------------------
          |               Frequency Printout                |
           -------------------------------------------------
 projected vibrational frequencies (cm⁻¹)
eigval :       -0.00    -0.00    -0.00    -0.00    -0.00     0.00
eigval :       94.62    97.30   182.64   202.15   209.60   406.01
eigval :      427.37   833.05   844.14   884.30   965.70  1083.89
eigval :     1086.25  1106.17  1137.25  1156.29  1162.48  1247.89
eigval :     1256.88  1324.61  1347.07  1392.88  1399.43  1465.21
eigval :     1465.81  1487.37  1488.61  1488.88  1493.85  2819.55
eigval :     2823.77  2858.77  2865.43  3049.71  3049.86  3053.45
eigval :     3053.65  3055.06  3055.91
 reduced masses (amu)
   1:  8.44   2:  8.82   3:  9.54   4:  9.42   5: 11.21   6: 10.98   7:  5.34   8: 10.95
   9:  9.30  10:  2.49  11:  3.63  12:  9.31  13: 10.00  14:  1.88  15:  2.04  16:  7.42
  17:  8.11  18:  8.64  19:  9.49  20: 10.86  21:  4.59  22:  9.02  23:  5.63  24:  2.05
  25:  2.28  26:  3.18  27:  3.87  28:  3.29  29:  3.68  30:  1.53  31:  1.52  32:  1.63
  33:  1.60  34:  1.79  35:  1.75  36:  1.94  37:  1.98  38:  1.42  39:  1.41  40:  1.96
  41:  1.96  42:  1.27  43:  1.30  44:  1.94  45:  1.90
 IR intensities (km·mol⁻¹)
   1:  1.04   2:  0.74   3:  0.31   4:  0.44   5:  0.02   6:  0.05   7:  0.01   8:  8.83
   9:  2.17  10:  0.00  11:  2.38  12:  2.98  13:  0.01  14:  0.00  15:  5.12  16: 11.93
  17: 20.06  18:  4.21  19: 22.71  20:162.71  21:  0.00  22: 66.45  23: 38.58  24:  0.00
  25:  7.19  26: 33.67  27:  5.23  28: 14.67  29:  2.50  30:  0.01  31:  4.69  32:  3.01
  33:  1.69  34:  0.27  35: 10.40  36:263.39  37:  0.00  38: 14.59  39:180.90  40:  2.84
  41: 81.12  42: 35.67  43:  2.40  44: 19.08  45: 68.63
 Raman intensities (Ä⁴*amu⁻¹)
   1:  0.00   2:  0.00   3:  0.00   4:  0.00   5:  0.00   6:  0.00   7:  0.00   8:  0.00
   9:  0.00  10:  0.00  11:  0.00  12:  0.00  13:  0.00  14:  0.00  15:  0.00  16:  0.00
  17:  0.00  18:  0.00  19:  0.00  20:  0.00  21:  0.00  22:  0.00  23:  0.00  24:  0.00
  25:  0.00  26:  0.00  27:  0.00  28:  0.00  29:  0.00  30:  0.00  31:  0.00  32:  0.00
  33:  0.00  34:  0.00  35:  0.00  36:  0.00  37:  0.00  38:  0.00  39:  0.00  40:  0.00
  41:  0.00  42:  0.00  43:  0.00  44:  0.00  45:  0.00
 output can be read by thermo (or use thermo option).
 writing <g98.out> molden fake output.
 recommended (thermochemical) frequency scaling factor: 1.0
           -------------------------------------------------
          |             Thermodynamic Functions             |
           -------------------------------------------------

Molecule has the following symmetry elements: (C2) 2*(sigma) 
It seems to be the C2v point group
c2v symmetry found (for desy threshold:  0.10E+00) used in thermo

          ...................................................
          :                      SETUP                      :
          :.................................................:
          :  # frequencies                          39      :
          :  # imaginary freq.                       0      :
          :  linear?                             false      :
          :  only rotor calc.                    false      :
          :  symmetry                              c2v      :
          :  rotational number                       2      :
          :  scaling factor                  1.0000000      :
          :  rotor cutoff                    0.0000000 cm⁻¹ :
          :  imag. cutoff                 -100.0000000 cm⁻¹ :
          :.................................................:

    mode    ω/cm⁻¹     T·S(HO)/kcal·mol⁻¹    T·S(FR)/kcal·mol⁻¹   T·S(vib)
   ------------------------------------------------------------------------
       1     94.62    -1.06206 (100.00%)    -0.86727 (  0.00%)    -1.06206
       2     97.30    -1.04581 (100.00%)    -0.85901 (  0.00%)    -1.04581
       3    182.64    -0.68613 (100.00%)    -0.67261 (  0.00%)    -0.68613
       4    202.15    -0.63012 (100.00%)    -0.64256 (  0.00%)    -0.63012
       5    209.60    -0.61037 (100.00%)    -0.63184 (  0.00%)    -0.61037
   ------------------------------------------------------------------------

   temp. (K)  partition function   enthalpy   heat capacity  entropy
                                   cal/mol     cal/K/mol   cal/K/mol   J/K/mol
 298.15  VIB   46.3                 2654.872     17.298     16.524
         ROT  0.472E+05              888.752      2.981     24.370
         INT  0.219E+07             3543.624     20.278     40.894
         TR   0.617E+27             1481.254      4.968     38.808
         TOT                        5024.8782    25.2466    79.7016   333.4715

       T/K    H(0)-H(T)+PV         H(T)/Eh          T*S/Eh         G(T)/Eh
   ------------------------------------------------------------------------
    298.15    0.800765E-02    0.141105E+00    0.378688E-01    0.103236E+00
   ------------------------------------------------------------------------

         :::::::::::::::::::::::::::::::::::::::::::::::::::::
         ::                  THERMODYNAMIC                  ::
         :::::::::::::::::::::::::::::::::::::::::::::::::::::
         :: total free energy         -17.619914781449 Eh   ::
         ::.................................................::
         :: total energy              -17.723150633996 Eh   ::
         :: zero point energy           0.133097000058 Eh   ::
         :: G(RRHO) w/o ZPVE           -0.029861147511 Eh   ::
         :: G(RRHO) contrib.            0.103235852548 Eh   ::
         :::::::::::::::::::::::::::::::::::::::::::::::::::::

optimized geometry written to: xtbopt.coord


           -------------------------------------------------
          | TOTAL ENERGY              -17.723150633996 Eh   |
          | TOTAL ENTHALPY            -17.582045980807 Eh   |
          | TOTAL FREE ENERGY         -17.619914781449 Eh   |
          | GRADIENT NORM               0.000050765563 Eh/α |
          | HOMO-LUMO GAP              11.389839223236 eV   |
           -------------------------------------------------

------------------------------------------------------------------------
 * finished run on 2025/04/07 at 02:52:02.966     
------------------------------------------------------------------------
 total:
 * wall-time:     0 d,  0 h,  0 min,  0.504 sec
 *  cpu-time:     0 d,  0 h,  0 min,  0.413 sec
 * ratio c/w:     0.820 speedup
 SCF:
 * wall-time:     0 d,  0 h,  0 min,  0.021 sec
 *  cpu-time:     0 d,  0 h,  0 min,  0.007 sec
 * ratio c/w:     0.355 speedup
 ANC optimizer:
 * wall-time:     0 d,  0 h,  0 min,  0.060 sec
 *  cpu-time:     0 d,  0 h,  0 min,  0.044 sec
 * ratio c/w:     0.726 speedup
 analytical hessian:
 * wall-time:     0 d,  0 h,  0 min,  0.361 sec
 *  cpu-time:     0 d,  0 h,  0 min,  0.351 sec
 * ratio c/w:     0.972 speedup

