! r2scan-3c def2/J RI DEFGRID2 scfconv6 printgap
%output
    printlevel normal
end
%cpcm
    smd true
    smdsolvent "water"
end
* xyz 0 1
C -3.487649188 0.2857543545 -3.83216e-05
C -2.7566544562 1.4630871487 1.73457e-05
C -1.3749841175 1.4105748538 0.0001060769
C -0.7336747294 0.1858163963 8.26577e-05
C -1.4484767498 -1.0084266984 3.50916e-05
C -2.8424134407 -0.9333438931 -2.54998e-05
O -0.8921592016 -2.2372720387 -1.4273e-06
I 1.4038535427 0.1412901085 -1.84863e-05
H -4.5652565013 0.3161999684 0.0001058417
H -3.2537499859 2.4192301352 4.2336e-05
H -0.7953424244 2.3201540203 0.000114043
H -3.388221844 -1.8628642193 -2.56283e-05
H 0.0779602871 -2.1926003102 2.427e-07
*
