 Entering Gaussian System
 *********************************************
 Gaussian 98:
 frequency output generated by the xtb code
 *********************************************
                         Standard orientation:
 --------------------------------------------------------------------
  Center     Atomic     Atomic              Coordinates (Angstroms)
  Number     Number      Type              X           Y           Z
 --------------------------------------------------------------------
    1          6             0        1.878718    0.647034    0.299384
    2          6             0        1.023469   -0.196420   -0.643080
    3          8             0       -0.000019   -0.941170    0.000047
    4          6             0       -1.023553   -0.196239    0.642891
    5          6             0       -1.878891    0.646765   -0.299895
    6          1             0        1.317478    1.490459    0.693442
    7          1             0        2.228487    0.037356    1.128803
    8          1             0        2.736169    1.028335   -0.246503
    9          1             0        1.639116   -0.966557   -1.114148
   10          1             0        0.595472    0.435350   -1.431688
   11          1             0       -1.639137   -0.966234    1.114273
   12          1             0       -0.595595    0.435877    1.431243
   13          1             0       -1.317706    1.490049   -0.694328
   14          1             0       -2.228661    0.036720   -1.129044
   15          1             0       -2.736339    1.028255    0.245866
 --------------------------------------------------------------------
     1 basis functions        1 primitive gaussians
     1 alpha electrons        1 beta electrons
 
 Harmonic frequencies (cm**-1), IR intensities (km*mol⁻¹),
 Raman scattering activities (A**4/amu), Raman depolarization ratios,
 reduced masses (AMU), force constants (mDyne/A) and normal coordinates:
                      1                      2                      3
                        a                      a                      a 
 Frequencies --    48.1568               134.9931               208.0955
 Red. masses --     7.9978                 4.9523                 1.3209
 Frc consts  --     0.0000                 0.0000                 0.0000
 IR Inten    --     0.1283                 5.3538                 0.2657
 Raman Activ --     0.0000                 0.0000                 0.0000
 Depolar     --     0.0000                 0.0000                 0.0000
 Atom AN      X      Y      Z        X      Y      Z        X      Y      Z
   1   6     0.38  -0.29   0.11     0.16  -0.05  -0.16    -0.03   0.05   0.03
   2   6     0.00   0.20   0.00    -0.19   0.11   0.02     0.04  -0.04   0.06
   3   8    -0.00   0.23  -0.00     0.07   0.00   0.33    -0.00  -0.06  -0.00
   4   6    -0.00   0.20  -0.00    -0.19  -0.11   0.02    -0.04  -0.04  -0.06
   5   6    -0.38  -0.29  -0.11     0.16   0.05  -0.16     0.03   0.05  -0.03
   6   1     0.18  -0.09   0.15     0.02  -0.15   0.21    -0.15  -0.21   0.29
   7   1     0.13  -0.19  -0.05     0.30  -0.10  -0.21     0.33  -0.05  -0.18
   8   1     0.10  -0.08   0.02    -0.12   0.18  -0.17    -0.23   0.35  -0.11
   9   1    -0.07   0.07  -0.11    -0.10   0.06  -0.10     0.03  -0.00   0.03
  10   1    -0.01   0.16   0.09    -0.14   0.07   0.09     0.02  -0.02   0.01
  11   1     0.07   0.07   0.11    -0.10  -0.06  -0.10    -0.03  -0.00  -0.03
  12   1     0.01   0.16  -0.09    -0.14  -0.07   0.09    -0.02  -0.02  -0.01
  13   1    -0.18  -0.09  -0.15     0.02   0.15   0.21     0.15  -0.21  -0.29
  14   1    -0.13  -0.19   0.05     0.30   0.10  -0.21    -0.33  -0.05   0.18
  15   1    -0.10  -0.08  -0.02    -0.12  -0.18  -0.17     0.23   0.35   0.11
                      4                      5                      6
                        a                      a                      a 
 Frequencies --   270.6836               288.6686               436.6094
 Red. masses --     4.9099                 8.0782                10.6834
 Frc consts  --     0.0000                 0.0000                 0.0000
 IR Inten    --     3.7095                 0.3677                15.8981
 Raman Activ --     0.0000                 0.0000                 0.0000
 Depolar     --     0.0000                 0.0000                 0.0000
 Atom AN      X      Y      Z        X      Y      Z        X      Y      Z
   1   6     0.14   0.01  -0.08    -0.36  -0.13   0.13    -0.24  -0.18   0.02
   2   6    -0.20   0.26  -0.01    -0.31   0.17  -0.16     0.06  -0.07  -0.26
   3   8     0.13   0.00   0.22    -0.00  -0.10  -0.00     0.49   0.00   0.40
   4   6    -0.20  -0.26  -0.01     0.31   0.17   0.16     0.06   0.07  -0.26
   5   6     0.14  -0.01  -0.08     0.36  -0.13  -0.13    -0.24   0.18   0.02
   6   1     0.20   0.18  -0.18    -0.10  -0.07   0.10    -0.15  -0.12   0.02
   7   1    -0.19   0.01   0.08    -0.14  -0.13  -0.01    -0.17  -0.13  -0.00
   8   1     0.19  -0.27   0.02    -0.08   0.01   0.11    -0.01   0.03   0.17
   9   1    -0.10   0.12  -0.13    -0.09   0.13  -0.17     0.02   0.01  -0.11
  10   1    -0.14   0.12   0.08    -0.17   0.11   0.05    -0.08  -0.04  -0.04
  11   1    -0.10  -0.12  -0.13     0.09   0.13   0.17     0.02  -0.01  -0.11
  12   1    -0.14  -0.12   0.08     0.17   0.11  -0.05    -0.08   0.04  -0.04
  13   1     0.20  -0.18  -0.18     0.10  -0.07  -0.10    -0.15   0.12   0.02
  14   1    -0.19  -0.01   0.08     0.14  -0.13   0.01    -0.17   0.13  -0.01
  15   1     0.19   0.27   0.02     0.08   0.01  -0.11    -0.01  -0.03   0.17
                      7                      8                      9
                        a                      a                      a 
 Frequencies --   480.0829               807.8787               817.2720
 Red. masses --     9.0837                 2.1508                 5.4913
 Frc consts  --     0.0000                 0.0000                 0.0000
 IR Inten    --     6.5514                 9.4203                22.0830
 Raman Activ --     0.0000                 0.0000                 0.0000
 Depolar     --     0.0000                 0.0000                 0.0000
 Atom AN      X      Y      Z        X      Y      Z        X      Y      Z
   1   6    -0.11  -0.16  -0.04    -0.03   0.08  -0.01     0.16   0.06   0.03
   2   6     0.19  -0.04  -0.30    -0.10   0.17  -0.06     0.28  -0.04  -0.23
   3   8    -0.00   0.54  -0.00     0.02   0.00   0.06     0.00  -0.25   0.00
   4   6    -0.19  -0.04   0.30    -0.10  -0.17  -0.06    -0.28  -0.04   0.23
   5   6     0.11  -0.16   0.04    -0.03  -0.08  -0.01    -0.16   0.06  -0.03
   6   1    -0.13  -0.12   0.01     0.22   0.06   0.23    -0.20  -0.08  -0.13
   7   1    -0.11  -0.12  -0.03    -0.07  -0.24  -0.16    -0.01   0.13   0.11
   8   1     0.01   0.06   0.13     0.05  -0.09   0.02     0.06   0.19   0.16
   9   1     0.02  -0.14   0.07     0.14  -0.03   0.32    -0.04   0.06  -0.31
  10   1     0.18  -0.08  -0.21     0.06  -0.22  -0.27    -0.04   0.15   0.14
  11   1    -0.02  -0.14  -0.07     0.14   0.03   0.32     0.04   0.06   0.31
  12   1    -0.18  -0.08   0.21     0.06   0.22  -0.27     0.04   0.15  -0.14
  13   1     0.13  -0.12  -0.01     0.22  -0.06   0.23     0.20  -0.08   0.13
  14   1     0.11  -0.12   0.03    -0.07   0.24  -0.16     0.01   0.13  -0.11
  15   1    -0.01   0.06  -0.13     0.05   0.09   0.02    -0.06   0.19  -0.16
                     10                     11                     12
                        a                      a                      a 
 Frequencies --   864.7834               935.9623              1047.6726
 Red. masses --     6.3261                 8.1917                 7.9533
 Frc consts  --     0.0000                 0.0000                 0.0000
 IR Inten    --     3.9967                12.3494                26.8719
 Raman Activ --     0.0000                 0.0000                 0.0000
 Depolar     --     0.0000                 0.0000                 0.0000
 Atom AN      X      Y      Z        X      Y      Z        X      Y      Z
   1   6    -0.10  -0.20  -0.01    -0.27  -0.20  -0.03     0.25   0.17   0.11
   2   6    -0.08  -0.12   0.22    -0.03  -0.00   0.22    -0.38  -0.23  -0.02
   3   8    -0.00   0.42  -0.00     0.44  -0.00  -0.21    -0.00   0.16  -0.00
   4   6     0.08  -0.12  -0.22    -0.03   0.00   0.22     0.38  -0.22   0.02
   5   6     0.10  -0.20   0.01    -0.27   0.20  -0.03    -0.25   0.17  -0.11
   6   1    -0.15  -0.04  -0.20     0.09   0.07  -0.03    -0.06  -0.04   0.04
   7   1     0.11   0.22   0.13     0.10   0.03  -0.02    -0.04   0.02   0.06
   8   1    -0.14  -0.02  -0.15    -0.18  -0.22  -0.29     0.12   0.16   0.21
   9   1    -0.18  -0.06  -0.10     0.11   0.09   0.04    -0.20  -0.17   0.03
  10   1     0.05   0.17   0.17     0.05   0.04   0.04    -0.10  -0.11  -0.05
  11   1     0.18  -0.06   0.10     0.11  -0.09   0.04     0.20  -0.17  -0.03
  12   1    -0.05   0.17  -0.17     0.05  -0.04   0.04     0.10  -0.11   0.05
  13   1     0.15  -0.04   0.20     0.09  -0.07  -0.03     0.06  -0.04  -0.04
  14   1    -0.11   0.22  -0.13     0.10  -0.03  -0.02     0.04   0.02  -0.06
  15   1     0.14  -0.02   0.15    -0.18   0.22  -0.29    -0.12   0.16  -0.21
                     13                     14                     15
                        a                      a                      a 
 Frequencies --  1067.9750              1082.4206              1109.5941
 Red. masses --     9.2836                 6.9913                 8.8690
 Frc consts  --     0.0000                 0.0000                 0.0000
 IR Inten    --    36.4016                 0.0636               126.6770
 Raman Activ --     0.0000                 0.0000                 0.0000
 Depolar     --     0.0000                 0.0000                 0.0000
 Atom AN      X      Y      Z        X      Y      Z        X      Y      Z
   1   6     0.08   0.15   0.33    -0.01   0.04   0.34    -0.08  -0.13   0.14
   2   6    -0.24  -0.29  -0.27    -0.06  -0.08  -0.38     0.18   0.26  -0.27
   3   8     0.18  -0.00  -0.05    -0.00  -0.01   0.00    -0.28   0.00   0.36
   4   6    -0.24   0.29  -0.27     0.06  -0.08   0.38     0.18  -0.26  -0.27
   5   6     0.08  -0.15   0.33     0.01   0.04  -0.34    -0.08   0.13   0.14
   6   1     0.16   0.13   0.09     0.15   0.14   0.02     0.02   0.05  -0.08
   7   1     0.15   0.11   0.08     0.23   0.17   0.11     0.16   0.14   0.08
   8   1    -0.04  -0.05  -0.09    -0.12  -0.12  -0.20    -0.13  -0.08  -0.19
   9   1    -0.01  -0.01  -0.11     0.02  -0.03  -0.04    -0.03  -0.06   0.05
  10   1    -0.07  -0.06  -0.06     0.07   0.02  -0.12     0.18   0.10  -0.10
  11   1    -0.01   0.01  -0.11    -0.02  -0.03   0.04    -0.03   0.06   0.05
  12   1    -0.07   0.06  -0.06    -0.07   0.02   0.12     0.18  -0.10  -0.10
  13   1     0.16  -0.13   0.09    -0.15   0.14  -0.02     0.02  -0.05  -0.08
  14   1     0.15  -0.11   0.08    -0.23   0.17  -0.11     0.16  -0.14   0.08
  15   1    -0.04   0.05  -0.09     0.12  -0.12   0.20    -0.13   0.08  -0.19
                     16                     17                     18
                        a                      a                      a 
 Frequencies --  1123.4665              1181.0222              1251.5783
 Red. masses --     6.3866                 6.6618                 2.3248
 Frc consts  --     0.0000                 0.0000                 0.0000
 IR Inten    --    48.5865                17.2929                 1.9476
 Raman Activ --     0.0000                 0.0000                 0.0000
 Depolar     --     0.0000                 0.0000                 0.0000
 Atom AN      X      Y      Z        X      Y      Z        X      Y      Z
   1   6     0.16  -0.13   0.02     0.15  -0.21  -0.01    -0.12   0.16  -0.03
   2   6    -0.31   0.14   0.03    -0.18   0.33  -0.02     0.04  -0.08   0.03
   3   8     0.33  -0.00  -0.12     0.00  -0.28   0.00     0.13   0.00  -0.00
   4   6    -0.31  -0.14   0.03     0.18   0.33   0.02     0.04   0.08   0.03
   5   6     0.16   0.13   0.02    -0.15  -0.21   0.01    -0.12  -0.16  -0.03
   6   1    -0.18  -0.10  -0.15    -0.19  -0.11  -0.19     0.10   0.06   0.12
   7   1     0.03   0.13   0.13     0.05   0.16   0.14    -0.05  -0.12  -0.11
   8   1    -0.00   0.14   0.06    -0.03   0.11   0.01     0.02  -0.05   0.01
   9   1    -0.15  -0.16   0.21     0.05   0.01   0.24    -0.37  -0.28  -0.07
  10   1     0.17  -0.01  -0.17     0.13  -0.04  -0.19     0.30   0.25   0.06
  11   1    -0.15   0.16   0.21    -0.05   0.01  -0.24    -0.37   0.28  -0.07
  12   1     0.17   0.01  -0.17    -0.13  -0.04   0.19     0.30  -0.25   0.06
  13   1    -0.18   0.10  -0.15     0.19  -0.11   0.19     0.10  -0.06   0.12
  14   1     0.03  -0.13   0.13    -0.05   0.16  -0.14    -0.05   0.12  -0.11
  15   1    -0.00  -0.14   0.06     0.03   0.11  -0.01     0.02   0.05   0.01
                     19                     20                     21
                        a                      a                      a 
 Frequencies --  1280.1066              1326.5190              1327.3851
 Red. masses --     2.5907                 3.5968                 3.0854
 Frc consts  --     0.0000                 0.0000                 0.0000
 IR Inten    --     1.9665                22.7439                23.3243
 Raman Activ --     0.0000                 0.0000                 0.0000
 Depolar     --     0.0000                 0.0000                 0.0000
 Atom AN      X      Y      Z        X      Y      Z        X      Y      Z
   1   6    -0.05   0.12  -0.06    -0.03   0.00   0.10    -0.00   0.01   0.11
   2   6    -0.03   0.04   0.00     0.22   0.23   0.02     0.19   0.15   0.04
   3   8     0.00  -0.27   0.00    -0.00  -0.09   0.00     0.07  -0.00  -0.16
   4   6     0.03   0.04  -0.00    -0.22   0.23  -0.02     0.19  -0.15   0.04
   5   6     0.05   0.12   0.06     0.03   0.00  -0.10    -0.00  -0.01   0.11
   6   1     0.05   0.02   0.09    -0.04   0.02  -0.06    -0.04   0.01  -0.05
   7   1    -0.06  -0.07  -0.07     0.02  -0.05  -0.03     0.01  -0.04  -0.01
   8   1     0.03  -0.03   0.02    -0.06  -0.06  -0.10    -0.06  -0.07  -0.12
   9   1    -0.29  -0.23   0.03    -0.38  -0.29   0.01    -0.32  -0.25  -0.01
  10   1     0.43   0.31  -0.00    -0.27  -0.22  -0.03    -0.37  -0.29  -0.02
  11   1     0.29  -0.23  -0.03     0.38  -0.29  -0.01    -0.32   0.25  -0.01
  12   1    -0.43   0.31   0.00     0.27  -0.22   0.03    -0.37   0.29  -0.02
  13   1    -0.05   0.02  -0.09     0.04   0.02   0.06    -0.04  -0.01  -0.05
  14   1     0.06  -0.07   0.07    -0.02  -0.05   0.03     0.01   0.04  -0.01
  15   1    -0.03  -0.03  -0.02     0.06  -0.06   0.10    -0.06   0.07  -0.12
                     22                     23                     24
                        a                      a                      a 
 Frequencies --  1393.4596              1393.8636              1460.5952
 Red. masses --     3.1542                 3.1401                 1.8735
 Frc consts  --     0.0000                 0.0000                 0.0000
 IR Inten    --     5.7164                13.7650                 1.0400
 Raman Activ --     0.0000                 0.0000                 0.0000
 Depolar     --     0.0000                 0.0000                 0.0000
 Atom AN      X      Y      Z        X      Y      Z        X      Y      Z
   1   6     0.20   0.16   0.16     0.19   0.16   0.17    -0.00  -0.05   0.02
   2   6    -0.05  -0.05   0.02    -0.05  -0.04  -0.01     0.00   0.03   0.18
   3   8    -0.00   0.01   0.00    -0.03  -0.00   0.04    -0.04   0.00   0.05
   4   6     0.05  -0.05  -0.02    -0.05   0.04  -0.01     0.00  -0.03   0.18
   5   6    -0.20   0.16  -0.16     0.19  -0.16   0.17    -0.00   0.05   0.02
   6   1    -0.28  -0.11  -0.14    -0.28  -0.10  -0.17     0.09   0.09  -0.07
   7   1    -0.23  -0.27  -0.09    -0.22  -0.29  -0.11    -0.04  -0.04  -0.01
   8   1    -0.12  -0.13  -0.32    -0.12  -0.12  -0.31    -0.07   0.15   0.01
   9   1     0.05   0.09  -0.08     0.07   0.06  -0.02    -0.11   0.17  -0.41
  10   1     0.09   0.00  -0.05     0.09   0.05  -0.01     0.22  -0.24  -0.31
  11   1    -0.05   0.09   0.08     0.07  -0.07  -0.02    -0.11  -0.17  -0.41
  12   1    -0.09   0.00   0.05     0.09  -0.05  -0.01     0.22   0.24  -0.31
  13   1     0.28  -0.11   0.14    -0.28   0.10  -0.17     0.09  -0.09  -0.07
  14   1     0.23  -0.27   0.09    -0.22   0.29  -0.11    -0.04   0.04  -0.01
  15   1     0.12  -0.13   0.32    -0.12   0.12  -0.31    -0.07  -0.15   0.01
                     25                     26                     27
                        a                      a                      a 
 Frequencies --  1461.8945              1483.9029              1486.6557
 Red. masses --     1.7666                 1.5677                 1.5637
 Frc consts  --     0.0000                 0.0000                 0.0000
 IR Inten    --     0.0235                 3.4967                 3.3332
 Raman Activ --     0.0000                 0.0000                 0.0000
 Depolar     --     0.0000                 0.0000                 0.0000
 Atom AN      X      Y      Z        X      Y      Z        X      Y      Z
   1   6    -0.05   0.03  -0.04    -0.10   0.10   0.04    -0.08   0.12   0.03
   2   6    -0.01   0.04   0.17    -0.03   0.02   0.03    -0.02   0.00  -0.06
   3   8    -0.00  -0.01   0.00    -0.01   0.00   0.01     0.00   0.01  -0.00
   4   6     0.01   0.04  -0.17    -0.03  -0.02   0.03     0.02   0.00   0.06
   5   6     0.05   0.03   0.04    -0.10  -0.10   0.04     0.08   0.12  -0.03
   6   1    -0.05  -0.08   0.11    -0.22  -0.07  -0.13    -0.25  -0.11  -0.10
   7   1     0.12   0.10   0.02     0.40  -0.04  -0.20     0.35  -0.03  -0.18
   8   1     0.11  -0.16   0.06     0.24  -0.31   0.18     0.24  -0.34   0.14
   9   1    -0.11   0.16  -0.39    -0.00   0.05  -0.07     0.05  -0.03   0.14
  10   1     0.19  -0.25  -0.31     0.05  -0.06  -0.08    -0.06   0.09   0.10
  11   1     0.11   0.16   0.39    -0.00  -0.05  -0.07    -0.05  -0.03  -0.14
  12   1    -0.19  -0.25   0.31     0.05   0.06  -0.08     0.06   0.09  -0.10
  13   1     0.05  -0.08  -0.11    -0.22   0.07  -0.13     0.25  -0.11   0.10
  14   1    -0.12   0.10  -0.02     0.40   0.04  -0.20    -0.35  -0.03   0.18
  15   1    -0.11  -0.16  -0.06     0.24   0.31   0.18    -0.24  -0.34  -0.14
                     28                     29                     30
                        a                      a                      a 
 Frequencies --  1493.8918              1496.3747              2888.2814
 Red. masses --     1.5365                 1.6098                 1.7577
 Frc consts  --     0.0000                 0.0000                 0.0000
 IR Inten    --     1.7606                 0.5868               120.9521
 Raman Activ --     0.0000                 0.0000                 0.0000
 Depolar     --     0.0000                 0.0000                 0.0000
 Atom AN      X      Y      Z        X      Y      Z        X      Y      Z
   1   6     0.04   0.08  -0.12    -0.06  -0.06   0.12     0.00   0.00  -0.00
   2   6     0.01   0.03   0.03    -0.03  -0.02   0.06     0.09  -0.12   0.11
   3   8    -0.01   0.00   0.02    -0.00  -0.00   0.00    -0.01   0.00   0.01
   4   6     0.01  -0.03   0.03     0.03  -0.02  -0.06     0.09   0.12   0.11
   5   6     0.04  -0.08  -0.12     0.06  -0.06  -0.12     0.00  -0.00  -0.00
   6   1    -0.13  -0.27   0.39     0.10   0.26  -0.40     0.00  -0.00  -0.00
   7   1    -0.12   0.23   0.21     0.18  -0.23  -0.24     0.01  -0.01   0.02
   8   1     0.06  -0.27  -0.11    -0.02   0.22   0.14    -0.00  -0.00   0.00
   9   1    -0.03   0.04  -0.10    -0.01   0.05  -0.10    -0.03   0.04   0.06
  10   1     0.06  -0.07  -0.10     0.09  -0.04  -0.07    -0.27   0.39  -0.48
  11   1    -0.03  -0.04  -0.10     0.01   0.05   0.10    -0.03  -0.04   0.06
  12   1     0.06   0.07  -0.10    -0.09  -0.04   0.07    -0.27  -0.40  -0.48
  13   1    -0.13   0.27   0.39    -0.10   0.26   0.40     0.00   0.00  -0.00
  14   1    -0.12  -0.23   0.21    -0.18  -0.23   0.24     0.01   0.01   0.02
  15   1     0.06   0.27  -0.11     0.02   0.22  -0.14    -0.00   0.00   0.00
                     31                     32                     33
                        a                      a                      a 
 Frequencies --  2890.4481              2965.4700              2966.0023
 Red. masses --     1.7527                 1.6666                 1.6606
 Frc consts  --     0.0000                 0.0000                 0.0000
 IR Inten    --    47.7686                32.5939                65.0620
 Raman Activ --     0.0000                 0.0000                 0.0000
 Depolar     --     0.0000                 0.0000                 0.0000
 Atom AN      X      Y      Z        X      Y      Z        X      Y      Z
   1   6     0.00  -0.01   0.00    -0.01   0.00   0.00    -0.01   0.01   0.00
   2   6    -0.09   0.11  -0.12     0.09  -0.12  -0.09     0.09  -0.12  -0.09
   3   8     0.00   0.02  -0.00     0.00   0.00  -0.00     0.02  -0.00  -0.01
   4   6     0.09   0.11   0.11    -0.09  -0.12   0.08     0.09   0.12  -0.09
   5   6    -0.00  -0.01  -0.00     0.01   0.00  -0.00    -0.01  -0.01   0.00
   6   1    -0.01   0.02   0.01     0.02  -0.04  -0.02     0.02  -0.04  -0.02
   7   1    -0.01   0.01  -0.02    -0.00  -0.00   0.00     0.00  -0.00   0.01
   8   1     0.01   0.00  -0.01     0.02   0.01  -0.01     0.02   0.01  -0.01
   9   1     0.03  -0.03  -0.05    -0.39   0.48   0.28    -0.38   0.48   0.28
  10   1     0.27  -0.39   0.48     0.04  -0.06   0.04     0.05  -0.07   0.05
  11   1    -0.03  -0.03   0.05     0.38   0.48  -0.28    -0.39  -0.48   0.28
  12   1    -0.27  -0.39  -0.48    -0.04  -0.06  -0.04     0.05   0.07   0.05
  13   1     0.01   0.02  -0.01    -0.02  -0.04   0.02     0.02   0.04  -0.02
  14   1     0.01   0.01   0.02     0.00  -0.00  -0.00     0.00   0.00   0.01
  15   1    -0.01   0.00   0.01    -0.01   0.01   0.01     0.02  -0.01  -0.01
                     34                     35                     36
                        a                      a                      a 
 Frequencies --  3036.9064              3037.0850              3041.8766
 Red. masses --     1.9290                 1.9276                 1.6183
 Frc consts  --     0.0000                 0.0000                 0.0000
 IR Inten    --    75.4995                43.8263                 1.5041
 Raman Activ --     0.0000                 0.0000                 0.0000
 Depolar     --     0.0000                 0.0000                 0.0000
 Atom AN      X      Y      Z        X      Y      Z        X      Y      Z
   1   6    -0.13   0.16   0.01    -0.13   0.15   0.02    -0.00  -0.04   0.16
   2   6    -0.01   0.02   0.00    -0.01   0.01   0.01     0.00  -0.00   0.01
   3   8    -0.00   0.00   0.00    -0.00  -0.00   0.00     0.00   0.00  -0.00
   4   6     0.01   0.02  -0.00    -0.01  -0.01   0.01    -0.00  -0.00  -0.01
   5   6     0.12   0.16  -0.01    -0.13  -0.16   0.02     0.00  -0.04  -0.16
   6   1     0.33  -0.48  -0.23     0.32  -0.46  -0.22     0.15  -0.23  -0.08
   7   1     0.08  -0.15   0.23     0.06  -0.13   0.20    -0.20   0.36  -0.46
   8   1     0.05   0.05  -0.04     0.06   0.06  -0.05     0.07   0.02  -0.03
   9   1     0.03  -0.03  -0.02     0.03  -0.03  -0.02     0.01  -0.01  -0.01
  10   1     0.01  -0.01   0.02     0.00  -0.00   0.00    -0.01   0.01  -0.01
  11   1    -0.03  -0.03   0.02     0.03   0.04  -0.02    -0.01  -0.01   0.01
  12   1    -0.01  -0.01  -0.02     0.00   0.00   0.00     0.01   0.01   0.01
  13   1    -0.31  -0.45   0.22     0.33   0.48  -0.23    -0.15  -0.23   0.08
  14   1    -0.07  -0.14  -0.22     0.07   0.14   0.21     0.20   0.36   0.46
  15   1    -0.05   0.05   0.04     0.07  -0.06  -0.05    -0.07   0.02   0.03
                     37                     38                     39
                        a                      a                      a 
 Frequencies --  3042.0161              3053.0642              3053.5322
 Red. masses --     1.6290                 1.6093                 1.5988
 Frc consts  --     0.0000                 0.0000                 0.0000
 IR Inten    --    75.5037                14.6120                45.7206
 Raman Activ --     0.0000                 0.0000                 0.0000
 Depolar     --     0.0000                 0.0000                 0.0000
 Atom AN      X      Y      Z        X      Y      Z        X      Y      Z
   1   6     0.00   0.05  -0.16     0.13   0.08  -0.07     0.12   0.08  -0.07
   2   6    -0.00   0.00  -0.01     0.00   0.00  -0.01     0.00  -0.00  -0.00
   3   8     0.00  -0.00   0.00    -0.00   0.00  -0.00     0.00   0.00   0.00
   4   6    -0.00  -0.00  -0.01    -0.00   0.00   0.01     0.00   0.00  -0.00
   5   6     0.00  -0.05  -0.16    -0.13   0.08   0.07     0.12  -0.08  -0.07
   6   1    -0.14   0.21   0.07     0.08  -0.08  -0.05     0.09  -0.09  -0.06
   7   1     0.21  -0.36   0.47     0.00   0.03  -0.05     0.00   0.03  -0.04
   8   1    -0.07  -0.02   0.03    -0.53  -0.23   0.35    -0.53  -0.23   0.35
   9   1    -0.01   0.01   0.00    -0.01   0.01   0.00    -0.01   0.01   0.01
  10   1     0.01  -0.02   0.02     0.01  -0.01   0.01     0.00  -0.00   0.00
  11   1    -0.01  -0.01   0.00     0.01   0.01  -0.00    -0.01  -0.01   0.01
  12   1     0.01   0.02   0.02    -0.01  -0.01  -0.01     0.00   0.00   0.00
  13   1    -0.14  -0.21   0.07    -0.08  -0.08   0.05     0.09   0.09  -0.06
  14   1     0.21   0.36   0.47    -0.00   0.03   0.05     0.00  -0.03  -0.04
  15   1    -0.07   0.02   0.03     0.53  -0.23  -0.35    -0.53   0.23   0.34
