      -----------------------------------------------------------      
     |                   =====================                   |     
     |                           x T B                           |     
     |                   =====================                   |     
     |                         S. Grimme                         |     
     |          Mulliken Center for Theoretical Chemistry        |     
     |                    University of Bonn                     |     
      -----------------------------------------------------------      

   * xtb version 6.7.1 (edcfbbe) compiled by 'albert@albert-system' on 2024-07-22

   xtb is free software: you can redistribute it and/or modify it under
   the terms of the GNU Lesser General Public License as published by
   the Free Software Foundation, either version 3 of the License, or
   (at your option) any later version.
   
   xtb is distributed in the hope that it will be useful,
   but WITHOUT ANY WARRANTY; without even the implied warranty of
   MERCHANTABILITY or FITNESS FOR A PARTICULAR PURPOSE.  See the
   GNU Lesser General Public License for more details.
   
   Cite this work as:
   * C. Bannwarth, E. Caldeweyher, S. Ehlert, A. Hansen, P. Pracht,
     J. Seibert, S. Spicher, S. Grimme, WIREs Comput. Mol. Sci., 2020, 11,
     e01493. DOI: 10.1002/wcms.1493
   
   for GFN2-xTB:
   * C. Bannwarth, S. Ehlert and S. Grimme., J. Chem. Theory Comput., 2019,
     15, 1652-1671. DOI: 10.1021/acs.jctc.8b01176
   for GFN1-xTB:
   * S. Grimme, C. Bannwarth, P. Shushkov, J. Chem. Theory Comput., 2017,
     13, 1989-2009. DOI: 10.1021/acs.jctc.7b00118
   for GFN0-xTB:
   * P. Pracht, E. Caldeweyher, S. Ehlert, S. Grimme, ChemRxiv, 2019, preprint.
     DOI: 10.26434/chemrxiv.8326202.v1
   for GFN-FF:
   * S. Spicher and S. Grimme, Angew. Chem. Int. Ed., 2020, 59, 15665-15673.
     DOI: 10.1002/anie.202004239
   
   for ALPB and GBSA implicit solvation:
   * S. Ehlert, M. Stahn, S. Spicher, S. Grimme, J. Chem. Theory Comput.,
     2021, 17, 4250-4261. DOI: 10.1021/acs.jctc.1c00471
   
   for ddCOSMO and CPCM-X implicit solvation:
   * M. Stahn, S. Ehlert, S. Grimme, J. Phys. Chem. A,
     2023, XX, XXXX-XXXX. DOI: 10.1021/acs.jpca.3c04382
   
   for DFT-D4:
   * E. Caldeweyher, C. Bannwarth and S. Grimme, J. Chem. Phys., 2017,
     147, 034112. DOI: 10.1063/1.4993215
   * E. Caldeweyher, S. Ehlert, A. Hansen, H. Neugebauer, S. Spicher,
     C. Bannwarth and S. Grimme, J. Chem. Phys., 2019, 150, 154122.
     DOI: 10.1063/1.5090222
   * E. Caldeweyher, J.-M. Mewes, S. Ehlert and S. Grimme, Phys. Chem. Chem. Phys.
     2020, 22, 8499-8512. DOI: 10.1039/D0CP00502A
   
   for sTDA-xTB:
   * S. Grimme and C. Bannwarth, J. Chem. Phys., 2016, 145, 054103.
     DOI: 10.1063/1.4959605
   
   in the mass-spec context:
   * V. Asgeirsson, C. Bauer and S. Grimme, Chem. Sci., 2017, 8, 4879.
     DOI: 10.1039/c7sc00601b
   * J. Koopman and S. Grimme, ACS Omega 2019, 4, 12, 15120-15133.
     DOI: 10.1021/acsomega.9b02011
   
   for metadynamics refer to:
   * S. Grimme, J. Chem. Theory Comput., 2019, 155, 2847-2862
     DOI: 10.1021/acs.jctc.9b00143
   
   for SPH calculations refer to:
   * S. Spicher and S. Grimme, J. Chem. Theory Comput., 2021, 17, 1701-1714
     DOI: 10.1021/acs.jctc.0c01306
   
   for ONIOM refer to:
   * C. Plett, A. Katbashev, S. Ehlert, S. Grimme, M. Bursch,
     Phys. Chem. Chem. Phys., 2023, 25, 17860-17868. DOI: 10.1039/D3CP02178E
   
   for DIPRO refer to:
   * J. Kohn, N. Gildemeister, S. Grimme, D. Fazzi, A. Hansen,
     J. Chem. Phys., 2023, just accepted.
   
   for PTB refer to:
   * S. Grimme, M. Mueller, A. Hansen, J. Chem. Phys., 2023, 158, 124111.
     DOI: 10.1063/5.0137838
   
   with help from (in alphabetical order)
   P. Atkinson, C. Bannwarth, F. Bohle, G. Brandenburg, E. Caldeweyher
   M. Checinski, S. Dohm, S. Ehlert, S. Ehrlich, I. Gerasimov, C. Hölzer
   A. Katbashev, J. Kohn, J. Koopman, C. Lavigne, S. Lehtola, F. März, M. Müller,
   F. Musil, H. Neugebauer, J. Pisarek, C. Plett, P. Pracht, F. Pultar,
   J. Seibert, P. Shushkov, S. Spicher, M. Stahn, M. Steiner, T. Strunk,
   J. Stückrath, T. Rose, and J. Unsleber
   
 * started run on 2025/04/07 at 02:45:59.774     
   ID    Z sym.   atoms
    1    6 C      1, 2, 4, 5
    2    8 O      3
    3    1 H      6-15

           -------------------------------------------------
          |                Calculation Setup                |
           -------------------------------------------------

          program call               : /srv/scratch/z5358697/.xtb/bin/xtb xtb_rrho.coord --gfn2 --bhess vtight --chrg 0 --enso --norestart -I rrho-xcontrol-inp --parallel 1 --alpb water
          hostname                   : k140
          coordinate file            : xtb_rrho.coord
          omp threads                :                     1


           -------------------------------------------------
          |                 G F N 2 - x T B                 |
           -------------------------------------------------

        Reference                      10.1021/acs.jctc.8b01176
      * Hamiltonian:
        H0-scaling (s, p, d)           1.850000    2.230000    2.230000
        zeta-weighting                 0.500000
      * Dispersion:
        s8                             2.700000
        a1                             0.520000
        a2                             5.000000
        s9                             5.000000
      * Repulsion:
        kExp                           1.500000    1.000000
        rExp                           1.000000
      * Coulomb:
        alpha                          2.000000
        third order                    shell-resolved
        anisotropic                    true
        a3                             3.000000
        a5                             4.000000
        cn-shift                       1.200000
        cn-exp                         4.000000
        max-rad                        5.000000

      * Solvation model:               ALPB
        Solvent                        water
        Parameter file                 internal GFN2-xTB/ALPB
        Dielectric constant                8.0200E+01
        Reference state                gsolv [1 M gas/solution]
        Free energy shift                  1.0808E-03 Eh       6.7819E-01 kcal/mol
        Temperature                        2.9815E+02 K
        Density                            1.0000E+00 kg/L
        Solvent mass                       1.8000E+01 g/mol
        Interaction kernel             P16
        Born radius scaling (c1)           1.4744E+00
        Born radii integrator          GBOBC
        Born offset                        0.0000E+00 a0       0.0000E+00 AA
        H-bond correction              true
        Ion screening                  false
        Surface tension                    1.0000E-05 Eh       1.5569E+01 dyn/cm
        Grid points                               974 per atom

          ...................................................
          :                      SETUP                      :
          :.................................................:
          :  # basis functions                  30          :
          :  # atomic orbitals                  30          :
          :  # shells                           20          :
          :  # electrons                        32          :
          :  max. iterations                   250          :
          :  Hamiltonian                  GFN2-xTB          :
          :  restarted?                      false          :
          :  GBSA solvation                   true          :
          :  PC potential                    false          :
          :  electronic temp.          300.0000000     K    :
          :  accuracy                    1.0000000          :
          :  -> integral cutoff          0.2500000E+02      :
          :  -> integral neglect         0.1000000E-07      :
          :  -> SCF convergence          0.1000000E-05 Eh   :
          :  -> wf. convergence          0.1000000E-03 e    :
          :  Broyden damping             0.4000000          :
          :  net charge                          0          :
          :  unpaired electrons                  0          :
          ...................................................

 iter      E             dE          RMSdq      gap      omega  full diag
   1    -17.8839101 -0.178839E+02  0.353E+00   11.34       0.0  T
   2    -17.9230304 -0.391203E-01  0.170E+00   10.92       1.0  T
   3    -17.9236691 -0.638691E-03  0.713E-01   10.98       1.0  T
   4    -17.9238220 -0.152850E-03  0.114E-01   11.00       1.0  T
   5    -17.9238376 -0.156209E-04  0.615E-02   11.02       1.0  T
   6    -17.9238388 -0.116810E-05  0.732E-03   11.02       3.5  T
   7    -17.9238389 -0.142914E-06  0.236E-03   11.02      10.9  T
   8    -17.9238389 -0.489052E-08  0.109E-03   11.02      23.8  T
   9    -17.9238389 -0.366787E-08  0.150E-04   11.02     172.0  T
  10    -17.9238389  0.631424E-10  0.106E-04   11.02     242.9  T

   *** convergence criteria satisfied after 10 iterations ***

         #    Occupation            Energy/Eh            Energy/eV
      -------------------------------------------------------------
         1        2.0000           -0.6923241             -18.8391
       ...           ...                  ...                  ...
        10        2.0000           -0.4899418             -13.3320
        11        2.0000           -0.4688021             -12.7568
        12        2.0000           -0.4601093             -12.5202
        13        2.0000           -0.4591644             -12.4945
        14        2.0000           -0.4438894             -12.0788
        15        2.0000           -0.4277044             -11.6384
        16        2.0000           -0.3996212             -10.8742 (HOMO)
        17                          0.0054563               0.1485 (LUMO)
        18                          0.0722101               1.9649
        19                          0.1144145               3.1134
        20                          0.1209004               3.2899
        21                          0.1249827               3.4010
       ...                                ...                  ...
        30                          0.2839585               7.7269
      -------------------------------------------------------------
                  HL-Gap            0.4050775 Eh           11.0227 eV
             Fermi-level           -0.1970824 Eh           -5.3629 eV

 SCC (total)                   0 d,  0 h,  0 min,  0.014 sec
 SCC setup                      ...        0 min,  0.001 sec (  4.960%)
 Dispersion                     ...        0 min,  0.000 sec (  0.383%)
 classical contributions        ...        0 min,  0.000 sec (  0.088%)
 integral evaluation            ...        0 min,  0.001 sec (  5.026%)
 iterations                     ...        0 min,  0.010 sec ( 74.839%)
 molecular gradient             ...        0 min,  0.002 sec ( 13.962%)
 printout                       ...        0 min,  0.000 sec (  0.673%)

         :::::::::::::::::::::::::::::::::::::::::::::::::::::
         ::                     SUMMARY                     ::
         :::::::::::::::::::::::::::::::::::::::::::::::::::::
         :: total energy             -17.721486657412 Eh    ::
         :: total w/o Gsasa/hb       -17.721847870701 Eh    ::
         :: gradient norm              0.026395853811 Eh/a0 ::
         :: HOMO-LUMO gap             11.022720973309 eV    ::
         ::.................................................::
         :: SCC energy               -17.923826554578 Eh    ::
         :: -> isotropic ES            0.027519000884 Eh    ::
         :: -> anisotropic ES          0.003965329298 Eh    ::
         :: -> anisotropic XC          0.006720170293 Eh    ::
         :: -> dispersion             -0.007254876970 Eh    ::
         :: -> Gsolv                  -0.003541110229 Eh    ::
         ::    -> Gelec               -0.003902323518 Eh    ::
         ::    -> Gsasa                0.000243985407 Eh    ::
         ::    -> Ghb                 -0.000963531816 Eh    ::
         ::    -> Gshift               0.001080759698 Eh    ::
         :: repulsion energy           0.202339897166 Eh    ::
         :: add. restraining           0.000000000000 Eh    ::
         :: total charge              -0.000000000000 e     ::
         :::::::::::::::::::::::::::::::::::::::::::::::::::::

metadynamics with 1 initial structures loaded
           -------------------------------------------------
          |           Optimal kpush determination           |
           -------------------------------------------------
      ----------------------------------------------------------- 
     |                   =====================                   |
     |                        A N C O P T                        |
     |                   =====================                   |
     |               Approximate Normal Coordinate               |
     |                Rational Function Optimizer                |
      ----------------------------------------------------------- 
target rmsd / Å         0.100000
unbiased initial rmsd   0.130239
 
iter. min.        max.        rmsd       kpush
      ----------------------------------------------------------- 
     |                   =====================                   |
     |                        A N C O P T                        |
     |                   =====================                   |
     |               Approximate Normal Coordinate               |
     |                Rational Function Optimizer                |
      ----------------------------------------------------------- 
 1    0.000000    0.681818    0.010769   -0.340909
      ----------------------------------------------------------- 
     |                   =====================                   |
     |                        A N C O P T                        |
     |                   =====================                   |
     |               Approximate Normal Coordinate               |
     |                Rational Function Optimizer                |
      ----------------------------------------------------------- 
 2    0.000000    0.340909    0.013398   -0.170455
      ----------------------------------------------------------- 
     |                   =====================                   |
     |                        A N C O P T                        |
     |                   =====================                   |
     |               Approximate Normal Coordinate               |
     |                Rational Function Optimizer                |
      ----------------------------------------------------------- 
 3    0.000000    0.170455    0.016499   -0.085227
      ----------------------------------------------------------- 
     |                   =====================                   |
     |                        A N C O P T                        |
     |                   =====================                   |
     |               Approximate Normal Coordinate               |
     |                Rational Function Optimizer                |
      ----------------------------------------------------------- 
 4    0.000000    0.085227    0.020714   -0.042614
      ----------------------------------------------------------- 
     |                   =====================                   |
     |                        A N C O P T                        |
     |                   =====================                   |
     |               Approximate Normal Coordinate               |
     |                Rational Function Optimizer                |
      ----------------------------------------------------------- 
 5    0.000000    0.042614    0.026794   -0.021307
      ----------------------------------------------------------- 
     |                   =====================                   |
     |                        A N C O P T                        |
     |                   =====================                   |
     |               Approximate Normal Coordinate               |
     |                Rational Function Optimizer                |
      ----------------------------------------------------------- 
 6    0.000000    0.021307    0.035042   -0.010653
      ----------------------------------------------------------- 
     |                   =====================                   |
     |                        A N C O P T                        |
     |                   =====================                   |
     |               Approximate Normal Coordinate               |
     |                Rational Function Optimizer                |
      ----------------------------------------------------------- 
 7    0.000000    0.010653    0.044873   -0.005327
      ----------------------------------------------------------- 
     |                   =====================                   |
     |                        A N C O P T                        |
     |                   =====================                   |
     |               Approximate Normal Coordinate               |
     |                Rational Function Optimizer                |
      ----------------------------------------------------------- 
 8    0.000000    0.005327    0.057196   -0.002663
      ----------------------------------------------------------- 
     |                   =====================                   |
     |                        A N C O P T                        |
     |                   =====================                   |
     |               Approximate Normal Coordinate               |
     |                Rational Function Optimizer                |
      ----------------------------------------------------------- 
 9    0.000000    0.002663    0.070719   -0.001332
      ----------------------------------------------------------- 
     |                   =====================                   |
     |                        A N C O P T                        |
     |                   =====================                   |
     |               Approximate Normal Coordinate               |
     |                Rational Function Optimizer                |
      ----------------------------------------------------------- 
10    0.000000    0.001332    0.086059   -0.000666
final kpush: -0.000666
           -------------------------------------------------
          |            Biased Numerical Hessian             |
           -------------------------------------------------
kpush                :  -0.00067
alpha                :   1.00000
step length          :   0.00500
SCC accuracy         :   0.30000
Hessian scale factor :   1.00000
frozen atoms in %    :   0.00000    0
RMS gradient         :   0.00002
estimated CPU  time      0.01 min
estimated wall time      0.01 min

writing file <hessian>.

 projected vibrational frequencies (cm⁻¹)
eigval :       -0.00    -0.00    -0.00    -0.00     0.00     0.00
eigval :       48.16   134.99   208.10   270.68   288.67   436.61
eigval :      480.08   807.88   817.27   864.78   935.96  1047.67
eigval :     1067.98  1082.42  1109.59  1123.47  1181.02  1251.58
eigval :     1280.11  1326.52  1327.39  1393.46  1393.86  1460.60
eigval :     1461.89  1483.90  1486.66  1493.89  1496.37  2888.28
eigval :     2890.45  2965.47  2966.00  3036.91  3037.08  3041.88
eigval :     3042.02  3053.06  3053.53
           -------------------------------------------------
          |                Property Printout                |
           -------------------------------------------------

    * Orbital Energies and Occupations

         #    Occupation            Energy/Eh            Energy/eV
      -------------------------------------------------------------
         1        2.0000           -0.6966564             -18.9570
       ...           ...                  ...                  ...
         4        2.0000           -0.5962925             -16.2259
         5        2.0000           -0.5644503             -15.3595
         6        2.0000           -0.5491784             -14.9439
         7        2.0000           -0.5458722             -14.8539
         8        2.0000           -0.5167572             -14.0617
         9        2.0000           -0.4970819             -13.5263
        10        2.0000           -0.4918932             -13.3851
        11        2.0000           -0.4681891             -12.7401
        12        2.0000           -0.4614259             -12.5560
        13        2.0000           -0.4603061             -12.5256
        14        2.0000           -0.4437848             -12.0760
        15        2.0000           -0.4265225             -11.6063
        16        2.0000           -0.3986432             -10.8476 (HOMO)
        17                          0.0235487               0.6408 (LUMO)
        18                          0.0861981               2.3456
        19                          0.1186025               3.2273
        20                          0.1232953               3.3550
        21                          0.1236278               3.3641
        22                          0.1493158               4.0631
        23                          0.1680268               4.5722
        24                          0.1950835               5.3085
        25                          0.2006925               5.4611
        26                          0.2087634               5.6807
        27                          0.2476586               6.7391
       ...                                ...                  ...
        30                          0.2995228               8.1504
      -------------------------------------------------------------
                  HL-Gap            0.4221919 Eh           11.4884 eV
             Fermi-level           -0.1875472 Eh           -5.1034 eV

     #   Z          covCN         q      C6AA      α(0)
     1   6 C        3.750    -0.125    22.969     6.835
     2   6 C        3.685     0.077    19.484     6.320
     3   8 O        1.698    -0.371    20.272     6.079
     4   6 C        3.685     0.077    19.484     6.320
     5   6 C        3.750    -0.125    22.969     6.835
     6   1 H        0.925     0.047     2.354     2.399
     7   1 H        0.925     0.051     2.306     2.375
     8   1 H        0.925     0.054     2.273     2.358
     9   1 H        0.924     0.052     2.300     2.372
    10   1 H        0.924     0.030     2.593     2.518
    11   1 H        0.924     0.052     2.300     2.372
    12   1 H        0.924     0.030     2.593     2.518
    13   1 H        0.925     0.047     2.354     2.399
    14   1 H        0.925     0.051     2.306     2.375
    15   1 H        0.925     0.054     2.273     2.358

 Mol. C6AA /au·bohr⁶  :       1459.604189
 Mol. C8AA /au·bohr⁸  :      29709.745010
 Mol. α(0) /au        :         56.430279


Wiberg/Mayer (AO) data.
largest (>0.10) Wiberg bond orders for each atom

 ---------------------------------------------------------------------------
     #   Z sym  total        # sym  WBO       # sym  WBO       # sym  WBO
 ---------------------------------------------------------------------------
     1   6 C    3.994 --     2 C    1.011     7 H    0.986     6 H    0.985
                             8 H    0.984
     2   6 C    3.948 --     1 C    1.011     3 O    0.973     9 H    0.971
                            10 H    0.969
     3   8 O    2.046 --     2 C    0.973     4 C    0.973
     4   6 C    3.948 --     5 C    1.011     3 O    0.973    11 H    0.971
                            12 H    0.969
     5   6 C    3.994 --     4 C    1.011    14 H    0.986    13 H    0.985
                            15 H    0.984
     6   1 H    0.998 --     1 C    0.985
     7   1 H    0.997 --     1 C    0.986
     8   1 H    0.997 --     1 C    0.984
     9   1 H    0.997 --     2 C    0.971
    10   1 H    0.999 --     2 C    0.969
    11   1 H    0.997 --     4 C    0.971
    12   1 H    0.999 --     4 C    0.969
    13   1 H    0.998 --     5 C    0.985
    14   1 H    0.997 --     5 C    0.986
    15   1 H    0.997 --     5 C    0.984
 ---------------------------------------------------------------------------

Topologies differ in total number of bonds
Writing topology from bond orders to xtbtopo.mol

molecular dipole:
                 x           y           z       tot (Debye)
 q only:       -0.000       0.638      -0.000
   full:       -0.000       0.753      -0.000       1.914
molecular quadrupole (traceless):
                xx          xy          yy          xz          yz          zz
 q only:        2.908      -0.000      -2.709      -1.126       0.000      -0.199
  q+dip:        2.209      -0.000      -2.639      -0.790       0.000       0.430
   full:        2.610      -0.000      -2.874      -1.124       0.000       0.264

           -------------------------------------------------
          |                Geometry Summary                 |
           -------------------------------------------------

      molecular mass/u    :       74.1217560
   center of mass at/Å    :       -0.0000555      -0.0020647      -0.0001314
  moments of inertia/u·Å² :        0.5637312E+02   0.1670769E+03   0.1787576E+03
rotational constants/cm⁻¹ :        0.2990367E+00   0.1008974E+00   0.9430443E-01

 * 14 selected distances

     #   Z          #   Z                                           value/Å
     1   6 C        2   6 C                                       1.5267957 (max)
     2   6 C        3   8 O                                       1.4197856
     3   8 O        4   6 C                                       1.4197861
     4   6 C        5   6 C                                       1.5267953
     1   6 C        6   1 H                                       1.0870318
     1   6 C        7   1 H                                       1.0871889
     1   6 C        8   1 H                                       1.0856359 (min)
     2   6 C        9   1 H                                       1.0927206
     2   6 C       10   1 H                                       1.0973683
     4   6 C       11   1 H                                       1.0927198
     4   6 C       12   1 H                                       1.0973686
     5   6 C       13   1 H                                       1.0870309
     5   6 C       14   1 H                                       1.0871892
     5   6 C       15   1 H                                       1.0856364

 * 3 distinct bonds (by element types)

   Z      Z             #   av. dist./Å        max./Å        min./Å
   1 H    6 C          10     1.0899890     1.0973686     1.0856359
   6 C    6 C           2     1.5267955     1.5267957     1.5267953
   6 C    8 O           2     1.4197859     1.4197861     1.4197856

           -------------------------------------------------
          |               Frequency Printout                |
           -------------------------------------------------
 projected vibrational frequencies (cm⁻¹)
eigval :       -0.00    -0.00    -0.00    -0.00     0.00     0.00
eigval :       48.16   134.99   208.10   270.68   288.67   436.61
eigval :      480.08   807.88   817.27   864.78   935.96  1047.67
eigval :     1067.98  1082.42  1109.59  1123.47  1181.02  1251.58
eigval :     1280.11  1326.52  1327.39  1393.46  1393.86  1460.60
eigval :     1461.89  1483.90  1486.66  1493.89  1496.37  2888.28
eigval :     2890.45  2965.47  2966.00  3036.91  3037.08  3041.88
eigval :     3042.02  3053.06  3053.53
 reduced masses (amu)
   1:  8.83   2:  9.78   3: 10.68   4: 10.64   5: 10.55   6: 11.59   7:  8.00   8:  4.95
   9:  1.32  10:  4.91  11:  8.08  12: 10.68  13:  9.08  14:  2.15  15:  5.49  16:  6.33
  17:  8.19  18:  7.95  19:  9.28  20:  6.99  21:  8.87  22:  6.39  23:  6.66  24:  2.32
  25:  2.59  26:  3.60  27:  3.09  28:  3.15  29:  3.14  30:  1.87  31:  1.77  32:  1.57
  33:  1.56  34:  1.54  35:  1.61  36:  1.76  37:  1.75  38:  1.67  39:  1.66  40:  1.93
  41:  1.93  42:  1.62  43:  1.63  44:  1.61  45:  1.60
 IR intensities (km·mol⁻¹)
   1:  0.73   2:  0.20   3:  0.88   4:  0.66   5:  0.25   6:  0.93   7:  0.13   8:  5.35
   9:  0.27  10:  3.71  11:  0.37  12: 15.90  13:  6.55  14:  9.42  15: 22.08  16:  4.00
  17: 12.35  18: 26.87  19: 36.40  20:  0.06  21:126.68  22: 48.59  23: 17.29  24:  1.95
  25:  1.97  26: 22.74  27: 23.32  28:  5.72  29: 13.76  30:  1.04  31:  0.02  32:  3.50
  33:  3.33  34:  1.76  35:  0.59  36:120.95  37: 47.77  38: 32.59  39: 65.06  40: 75.50
  41: 43.83  42:  1.50  43: 75.50  44: 14.61  45: 45.72
 Raman intensities (Ä⁴*amu⁻¹)
   1:  0.00   2:  0.00   3:  0.00   4:  0.00   5:  0.00   6:  0.00   7:  0.00   8:  0.00
   9:  0.00  10:  0.00  11:  0.00  12:  0.00  13:  0.00  14:  0.00  15:  0.00  16:  0.00
  17:  0.00  18:  0.00  19:  0.00  20:  0.00  21:  0.00  22:  0.00  23:  0.00  24:  0.00
  25:  0.00  26:  0.00  27:  0.00  28:  0.00  29:  0.00  30:  0.00  31:  0.00  32:  0.00
  33:  0.00  34:  0.00  35:  0.00  36:  0.00  37:  0.00  38:  0.00  39:  0.00  40:  0.00
  41:  0.00  42:  0.00  43:  0.00  44:  0.00  45:  0.00
 output can be read by thermo (or use thermo option).
 writing <g98.out> molden fake output.
 recommended (thermochemical) frequency scaling factor: 1.0
           -------------------------------------------------
          |             Thermodynamic Functions             |
           -------------------------------------------------

Molecule has the following symmetry elements: (C2) 
It seems to be the C2 point group
c2  symmetry found (for desy threshold:  0.10E+00) used in thermo

          ...................................................
          :                      SETUP                      :
          :.................................................:
          :  # frequencies                          39      :
          :  # imaginary freq.                       0      :
          :  linear?                             false      :
          :  only rotor calc.                    false      :
          :  symmetry                               c2      :
          :  rotational number                       2      :
          :  scaling factor                  1.0000000      :
          :  rotor cutoff                    0.0000000 cm⁻¹ :
          :  imag. cutoff                 -100.0000000 cm⁻¹ :
          :.................................................:

    mode    ω/cm⁻¹     T·S(HO)/kcal·mol⁻¹    T·S(FR)/kcal·mol⁻¹   T·S(vib)
   ------------------------------------------------------------------------
       1     48.16    -1.45845 (100.00%)    -1.06690 (  0.00%)    -1.45845
       2    134.99    -0.85678 (100.00%)    -0.76205 (  0.00%)    -0.85678
       3    208.10    -0.61428 (100.00%)    -0.63394 (  0.00%)    -0.61428
       4    270.68    -0.47461 (100.00%)    -0.55608 (  0.00%)    -0.47461
       5    288.67    -0.44178 (100.00%)    -0.53703 (  0.00%)    -0.44178
   ------------------------------------------------------------------------

   temp. (K)  partition function   enthalpy   heat capacity  entropy
                                   cal/mol     cal/K/mol   cal/K/mol   J/K/mol
 298.15  VIB   41.0                 2488.792     17.079     15.725
         ROT  0.496E+05              888.752      2.981     24.465
         INT  0.203E+07             3377.544     20.060     40.190
         TR   0.617E+27             1481.254      4.968     38.808
         TOT                        4858.7981    25.0284    78.9981   330.5281

       T/K    H(0)-H(T)+PV         H(T)/Eh          T*S/Eh         G(T)/Eh
   ------------------------------------------------------------------------
    298.15    0.774299E-02    0.141554E+00    0.375346E-01    0.104019E+00
   ------------------------------------------------------------------------

         :::::::::::::::::::::::::::::::::::::::::::::::::::::
         ::                  THERMODYNAMIC                  ::
         :::::::::::::::::::::::::::::::::::::::::::::::::::::
         :: total free energy         -17.619274244216 Eh   ::
         ::.................................................::
         :: total energy              -17.723293694000 Eh   ::
         :: zero point energy           0.133811015604 Eh   ::
         :: G(RRHO) w/o ZPVE           -0.029791565820 Eh   ::
         :: G(RRHO) contrib.            0.104019449784 Eh   ::
         :::::::::::::::::::::::::::::::::::::::::::::::::::::

optimized geometry written to: xtbopt.coord


           -------------------------------------------------
          | TOTAL ENERGY              -17.723293694000 Eh   |
          | TOTAL ENTHALPY            -17.581739690785 Eh   |
          | TOTAL FREE ENERGY         -17.619274244216 Eh   |
          | GRADIENT NORM               0.000024200005 Eh/α |
          | HOMO-LUMO GAP              11.488425215015 eV   |
           -------------------------------------------------

------------------------------------------------------------------------
 * finished run on 2025/04/07 at 02:46:01.396     
------------------------------------------------------------------------
 total:
 * wall-time:     0 d,  0 h,  0 min,  1.622 sec
 *  cpu-time:     0 d,  0 h,  0 min,  1.480 sec
 * ratio c/w:     0.913 speedup
 SCF:
 * wall-time:     0 d,  0 h,  0 min,  0.014 sec
 *  cpu-time:     0 d,  0 h,  0 min,  0.007 sec
 * ratio c/w:     0.533 speedup
 analytical hessian:
 * wall-time:     0 d,  0 h,  0 min,  0.360 sec
 *  cpu-time:     0 d,  0 h,  0 min,  0.353 sec
 * ratio c/w:     0.982 speedup

