      -----------------------------------------------------------      
     |                   =====================                   |     
     |                           x T B                           |     
     |                   =====================                   |     
     |                         S. Grimme                         |     
     |          Mulliken Center for Theoretical Chemistry        |     
     |                    University of Bonn                     |     
      -----------------------------------------------------------      

   * xtb version 6.7.1 (edcfbbe) compiled by 'albert@albert-system' on 2024-07-22

   xtb is free software: you can redistribute it and/or modify it under
   the terms of the GNU Lesser General Public License as published by
   the Free Software Foundation, either version 3 of the License, or
   (at your option) any later version.
   
   xtb is distributed in the hope that it will be useful,
   but WITHOUT ANY WARRANTY; without even the implied warranty of
   MERCHANTABILITY or FITNESS FOR A PARTICULAR PURPOSE.  See the
   GNU Lesser General Public License for more details.
   
   Cite this work as:
   * C. Bannwarth, E. Caldeweyher, S. Ehlert, A. Hansen, P. Pracht,
     J. Seibert, S. Spicher, S. Grimme, WIREs Comput. Mol. Sci., 2020, 11,
     e01493. DOI: 10.1002/wcms.1493
   
   for GFN2-xTB:
   * C. Bannwarth, S. Ehlert and S. Grimme., J. Chem. Theory Comput., 2019,
     15, 1652-1671. DOI: 10.1021/acs.jctc.8b01176
   for GFN1-xTB:
   * S. Grimme, C. Bannwarth, P. Shushkov, J. Chem. Theory Comput., 2017,
     13, 1989-2009. DOI: 10.1021/acs.jctc.7b00118
   for GFN0-xTB:
   * P. Pracht, E. Caldeweyher, S. Ehlert, S. Grimme, ChemRxiv, 2019, preprint.
     DOI: 10.26434/chemrxiv.8326202.v1
   for GFN-FF:
   * S. Spicher and S. Grimme, Angew. Chem. Int. Ed., 2020, 59, 15665-15673.
     DOI: 10.1002/anie.202004239
   
   for ALPB and GBSA implicit solvation:
   * S. Ehlert, M. Stahn, S. Spicher, S. Grimme, J. Chem. Theory Comput.,
     2021, 17, 4250-4261. DOI: 10.1021/acs.jctc.1c00471
   
   for ddCOSMO and CPCM-X implicit solvation:
   * M. Stahn, S. Ehlert, S. Grimme, J. Phys. Chem. A,
     2023, XX, XXXX-XXXX. DOI: 10.1021/acs.jpca.3c04382
   
   for DFT-D4:
   * E. Caldeweyher, C. Bannwarth and S. Grimme, J. Chem. Phys., 2017,
     147, 034112. DOI: 10.1063/1.4993215
   * E. Caldeweyher, S. Ehlert, A. Hansen, H. Neugebauer, S. Spicher,
     C. Bannwarth and S. Grimme, J. Chem. Phys., 2019, 150, 154122.
     DOI: 10.1063/1.5090222
   * E. Caldeweyher, J.-M. Mewes, S. Ehlert and S. Grimme, Phys. Chem. Chem. Phys.
     2020, 22, 8499-8512. DOI: 10.1039/D0CP00502A
   
   for sTDA-xTB:
   * S. Grimme and C. Bannwarth, J. Chem. Phys., 2016, 145, 054103.
     DOI: 10.1063/1.4959605
   
   in the mass-spec context:
   * V. Asgeirsson, C. Bauer and S. Grimme, Chem. Sci., 2017, 8, 4879.
     DOI: 10.1039/c7sc00601b
   * J. Koopman and S. Grimme, ACS Omega 2019, 4, 12, 15120-15133.
     DOI: 10.1021/acsomega.9b02011
   
   for metadynamics refer to:
   * S. Grimme, J. Chem. Theory Comput., 2019, 155, 2847-2862
     DOI: 10.1021/acs.jctc.9b00143
   
   for SPH calculations refer to:
   * S. Spicher and S. Grimme, J. Chem. Theory Comput., 2021, 17, 1701-1714
     DOI: 10.1021/acs.jctc.0c01306
   
   for ONIOM refer to:
   * C. Plett, A. Katbashev, S. Ehlert, S. Grimme, M. Bursch,
     Phys. Chem. Chem. Phys., 2023, 25, 17860-17868. DOI: 10.1039/D3CP02178E
   
   for DIPRO refer to:
   * J. Kohn, N. Gildemeister, S. Grimme, D. Fazzi, A. Hansen,
     J. Chem. Phys., 2023, just accepted.
   
   for PTB refer to:
   * S. Grimme, M. Mueller, A. Hansen, J. Chem. Phys., 2023, 158, 124111.
     DOI: 10.1063/5.0137838
   
   with help from (in alphabetical order)
   P. Atkinson, C. Bannwarth, F. Bohle, G. Brandenburg, E. Caldeweyher
   M. Checinski, S. Dohm, S. Ehlert, S. Ehrlich, I. Gerasimov, C. Hölzer
   A. Katbashev, J. Kohn, J. Koopman, C. Lavigne, S. Lehtola, F. März, M. Müller,
   F. Musil, H. Neugebauer, J. Pisarek, C. Plett, P. Pracht, F. Pultar,
   J. Seibert, P. Shushkov, S. Spicher, M. Stahn, M. Steiner, T. Strunk,
   J. Stückrath, T. Rose, and J. Unsleber
   
 * started run on 2025/04/07 at 02:42:52.465     
   ID    Z sym.   atoms
    1    6 C      1, 2, 4, 5
    2    8 O      3
    3    1 H      6-15

           -------------------------------------------------
          |                Calculation Setup                |
           -------------------------------------------------

          program call               : /srv/scratch/z5358697/.xtb/bin/xtb gas.coord --gfn2 --sp --chrg 0 --norestart --parallel 1
          hostname                   : k140
          coordinate file            : gas.coord
          omp threads                :                     1


           -------------------------------------------------
          |                 G F N 2 - x T B                 |
           -------------------------------------------------

        Reference                      10.1021/acs.jctc.8b01176
      * Hamiltonian:
        H0-scaling (s, p, d)           1.850000    2.230000    2.230000
        zeta-weighting                 0.500000
      * Dispersion:
        s8                             2.700000
        a1                             0.520000
        a2                             5.000000
        s9                             5.000000
      * Repulsion:
        kExp                           1.500000    1.000000
        rExp                           1.000000
      * Coulomb:
        alpha                          2.000000
        third order                    shell-resolved
        anisotropic                    true
        a3                             3.000000
        a5                             4.000000
        cn-shift                       1.200000
        cn-exp                         4.000000
        max-rad                        5.000000


          ...................................................
          :                      SETUP                      :
          :.................................................:
          :  # basis functions                  30          :
          :  # atomic orbitals                  30          :
          :  # shells                           20          :
          :  # electrons                        32          :
          :  max. iterations                   250          :
          :  Hamiltonian                  GFN2-xTB          :
          :  restarted?                      false          :
          :  GBSA solvation                  false          :
          :  PC potential                    false          :
          :  electronic temp.          300.0000000     K    :
          :  accuracy                    1.0000000          :
          :  -> integral cutoff          0.2500000E+02      :
          :  -> integral neglect         0.1000000E-07      :
          :  -> SCF convergence          0.1000000E-05 Eh   :
          :  -> wf. convergence          0.1000000E-03 e    :
          :  Broyden damping             0.4000000          :
          :  net charge                          0          :
          :  unpaired electrons                  0          :
          ...................................................

 iter      E             dE          RMSdq      gap      omega  full diag
   1    -17.8795189 -0.178795E+02  0.363E+00   11.56       0.0  T
   2    -17.9280808 -0.485619E-01  0.183E+00   11.08       1.0  T
   3    -17.9286581 -0.577279E-03  0.849E-01   11.20       1.0  T
   4    -17.9288566 -0.198541E-03  0.119E-01   11.22       1.0  T
   5    -17.9288852 -0.285895E-04  0.657E-02   11.24       1.0  T
   6    -17.9288860 -0.842955E-06  0.555E-03   11.25       4.7  T
   7    -17.9288861 -0.232851E-07  0.246E-03   11.25      10.5  T
   8    -17.9288861 -0.550189E-08  0.610E-04   11.25      42.4  T
   9    -17.9288861 -0.433218E-09  0.131E-04   11.25     197.6  T

   *** convergence criteria satisfied after 9 iterations ***

         #    Occupation            Energy/Eh            Energy/eV
      -------------------------------------------------------------
         1        2.0000           -0.6880234             -18.7221
       ...           ...                  ...                  ...
        10        2.0000           -0.4842430             -13.1769
        11        2.0000           -0.4760501             -12.9540
        12        2.0000           -0.4712047             -12.8221
        13        2.0000           -0.4574533             -12.4479
        14        2.0000           -0.4362175             -11.8701
        15        2.0000           -0.4316390             -11.7455
        16        2.0000           -0.3928769             -10.6907 (HOMO)
        17                          0.0204132               0.5555 (LUMO)
        18                          0.0934247               2.5422
        19                          0.1153304               3.1383
        20                          0.1247772               3.3954
        21                          0.1357941               3.6951
       ...                                ...                  ...
        30                          0.3101113               8.4386
      -------------------------------------------------------------
                  HL-Gap            0.4132901 Eh           11.2462 eV
             Fermi-level           -0.1862318 Eh           -5.0676 eV

 SCC (total)                   0 d,  0 h,  0 min,  0.013 sec
 SCC setup                      ...        0 min,  0.000 sec (  0.921%)
 Dispersion                     ...        0 min,  0.000 sec (  0.389%)
 classical contributions        ...        0 min,  0.000 sec (  0.091%)
 integral evaluation            ...        0 min,  0.001 sec (  5.096%)
 iterations                     ...        0 min,  0.010 sec ( 77.750%)
 molecular gradient             ...        0 min,  0.002 sec ( 15.020%)
 printout                       ...        0 min,  0.000 sec (  0.666%)

         :::::::::::::::::::::::::::::::::::::::::::::::::::::
         ::                     SUMMARY                     ::
         :::::::::::::::::::::::::::::::::::::::::::::::::::::
         :: total energy             -17.719505275451 Eh    ::
         :: gradient norm              0.008939312679 Eh/a0 ::
         :: HOMO-LUMO gap             11.246195220643 eV    ::
         ::.................................................::
         :: SCC energy               -17.928872851331 Eh    ::
         :: -> isotropic ES            0.021338675167 Eh    ::
         :: -> anisotropic ES          0.003982526840 Eh    ::
         :: -> anisotropic XC          0.005811854581 Eh    ::
         :: -> dispersion             -0.007276954345 Eh    ::
         :: repulsion energy           0.209367575880 Eh    ::
         :: add. restraining           0.000000000000 Eh    ::
         :: total charge              -0.000000000000 e     ::
         :::::::::::::::::::::::::::::::::::::::::::::::::::::

           -------------------------------------------------
          |                Property Printout                |
           -------------------------------------------------

    * Orbital Energies and Occupations

         #    Occupation            Energy/Eh            Energy/eV
      -------------------------------------------------------------
         1        2.0000           -0.6880234             -18.7221
       ...           ...                  ...                  ...
         4        2.0000           -0.5897351             -16.0475
         5        2.0000           -0.5780616             -15.7299
         6        2.0000           -0.5445007             -14.8166
         7        2.0000           -0.5346758             -14.5493
         8        2.0000           -0.5231091             -14.2345
         9        2.0000           -0.4933314             -13.4242
        10        2.0000           -0.4842430             -13.1769
        11        2.0000           -0.4760501             -12.9540
        12        2.0000           -0.4712047             -12.8221
        13        2.0000           -0.4574533             -12.4479
        14        2.0000           -0.4362175             -11.8701
        15        2.0000           -0.4316390             -11.7455
        16        2.0000           -0.3928769             -10.6907 (HOMO)
        17                          0.0204132               0.5555 (LUMO)
        18                          0.0934247               2.5422
        19                          0.1153304               3.1383
        20                          0.1247772               3.3954
        21                          0.1357941               3.6951
        22                          0.1523283               4.1451
        23                          0.1730838               4.7099
        24                          0.1793255               4.8797
        25                          0.1888612               5.1392
        26                          0.2102240               5.7205
        27                          0.2401751               6.5355
       ...                                ...                  ...
        30                          0.3101113               8.4386
      -------------------------------------------------------------
                  HL-Gap            0.4132901 Eh           11.2462 eV
             Fermi-level           -0.1862318 Eh           -5.0676 eV

     #   Z          covCN         q      C6AA      α(0)
     1   6 C        3.750    -0.114    22.738     6.801
     2   6 C        3.686     0.085    19.362     6.299
     3   8 O        1.699    -0.329    19.511     5.964
     4   6 C        3.685     0.084    19.371     6.301
     5   6 C        3.750    -0.114    22.755     6.803
     6   1 H        0.925     0.051     2.313     2.378
     7   1 H        0.925     0.041     2.441     2.443
     8   1 H        0.925     0.038     2.470     2.458
     9   1 H        0.923     0.017     2.778     2.607
    10   1 H        0.924     0.048     2.349     2.397
    11   1 H        0.924     0.039     2.460     2.453
    12   1 H        0.924     0.021     2.720     2.579
    13   1 H        0.925     0.037     2.483     2.464
    14   1 H        0.925     0.045     2.379     2.412
    15   1 H        0.925     0.051     2.304     2.373

 Mol. C6AA /au·bohr⁶  :       1472.992897
 Mol. C8AA /au·bohr⁸  :      29841.314727
 Mol. α(0) /au        :         56.731664


Wiberg/Mayer (AO) data.
largest (>0.10) Wiberg bond orders for each atom

 ---------------------------------------------------------------------------
     #   Z sym  total        # sym  WBO       # sym  WBO       # sym  WBO
 ---------------------------------------------------------------------------
     1   6 C    3.996 --     2 C    1.009     6 H    0.986     8 H    0.985
                             7 H    0.985
     2   6 C    3.956 --     1 C    1.009     3 O    0.986    10 H    0.971
                             9 H    0.968
     3   8 O    2.070 --     2 C    0.986     4 C    0.980
     4   6 C    3.956 --     5 C    1.010     3 O    0.980    11 H    0.972
                            12 H    0.971
     5   6 C    3.995 --     4 C    1.010    15 H    0.987    13 H    0.986
                            14 H    0.985
     6   1 H    0.997 --     1 C    0.986
     7   1 H    0.998 --     1 C    0.985
     8   1 H    0.998 --     1 C    0.985
     9   1 H    1.000 --     2 C    0.968
    10   1 H    0.998 --     2 C    0.971
    11   1 H    0.998 --     4 C    0.972
    12   1 H    1.000 --     4 C    0.971
    13   1 H    0.999 --     5 C    0.986
    14   1 H    0.998 --     5 C    0.985
    15   1 H    0.997 --     5 C    0.987
 ---------------------------------------------------------------------------

Topologies differ in total number of bonds
Writing topology from bond orders to xtbtopo.mol

molecular dipole:
                 x           y           z       tot (Debye)
 q only:        0.060       0.227       0.423
   full:        0.089       0.219       0.602       1.644
molecular quadrupole (traceless):
                xx          xy          yy          xz          yz          zz
 q only:        2.556      -0.179      -0.692      -0.454      -0.709      -1.864
  q+dip:        1.930      -0.011      -0.712      -0.357      -1.479      -1.218
   full:        2.489      -0.100      -0.836      -0.461      -1.291      -1.653


           -------------------------------------------------
          | TOTAL ENERGY              -17.719505275451 Eh   |
          | GRADIENT NORM               0.008939312679 Eh/α |
          | HOMO-LUMO GAP              11.246195220643 eV   |
           -------------------------------------------------

------------------------------------------------------------------------
 * finished run on 2025/04/07 at 02:42:52.513     
------------------------------------------------------------------------
 total:
 * wall-time:     0 d,  0 h,  0 min,  0.048 sec
 *  cpu-time:     0 d,  0 h,  0 min,  0.013 sec
 * ratio c/w:     0.283 speedup
 SCF:
 * wall-time:     0 d,  0 h,  0 min,  0.013 sec
 *  cpu-time:     0 d,  0 h,  0 min,  0.007 sec
 * ratio c/w:     0.538 speedup

