      -----------------------------------------------------------      
     |                   =====================                   |     
     |                           x T B                           |     
     |                   =====================                   |     
     |                         S. Grimme                         |     
     |          Mulliken Center for Theoretical Chemistry        |     
     |                    University of Bonn                     |     
      -----------------------------------------------------------      

   * xtb version 6.7.1 (edcfbbe) compiled by 'albert@albert-system' on 2024-07-22

   xtb is free software: you can redistribute it and/or modify it under
   the terms of the GNU Lesser General Public License as published by
   the Free Software Foundation, either version 3 of the License, or
   (at your option) any later version.
   
   xtb is distributed in the hope that it will be useful,
   but WITHOUT ANY WARRANTY; without even the implied warranty of
   MERCHANTABILITY or FITNESS FOR A PARTICULAR PURPOSE.  See the
   GNU Lesser General Public License for more details.
   
   Cite this work as:
   * C. Bannwarth, E. Caldeweyher, S. Ehlert, A. Hansen, P. Pracht,
     J. Seibert, S. Spicher, S. Grimme, WIREs Comput. Mol. Sci., 2020, 11,
     e01493. DOI: 10.1002/wcms.1493
   
   for GFN2-xTB:
   * C. Bannwarth, S. Ehlert and S. Grimme., J. Chem. Theory Comput., 2019,
     15, 1652-1671. DOI: 10.1021/acs.jctc.8b01176
   for GFN1-xTB:
   * S. Grimme, C. Bannwarth, P. Shushkov, J. Chem. Theory Comput., 2017,
     13, 1989-2009. DOI: 10.1021/acs.jctc.7b00118
   for GFN0-xTB:
   * P. Pracht, E. Caldeweyher, S. Ehlert, S. Grimme, ChemRxiv, 2019, preprint.
     DOI: 10.26434/chemrxiv.8326202.v1
   for GFN-FF:
   * S. Spicher and S. Grimme, Angew. Chem. Int. Ed., 2020, 59, 15665-15673.
     DOI: 10.1002/anie.202004239
   
   for ALPB and GBSA implicit solvation:
   * S. Ehlert, M. Stahn, S. Spicher, S. Grimme, J. Chem. Theory Comput.,
     2021, 17, 4250-4261. DOI: 10.1021/acs.jctc.1c00471
   
   for ddCOSMO and CPCM-X implicit solvation:
   * M. Stahn, S. Ehlert, S. Grimme, J. Phys. Chem. A,
     2023, XX, XXXX-XXXX. DOI: 10.1021/acs.jpca.3c04382
   
   for DFT-D4:
   * E. Caldeweyher, C. Bannwarth and S. Grimme, J. Chem. Phys., 2017,
     147, 034112. DOI: 10.1063/1.4993215
   * E. Caldeweyher, S. Ehlert, A. Hansen, H. Neugebauer, S. Spicher,
     C. Bannwarth and S. Grimme, J. Chem. Phys., 2019, 150, 154122.
     DOI: 10.1063/1.5090222
   * E. Caldeweyher, J.-M. Mewes, S. Ehlert and S. Grimme, Phys. Chem. Chem. Phys.
     2020, 22, 8499-8512. DOI: 10.1039/D0CP00502A
   
   for sTDA-xTB:
   * S. Grimme and C. Bannwarth, J. Chem. Phys., 2016, 145, 054103.
     DOI: 10.1063/1.4959605
   
   in the mass-spec context:
   * V. Asgeirsson, C. Bauer and S. Grimme, Chem. Sci., 2017, 8, 4879.
     DOI: 10.1039/c7sc00601b
   * J. Koopman and S. Grimme, ACS Omega 2019, 4, 12, 15120-15133.
     DOI: 10.1021/acsomega.9b02011
   
   for metadynamics refer to:
   * S. Grimme, J. Chem. Theory Comput., 2019, 155, 2847-2862
     DOI: 10.1021/acs.jctc.9b00143
   
   for SPH calculations refer to:
   * S. Spicher and S. Grimme, J. Chem. Theory Comput., 2021, 17, 1701-1714
     DOI: 10.1021/acs.jctc.0c01306
   
   for ONIOM refer to:
   * C. Plett, A. Katbashev, S. Ehlert, S. Grimme, M. Bursch,
     Phys. Chem. Chem. Phys., 2023, 25, 17860-17868. DOI: 10.1039/D3CP02178E
   
   for DIPRO refer to:
   * J. Kohn, N. Gildemeister, S. Grimme, D. Fazzi, A. Hansen,
     J. Chem. Phys., 2023, just accepted.
   
   for PTB refer to:
   * S. Grimme, M. Mueller, A. Hansen, J. Chem. Phys., 2023, 158, 124111.
     DOI: 10.1063/5.0137838
   
   with help from (in alphabetical order)
   P. Atkinson, C. Bannwarth, F. Bohle, G. Brandenburg, E. Caldeweyher
   M. Checinski, S. Dohm, S. Ehlert, S. Ehrlich, I. Gerasimov, C. Hölzer
   A. Katbashev, J. Kohn, J. Koopman, C. Lavigne, S. Lehtola, F. März, M. Müller,
   F. Musil, H. Neugebauer, J. Pisarek, C. Plett, P. Pracht, F. Pultar,
   J. Seibert, P. Shushkov, S. Spicher, M. Stahn, M. Steiner, T. Strunk,
   J. Stückrath, T. Rose, and J. Unsleber
   
 * started run on 2025/04/07 at 02:42:52.545     
   ID    Z sym.   atoms
    1    6 C      1, 2, 4, 5
    2    8 O      3
    3    1 H      6-15

           -------------------------------------------------
          |                Calculation Setup                |
           -------------------------------------------------

          program call               : /srv/scratch/z5358697/.xtb/bin/xtb solv.coord --gfn2 --sp --chrg 0 --norestart --parallel 1 --alpb water reference -I xtb_sp-xcontrol-inp
          hostname                   : k140
          coordinate file            : solv.coord
          omp threads                :                     1


           -------------------------------------------------
          |                 G F N 2 - x T B                 |
           -------------------------------------------------

        Reference                      10.1021/acs.jctc.8b01176
      * Hamiltonian:
        H0-scaling (s, p, d)           1.850000    2.230000    2.230000
        zeta-weighting                 0.500000
      * Dispersion:
        s8                             2.700000
        a1                             0.520000
        a2                             5.000000
        s9                             5.000000
      * Repulsion:
        kExp                           1.500000    1.000000
        rExp                           1.000000
      * Coulomb:
        alpha                          2.000000
        third order                    shell-resolved
        anisotropic                    true
        a3                             3.000000
        a5                             4.000000
        cn-shift                       1.200000
        cn-exp                         4.000000
        max-rad                        5.000000

      * Solvation model:               ALPB
        Solvent                        water
        Parameter file                 internal GFN2-xTB/ALPB
        Dielectric constant                8.0200E+01
        Reference state                gsolv=reference [X=1]
        Free energy shift                  2.8945E-03 Eh       1.8164E+00 kcal/mol
        Temperature                        2.9815E+02 K
        Density                            1.0000E+00 kg/L
        Solvent mass                       1.8000E+01 g/mol
        Interaction kernel             P16
        Born radius scaling (c1)           1.4744E+00
        Born radii integrator          GBOBC
        Born offset                        0.0000E+00 a0       0.0000E+00 AA
        H-bond correction              true
        Ion screening                  false
        Surface tension                    1.0000E-05 Eh       1.5569E+01 dyn/cm
        Grid points                               974 per atom

          ...................................................
          :                      SETUP                      :
          :.................................................:
          :  # basis functions                  30          :
          :  # atomic orbitals                  30          :
          :  # shells                           20          :
          :  # electrons                        32          :
          :  max. iterations                   250          :
          :  Hamiltonian                  GFN2-xTB          :
          :  restarted?                      false          :
          :  GBSA solvation                   true          :
          :  PC potential                    false          :
          :  electronic temp.          300.0000000     K    :
          :  accuracy                    1.0000000          :
          :  -> integral cutoff          0.2500000E+02      :
          :  -> integral neglect         0.1000000E-07      :
          :  -> SCF convergence          0.1000000E-05 Eh   :
          :  -> wf. convergence          0.1000000E-03 e    :
          :  Broyden damping             0.4000000          :
          :  net charge                          0          :
          :  unpaired electrons                  0          :
          ...................................................

 iter      E             dE          RMSdq      gap      omega  full diag
   1    -17.8917382 -0.178917E+02  0.372E+00   11.58       0.0  T
   2    -17.9287508 -0.370126E-01  0.186E+00   11.17       1.0  T
   3    -17.9294538 -0.702987E-03  0.723E-01   11.22       1.0  T
   4    -17.9296230 -0.169193E-03  0.123E-01   11.24       1.0  T
   5    -17.9296397 -0.167413E-04  0.663E-02   11.26       1.0  T
   6    -17.9296412 -0.146706E-05  0.753E-03   11.27       3.4  T
   7    -17.9296413 -0.132913E-06  0.269E-03   11.27       9.6  T
   8    -17.9296413 -0.965298E-08  0.122E-03   11.27      21.2  T
   9    -17.9296413 -0.315842E-08  0.172E-04   11.27     150.3  T
  10    -17.9296413 -0.424762E-10  0.101E-04   11.27     256.9  T

   *** convergence criteria satisfied after 10 iterations ***

         #    Occupation            Energy/Eh            Energy/eV
      -------------------------------------------------------------
         1        2.0000           -0.6973982             -18.9772
       ...           ...                  ...                  ...
        10        2.0000           -0.4842149             -13.1762
        11        2.0000           -0.4744759             -12.9111
        12        2.0000           -0.4683890             -12.7455
        13        2.0000           -0.4554813             -12.3943
        14        2.0000           -0.4353493             -11.8465
        15        2.0000           -0.4331595             -11.7869
        16        2.0000           -0.3982548             -10.8371 (HOMO)
        17                          0.0157758               0.4293 (LUMO)
        18                          0.0915568               2.4914
        19                          0.1145543               3.1172
        20                          0.1247610               3.3949
        21                          0.1374114               3.7392
       ...                                ...                  ...
        30                          0.3098326               8.4310
      -------------------------------------------------------------
                  HL-Gap            0.4140306 Eh           11.2663 eV
             Fermi-level           -0.1912395 Eh           -5.2039 eV

 SCC (total)                   0 d,  0 h,  0 min,  0.009 sec
 SCC setup                      ...        0 min,  0.001 sec (  7.172%)
 Dispersion                     ...        0 min,  0.000 sec (  0.550%)
 classical contributions        ...        0 min,  0.000 sec (  0.126%)
 integral evaluation            ...        0 min,  0.001 sec (  7.212%)
 iterations                     ...        0 min,  0.006 sec ( 65.003%)
 molecular gradient             ...        0 min,  0.002 sec ( 18.909%)
 printout                       ...        0 min,  0.000 sec (  0.939%)

         :::::::::::::::::::::::::::::::::::::::::::::::::::::
         ::                     SUMMARY                     ::
         :::::::::::::::::::::::::::::::::::::::::::::::::::::
         :: total energy             -17.720260508679 Eh    ::
         :: total w/o Gsasa/hb       -17.722352308672 Eh    ::
         :: gradient norm              0.000037623394 Eh/a0 ::
         :: HOMO-LUMO gap             11.266346216939 eV    ::
         ::.................................................::
         :: SCC energy               -17.929628084559 Eh    ::
         :: -> isotropic ES            0.026343909123 Eh    ::
         :: -> anisotropic ES          0.003481171289 Eh    ::
         :: -> anisotropic XC          0.006213280640 Eh    ::
         :: -> dispersion             -0.007212374845 Eh    ::
         :: -> Gsolv                  -0.001417962375 Eh    ::
         ::    -> Gelec               -0.003509762369 Eh    ::
         ::    -> Gsasa                0.000109293779 Eh    ::
         ::    -> Ghb                 -0.000912042946 Eh    ::
         ::    -> Gshift               0.002894549160 Eh    ::
         :: repulsion energy           0.209367575880 Eh    ::
         :: add. restraining           0.000000000000 Eh    ::
         :: total charge              -0.000000000000 e     ::
         :::::::::::::::::::::::::::::::::::::::::::::::::::::

           -------------------------------------------------
          |                Property Printout                |
           -------------------------------------------------

    * Orbital Energies and Occupations

         #    Occupation            Energy/Eh            Energy/eV
      -------------------------------------------------------------
         1        2.0000           -0.6973982             -18.9772
       ...           ...                  ...                  ...
         4        2.0000           -0.5889533             -16.0262
         5        2.0000           -0.5795498             -15.7704
         6        2.0000           -0.5473878             -14.8952
         7        2.0000           -0.5365085             -14.5991
         8        2.0000           -0.5247425             -14.2790
         9        2.0000           -0.4926271             -13.4051
        10        2.0000           -0.4842149             -13.1762
        11        2.0000           -0.4744759             -12.9111
        12        2.0000           -0.4683890             -12.7455
        13        2.0000           -0.4554813             -12.3943
        14        2.0000           -0.4353493             -11.8465
        15        2.0000           -0.4331595             -11.7869
        16        2.0000           -0.3982548             -10.8371 (HOMO)
        17                          0.0157758               0.4293 (LUMO)
        18                          0.0915568               2.4914
        19                          0.1145543               3.1172
        20                          0.1247610               3.3949
        21                          0.1374114               3.7392
        22                          0.1536452               4.1809
        23                          0.1733697               4.7176
        24                          0.1797122               4.8902
        25                          0.1898250               5.1654
        26                          0.2122340               5.7752
        27                          0.2436193               6.6292
       ...                                ...                  ...
        30                          0.3098326               8.4310
      -------------------------------------------------------------
                  HL-Gap            0.4140306 Eh           11.2663 eV
             Fermi-level           -0.1912395 Eh           -5.2039 eV

     #   Z          covCN         q      C6AA      α(0)
     1   6 C        3.750    -0.125    22.966     6.835
     2   6 C        3.686     0.080    19.431     6.311
     3   8 O        1.699    -0.369    20.238     6.074
     4   6 C        3.685     0.080    19.441     6.312
     5   6 C        3.750    -0.126    22.987     6.838
     6   1 H        0.925     0.054     2.268     2.355
     7   1 H        0.925     0.048     2.341     2.393
     8   1 H        0.925     0.053     2.284     2.363
     9   1 H        0.923     0.022     2.701     2.570
    10   1 H        0.924     0.053     2.285     2.364
    11   1 H        0.924     0.043     2.414     2.430
    12   1 H        0.924     0.029     2.600     2.522
    13   1 H        0.925     0.052     2.291     2.367
    14   1 H        0.925     0.052     2.293     2.368
    15   1 H        0.925     0.053     2.277     2.360

 Mol. C6AA /au·bohr⁶  :       1460.991226
 Mol. C8AA /au·bohr⁸  :      29724.035268
 Mol. α(0) /au        :         56.460117


Wiberg/Mayer (AO) data.
largest (>0.10) Wiberg bond orders for each atom

 ---------------------------------------------------------------------------
     #   Z sym  total        # sym  WBO       # sym  WBO       # sym  WBO
 ---------------------------------------------------------------------------
     1   6 C    3.994 --     2 C    1.010     6 H    0.986     7 H    0.985
                             8 H    0.984
     2   6 C    3.947 --     1 C    1.010     3 O    0.976    10 H    0.970
                             9 H    0.968
     3   8 O    2.048 --     2 C    0.976     4 C    0.970
     4   6 C    3.947 --     5 C    1.011    11 H    0.972    12 H    0.971
                             3 O    0.970
     5   6 C    3.993 --     4 C    1.011    15 H    0.986    13 H    0.984
                            14 H    0.984
     6   1 H    0.997 --     1 C    0.986
     7   1 H    0.998 --     1 C    0.985
     8   1 H    0.997 --     1 C    0.984
     9   1 H    1.000 --     2 C    0.968
    10   1 H    0.997 --     2 C    0.970
    11   1 H    0.998 --     4 C    0.972
    12   1 H    0.999 --     4 C    0.971
    13   1 H    0.997 --     5 C    0.984
    14   1 H    0.997 --     5 C    0.984
    15   1 H    0.997 --     5 C    0.986
 ---------------------------------------------------------------------------

Topologies differ in total number of bonds
Writing topology from bond orders to xtbtopo.mol

molecular dipole:
                 x           y           z       tot (Debye)
 q only:        0.075       0.306       0.536
   full:        0.098       0.267       0.669       1.847
molecular quadrupole (traceless):
                xx          xy          yy          xz          yz          zz
 q only:        3.171      -0.193      -0.954      -0.527      -0.710      -2.217
  q+dip:        2.305      -0.015      -0.887      -0.404      -1.471      -1.418
   full:        2.878      -0.106      -1.012      -0.509      -1.282      -1.866


           -------------------------------------------------
          | TOTAL ENERGY              -17.720260508679 Eh   |
          | GRADIENT NORM               0.000037623394 Eh/α |
          | HOMO-LUMO GAP              11.266346216939 eV   |
           -------------------------------------------------

------------------------------------------------------------------------
 * finished run on 2025/04/07 at 02:42:52.589     
------------------------------------------------------------------------
 total:
 * wall-time:     0 d,  0 h,  0 min,  0.043 sec
 *  cpu-time:     0 d,  0 h,  0 min,  0.015 sec
 * ratio c/w:     0.356 speedup
 SCF:
 * wall-time:     0 d,  0 h,  0 min,  0.010 sec
 *  cpu-time:     0 d,  0 h,  0 min,  0.008 sec
 * ratio c/w:     0.846 speedup

