 Entering Gaussian System
 *********************************************
 Gaussian 98:
 frequency output generated by the xtb code
 *********************************************
                         Standard orientation:
 --------------------------------------------------------------------
  Center     Atomic     Atomic              Coordinates (Angstroms)
  Number     Number      Type              X           Y           Z
 --------------------------------------------------------------------
    1          6             0        2.047059   -0.586111   -0.243305
    2          6             0        1.123191    0.229577    0.655086
    3          6             0        0.016705    0.951597   -0.118514
    4          6             0       -1.066274    0.024990   -0.677642
    5          8             0       -1.939053   -0.482441    0.312084
    6          1             0        2.840001   -1.039284    0.346581
    7          1             0        1.506368   -1.380972   -0.750511
    8          1             0        2.501570    0.052562   -0.997109
    9          1             0        0.684047   -0.421023    1.414457
   10          1             0        1.717639    0.980471    1.179610
   11          1             0       -0.471230    1.674772    0.538477
   12          1             0        0.460510    1.497633   -0.952142
   13          1             0       -1.711366    0.585974   -1.358300
   14          1             0       -0.614515   -0.802083   -1.239587
   15          1             0       -1.423782   -0.991553    0.952584
 --------------------------------------------------------------------
     1 basis functions        1 primitive gaussians
     1 alpha electrons        1 beta electrons
 
 Harmonic frequencies (cm**-1), IR intensities (km*mol⁻¹),
 Raman scattering activities (A**4/amu), Raman depolarization ratios,
 reduced masses (AMU), force constants (mDyne/A) and normal coordinates:
                      1                      2                      3
                        a                      a                      a 
 Frequencies --    56.6088               138.3554               231.7040
 Red. masses --     9.1877                 5.8931                 3.9762
 Frc consts  --     0.0000                 0.0000                 0.0000
 IR Inten    --     2.2020                 4.6983                 7.9841
 Raman Activ --     0.0000                 0.0000                 0.0000
 Depolar     --     0.0000                 0.0000                 0.0000
 Atom AN      X      Y      Z        X      Y      Z        X      Y      Z
   1   6    -0.35  -0.29   0.11    -0.09  -0.05  -0.13     0.27   0.05   0.12
   2   6    -0.01   0.22   0.00     0.24   0.14   0.03    -0.09  -0.20  -0.02
   3   6    -0.01   0.21   0.00    -0.04  -0.02   0.28     0.04  -0.09  -0.12
   4   6    -0.00   0.23  -0.05     0.18  -0.15   0.05    -0.24   0.19  -0.05
   5   8     0.39  -0.35  -0.04    -0.28   0.07  -0.25    -0.00   0.04   0.09
   6   1    -0.07  -0.03   0.03     0.17   0.22  -0.13     0.31   0.40   0.02
   7   1    -0.16  -0.14   0.18    -0.03  -0.20   0.26     0.24  -0.27   0.30
   8   1    -0.14  -0.20  -0.09    -0.29  -0.11  -0.28    -0.23  -0.02  -0.18
   9   1    -0.00   0.17   0.09     0.16   0.09   0.10    -0.05  -0.10  -0.06
  10   1     0.07   0.08  -0.11     0.12   0.09  -0.11    -0.09  -0.06   0.06
  11   1    -0.00   0.05   0.01    -0.06  -0.09   0.14     0.06   0.02  -0.05
  12   1    -0.01   0.07   0.00    -0.06   0.09   0.12     0.04  -0.07  -0.05
  13   1    -0.08   0.11   0.09     0.13  -0.08  -0.09    -0.10   0.14   0.09
  14   1    -0.00   0.15  -0.14     0.12  -0.08   0.12    -0.14   0.09  -0.12
  15   1     0.17  -0.15  -0.12    -0.14   0.08   0.05     0.02  -0.15  -0.13
                      4                      5                      6
                        a                      a                      a 
 Frequencies --   258.9381               323.2551               401.6451
 Red. masses --     6.5437                 4.8863                 7.0668
 Frc consts  --     0.0000                 0.0000                 0.0000
 IR Inten    --    37.8414               174.6187                 9.7507
 Raman Activ --     0.0000                 0.0000                 0.0000
 Depolar     --     0.0000                 0.0000                 0.0000
 Atom AN      X      Y      Z        X      Y      Z        X      Y      Z
   1   6    -0.26   0.09  -0.10    -0.24   0.11  -0.09     0.21  -0.19   0.08
   2   6    -0.32  -0.22   0.11    -0.12  -0.02   0.13    -0.11  -0.05  -0.32
   3   6    -0.01   0.08  -0.02     0.07  -0.00  -0.05    -0.35   0.13   0.15
   4   6     0.21  -0.08  -0.10     0.22  -0.19  -0.01     0.03  -0.06  -0.16
   5   8     0.36   0.07   0.05     0.13   0.28   0.14     0.21   0.24   0.13
   6   1     0.04   0.14  -0.10    -0.02   0.03  -0.10    -0.02   0.01   0.18
   7   1    -0.02  -0.06   0.05    -0.08   0.04  -0.02     0.15  -0.11   0.01
   8   1    -0.23   0.06  -0.09    -0.13   0.07  -0.03     0.16  -0.11   0.04
   9   1    -0.15  -0.15  -0.08    -0.08  -0.02  -0.00    -0.03  -0.02  -0.09
  10   1    -0.11  -0.14   0.16    -0.03  -0.04   0.08    -0.04  -0.02  -0.07
  11   1    -0.04   0.02  -0.03    -0.03   0.01  -0.06    -0.20  -0.22   0.25
  12   1     0.06   0.02   0.03     0.06  -0.02  -0.01    -0.20   0.32   0.18
  13   1     0.05  -0.11  -0.09     0.09  -0.10  -0.07    -0.01  -0.10  -0.10
  14   1     0.11  -0.05   0.05     0.07  -0.10   0.08     0.07  -0.04   0.04
  15   1     0.18   0.43   0.26    -0.14  -0.64  -0.39     0.06  -0.08  -0.08
                      7                      8                      9
                        a                      a                      a 
 Frequencies --   462.6535               779.8771               846.2916
 Red. masses --     8.3784                 3.2609                 6.8344
 Frc consts  --     0.0000                 0.0000                 0.0000
 IR Inten    --     2.6433                 9.7143                18.5668
 Raman Activ --     0.0000                 0.0000                 0.0000
 Depolar     --     0.0000                 0.0000                 0.0000
 Atom AN      X      Y      Z        X      Y      Z        X      Y      Z
   1   6    -0.08   0.11   0.02    -0.01  -0.07  -0.06    -0.22   0.13   0.06
   2   6     0.14   0.04   0.24    -0.22  -0.21  -0.01    -0.22   0.02  -0.32
   3   6    -0.09  -0.47   0.06    -0.19  -0.04   0.14     0.19  -0.29  -0.03
   4   6    -0.18  -0.06  -0.38     0.00   0.14   0.08     0.33  -0.04   0.27
   5   8     0.22   0.26   0.06     0.10   0.05  -0.07     0.03   0.04  -0.08
   6   1     0.00  -0.05  -0.09     0.03   0.12   0.05    -0.10   0.16   0.17
   7   1    -0.10   0.10  -0.02     0.28  -0.08  -0.21     0.10  -0.04  -0.04
   8   1    -0.05   0.07   0.02    -0.02   0.19   0.15     0.00   0.07   0.08
   9   1     0.18   0.07   0.20     0.18   0.19   0.34    -0.08   0.10  -0.02
  10   1     0.02   0.15  -0.10     0.11   0.11  -0.42    -0.02   0.04  -0.17
  11   1    -0.13  -0.22   0.04     0.09   0.20  -0.10    -0.00  -0.21   0.09
  12   1     0.01  -0.02   0.11     0.09  -0.25  -0.05    -0.06   0.06   0.02
  13   1    -0.06   0.13   0.02     0.03  -0.08  -0.10     0.09   0.27   0.30
  14   1    -0.21  -0.02  -0.22     0.17   0.05   0.14    -0.14   0.05  -0.19
  15   1     0.15   0.10  -0.03     0.07  -0.00  -0.06    -0.18   0.00   0.13
                     10                     11                     12
                        a                      a                      a 
 Frequencies --   881.0937               965.4852               991.7731
 Red. masses --     5.4385                 6.6362                 5.6963
 Frc consts  --     0.0000                 0.0000                 0.0000
 IR Inten    --    14.2847                43.5033                 5.1262
 Raman Activ --     0.0000                 0.0000                 0.0000
 Depolar     --     0.0000                 0.0000                 0.0000
 Atom AN      X      Y      Z        X      Y      Z        X      Y      Z
   1   6    -0.04  -0.10   0.11     0.26  -0.27  -0.05     0.03   0.05   0.25
   2   6     0.03  -0.12   0.09    -0.03   0.06   0.22     0.04  -0.09  -0.15
   3   6     0.29   0.23  -0.25    -0.30   0.13  -0.09    -0.04  -0.26  -0.19
   4   6    -0.04  -0.02  -0.19     0.10  -0.17   0.22    -0.11   0.24   0.30
   5   8    -0.20  -0.14   0.17     0.17   0.14  -0.19     0.13   0.04  -0.17
   6   1     0.15   0.02  -0.15     0.22  -0.14  -0.27     0.12  -0.16  -0.23
   7   1     0.13   0.01  -0.18     0.02   0.02  -0.11    -0.23   0.17   0.07
   8   1    -0.20   0.29   0.17    -0.12   0.11   0.02    -0.18   0.09   0.01
   9   1    -0.15   0.24   0.16    -0.15   0.10   0.05    -0.07   0.04  -0.03
  10   1     0.16  -0.04  -0.13     0.01  -0.01   0.07    -0.17   0.12  -0.03
  11   1    -0.01  -0.19   0.16    -0.19   0.06  -0.12     0.20  -0.16   0.21
  12   1     0.01   0.37   0.11    -0.20  -0.03  -0.13    -0.23   0.05  -0.08
  13   1    -0.06  -0.06  -0.04    -0.07   0.12   0.26     0.03  -0.13  -0.13
  14   1    -0.07  -0.06   0.00    -0.08   0.07  -0.20     0.16   0.03   0.25
  15   1    -0.02   0.00   0.04    -0.20  -0.01   0.11     0.09   0.01  -0.08
                     13                     14                     15
                        a                      a                      a 
 Frequencies --  1041.4609              1091.4704              1119.9275
 Red. masses --     7.7257                 4.4719                 8.2954
 Frc consts  --     0.0000                 0.0000                 0.0000
 IR Inten    --    33.4479                69.8376                45.5431
 Raman Activ --     0.0000                 0.0000                 0.0000
 Depolar     --     0.0000                 0.0000                 0.0000
 Atom AN      X      Y      Z        X      Y      Z        X      Y      Z
   1   6    -0.25   0.04   0.09    -0.04   0.21   0.14     0.10  -0.03  -0.30
   2   6     0.29   0.02  -0.07     0.07  -0.33  -0.06    -0.24   0.09   0.29
   3   6     0.07   0.07   0.13    -0.02   0.23  -0.09     0.23  -0.01  -0.17
   4   6    -0.38  -0.29   0.12    -0.08  -0.14  -0.01    -0.30  -0.05   0.34
   5   8     0.21   0.15  -0.25     0.15   0.07  -0.09     0.16   0.05  -0.26
   6   1    -0.06   0.17   0.14    -0.05  -0.04   0.02    -0.08   0.04   0.11
   7   1     0.15  -0.07  -0.08    -0.17   0.09   0.15     0.08  -0.09  -0.00
   8   1    -0.04   0.13   0.14     0.01  -0.06  -0.05     0.18  -0.17  -0.11
   9   1    -0.11   0.01  -0.12     0.29  -0.13   0.10     0.01   0.05   0.14
  10   1     0.29  -0.25   0.11    -0.02   0.06  -0.18    -0.10   0.11  -0.00
  11   1     0.15   0.07   0.08     0.10   0.05   0.06    -0.08  -0.16   0.05
  12   1    -0.20  -0.06  -0.13     0.16   0.08   0.08     0.17   0.21   0.17
  13   1    -0.09  -0.07   0.02    -0.34  -0.20   0.15    -0.07  -0.11  -0.00
  14   1    -0.06  -0.04  -0.01     0.07   0.10  -0.14    -0.12  -0.11   0.18
  15   1     0.09   0.04  -0.08    -0.39  -0.09   0.23     0.05   0.02  -0.06
                     16                     17                     18
                        a                      a                      a 
 Frequencies --  1134.6555              1165.9107              1223.3960
 Red. masses --     7.5212                 4.4197                 4.0919
 Frc consts  --     0.0000                 0.0000                 0.0000
 IR Inten    --     3.3621                18.1655                11.8998
 Raman Activ --     0.0000                 0.0000                 0.0000
 Depolar     --     0.0000                 0.0000                 0.0000
 Atom AN      X      Y      Z        X      Y      Z        X      Y      Z
   1   6     0.19  -0.05   0.05    -0.02  -0.12  -0.18     0.10   0.20  -0.17
   2   6    -0.31   0.14  -0.25    -0.01   0.27   0.13    -0.10  -0.24   0.25
   3   6     0.25   0.09   0.40     0.05  -0.28   0.07     0.01   0.10  -0.07
   4   6    -0.16  -0.32  -0.11    -0.04   0.16  -0.22     0.10  -0.13  -0.09
   5   8     0.02   0.05  -0.03     0.08  -0.00   0.08    -0.11   0.03   0.07
   6   1     0.11  -0.14  -0.18    -0.02   0.06   0.05    -0.12  -0.03   0.10
   7   1    -0.13   0.10   0.02     0.15  -0.10  -0.09    -0.08  -0.01   0.16
   8   1    -0.08   0.00  -0.06     0.06   0.01   0.02     0.17  -0.20  -0.15
   9   1    -0.18   0.16  -0.01    -0.24   0.12  -0.06    -0.13   0.19   0.22
  10   1    -0.16   0.11  -0.08    -0.07   0.04   0.15     0.08  -0.03  -0.09
  11   1     0.29   0.15   0.12     0.23  -0.05   0.15     0.29   0.01   0.21
  12   1     0.19  -0.10   0.09    -0.05  -0.07  -0.02    -0.43   0.01  -0.25
  13   1     0.00   0.03   0.02    -0.26  -0.22  -0.03     0.06   0.08   0.04
  14   1    -0.09  -0.06  -0.10     0.32   0.20  -0.03     0.09   0.09  -0.15
  15   1     0.06   0.03  -0.04    -0.36  -0.09   0.25     0.15   0.05  -0.09
                     19                     20                     21
                        a                      a                      a 
 Frequencies --  1261.3739              1299.8141              1331.3991
 Red. masses --     2.9397                 2.5644                 3.4359
 Frc consts  --     0.0000                 0.0000                 0.0000
 IR Inten    --    12.0134                27.2582                41.9269
 Raman Activ --     0.0000                 0.0000                 0.0000
 Depolar     --     0.0000                 0.0000                 0.0000
 Atom AN      X      Y      Z        X      Y      Z        X      Y      Z
   1   6     0.15   0.20   0.02    -0.02  -0.06  -0.04    -0.02  -0.01  -0.05
   2   6    -0.04  -0.11  -0.09     0.00  -0.03   0.07     0.13  -0.15  -0.05
   3   6    -0.01  -0.11   0.11    -0.00   0.12   0.06     0.18   0.04   0.23
   4   6    -0.07   0.19  -0.03    -0.02   0.14  -0.15     0.23   0.14  -0.03
   5   8     0.13  -0.05  -0.02     0.21  -0.10  -0.01    -0.09   0.02  -0.06
   6   1    -0.03  -0.07   0.00    -0.01   0.05   0.04    -0.04   0.05   0.08
   7   1    -0.17   0.09   0.15     0.03  -0.02  -0.03    -0.03  -0.00   0.02
   8   1     0.04  -0.11  -0.12     0.00   0.02   0.03    -0.01   0.04   0.03
   9   1    -0.37   0.30   0.05     0.11  -0.08   0.02    -0.13   0.11   0.02
  10   1     0.40  -0.30  -0.10    -0.17   0.14   0.00    -0.27   0.20  -0.01
  11   1    -0.27  -0.03  -0.17     0.19   0.08   0.10    -0.24   0.00  -0.15
  12   1     0.08  -0.08   0.04    -0.26  -0.02  -0.16    -0.21  -0.09  -0.14
  13   1     0.02  -0.04  -0.11     0.23   0.13  -0.19    -0.46  -0.35   0.16
  14   1    -0.11  -0.12   0.15    -0.46  -0.37   0.19    -0.23  -0.15   0.04
  15   1    -0.20  -0.05   0.14    -0.33  -0.10   0.23     0.15   0.04  -0.12
                     22                     23                     24
                        a                      a                      a 
 Frequencies --  1347.2662              1354.7347              1413.6864
 Red. masses --     4.5347                 4.7101                 3.2004
 Frc consts  --     0.0000                 0.0000                 0.0000
 IR Inten    --     7.8361                19.9560                 0.9849
 Raman Activ --     0.0000                 0.0000                 0.0000
 Depolar     --     0.0000                 0.0000                 0.0000
 Atom AN      X      Y      Z        X      Y      Z        X      Y      Z
   1   6     0.07  -0.01   0.11    -0.02   0.02  -0.03    -0.28   0.23   0.23
   2   6    -0.41   0.28   0.03     0.14   0.02   0.03     0.08  -0.07   0.00
   3   6     0.12  -0.08   0.01    -0.44  -0.06  -0.17     0.01   0.04   0.03
   4   6     0.15   0.11  -0.05     0.28   0.05   0.04    -0.01  -0.00  -0.02
   5   8    -0.04   0.00  -0.02    -0.05   0.00  -0.05     0.01  -0.00  -0.01
   6   1     0.09  -0.09  -0.14    -0.00   0.04   0.02     0.19  -0.19  -0.43
   7   1     0.03   0.03  -0.06     0.01  -0.01   0.00     0.43  -0.15  -0.20
   8   1    -0.02  -0.07  -0.06     0.04  -0.02   0.00     0.28  -0.40  -0.15
   9   1     0.35  -0.26  -0.01    -0.17   0.11  -0.01    -0.10   0.03  -0.04
  10   1     0.38  -0.28  -0.04     0.07  -0.07   0.08    -0.07   0.09  -0.05
  11   1     0.08  -0.06   0.09     0.42   0.09   0.23    -0.05  -0.02  -0.00
  12   1    -0.18  -0.03  -0.11     0.34  -0.00   0.21     0.01  -0.05  -0.02
  13   1    -0.25  -0.19   0.08    -0.16  -0.09   0.14    -0.01   0.04   0.04
  14   1    -0.13  -0.10   0.04    -0.30  -0.21   0.04    -0.00  -0.03   0.05
  15   1     0.05   0.01  -0.05     0.11   0.03  -0.09    -0.01   0.00   0.01
                     25                     26                     27
                        a                      a                      a 
 Frequencies --  1466.4567              1474.5097              1492.0295
 Red. masses --     1.8942                 1.8284                 1.8525
 Frc consts  --     0.0000                 0.0000                 0.0000
 IR Inten    --     1.0154                 1.5694                 0.2126
 Raman Activ --     0.0000                 0.0000                 0.0000
 Depolar     --     0.0000                 0.0000                 0.0000
 Atom AN      X      Y      Z        X      Y      Z        X      Y      Z
   1   6    -0.02  -0.04  -0.03     0.04   0.02  -0.03     0.02   0.00  -0.06
   2   6    -0.00   0.02  -0.01     0.00   0.00  -0.06     0.02   0.03   0.26
   3   6    -0.01   0.26  -0.04    -0.01   0.10  -0.03    -0.00   0.04   0.01
   4   6     0.01   0.03   0.09    -0.05  -0.05  -0.22    -0.01  -0.02  -0.03
   5   8    -0.01  -0.01   0.02     0.02   0.00  -0.03    -0.00   0.00  -0.01
   6   1     0.06   0.08  -0.02    -0.09  -0.09   0.04    -0.02  -0.07  -0.02
   7   1    -0.05   0.01   0.02     0.02  -0.05   0.06    -0.03  -0.09   0.17
   8   1     0.08   0.01   0.06    -0.09   0.07   0.00     0.03   0.12   0.12
   9   1     0.01   0.03   0.03     0.08   0.06   0.10    -0.29  -0.34  -0.46
  10   1    -0.02  -0.01   0.04    -0.04  -0.05   0.12     0.18   0.26  -0.56
  11   1    -0.17  -0.46   0.39    -0.07  -0.18   0.14    -0.01  -0.05   0.06
  12   1     0.23  -0.52  -0.23     0.08  -0.20  -0.10     0.03  -0.06  -0.02
  13   1     0.08  -0.13  -0.19    -0.15   0.38   0.44    -0.02   0.06   0.07
  14   1    -0.10   0.08  -0.20     0.27  -0.19   0.51     0.04  -0.04   0.08
  15   1    -0.01   0.00   0.01     0.00   0.00  -0.01     0.02   0.01  -0.02
                     28                     29                     30
                        a                      a                      a 
 Frequencies --  1500.7148              1503.8302              2892.5592
 Red. masses --     1.6175                 1.5768                 1.7642
 Frc consts  --     0.0000                 0.0000                 0.0000
 IR Inten    --     1.0688                 1.4188                89.7265
 Raman Activ --     0.0000                 0.0000                 0.0000
 Depolar     --     0.0000                 0.0000                 0.0000
 Atom AN      X      Y      Z        X      Y      Z        X      Y      Z
   1   6    -0.15  -0.04  -0.14    -0.04  -0.17   0.10     0.00   0.00   0.00
   2   6    -0.06   0.00  -0.08     0.00  -0.04   0.07     0.00   0.00  -0.00
   3   6     0.02  -0.04   0.01     0.00   0.01  -0.01    -0.00  -0.00   0.01
   4   6    -0.01  -0.00  -0.02    -0.01  -0.02  -0.05     0.12  -0.21  -0.09
   5   8     0.00   0.00  -0.01    -0.00   0.00  -0.00     0.01   0.00  -0.01
   6   1     0.29   0.16  -0.29     0.28   0.56   0.07     0.00  -0.00   0.00
   7   1    -0.20  -0.14   0.40    -0.28   0.42  -0.36    -0.01  -0.01  -0.01
   8   1     0.52   0.15   0.44     0.17  -0.26  -0.10     0.00   0.00  -0.00
   9   1     0.07   0.05   0.08    -0.07  -0.04  -0.06    -0.00  -0.00   0.00
  10   1     0.00  -0.08   0.08     0.03   0.04  -0.11     0.00   0.00  -0.00
  11   1     0.01   0.06  -0.06    -0.00  -0.00   0.00     0.02  -0.04  -0.03
  12   1    -0.04   0.07   0.03    -0.01   0.00  -0.01     0.00   0.01  -0.01
  13   1    -0.02   0.03   0.04    -0.03   0.09   0.11    -0.06   0.04  -0.10
  14   1     0.02  -0.02   0.05     0.10  -0.03   0.12    -0.40   0.73   0.48
  15   1    -0.00  -0.00  -0.00     0.01   0.00  -0.00    -0.00   0.00   0.00
                     31                     32                     33
                        a                      a                      a 
 Frequencies --  2960.5440              2970.6035              2976.0613
 Red. masses --     1.9445                 1.6615                 1.7669
 Frc consts  --     0.0000                 0.0000                 0.0000
 IR Inten    --    65.3904                55.6572                24.8826
 Raman Activ --     0.0000                 0.0000                 0.0000
 Depolar     --     0.0000                 0.0000                 0.0000
 Atom AN      X      Y      Z        X      Y      Z        X      Y      Z
   1   6    -0.01  -0.01   0.00    -0.00  -0.00  -0.00    -0.01   0.00   0.00
   2   6     0.17   0.23  -0.07     0.01   0.01   0.01     0.03   0.03   0.10
   3   6    -0.00  -0.01   0.02     0.03   0.02  -0.04     0.12  -0.09  -0.18
   4   6    -0.00   0.00   0.00     0.14  -0.10   0.16    -0.01  -0.00  -0.03
   5   8    -0.00   0.00   0.00    -0.01  -0.00   0.01     0.00   0.00  -0.00
   6   1    -0.00  -0.00  -0.00     0.00  -0.00   0.00     0.01  -0.01   0.01
   7   1     0.02   0.04   0.03     0.00   0.01   0.01     0.01   0.01   0.01
   8   1     0.02   0.03  -0.04    -0.00   0.00  -0.00    -0.00   0.00  -0.00
   9   1    -0.30  -0.45   0.54     0.01   0.01  -0.01     0.13   0.19  -0.19
  10   1    -0.30  -0.37  -0.28    -0.04  -0.05  -0.03    -0.23  -0.30  -0.19
  11   1    -0.02   0.02   0.02    -0.01   0.03   0.02    -0.33   0.50   0.45
  12   1     0.05   0.06  -0.09    -0.09  -0.10   0.16    -0.11  -0.16   0.20
  13   1     0.00  -0.00   0.00    -0.55   0.49  -0.57     0.07  -0.07   0.07
  14   1     0.00  -0.00  -0.00     0.07  -0.11  -0.04    -0.03   0.05   0.03
  15   1    -0.00  -0.00   0.00     0.01  -0.01   0.01    -0.00   0.00  -0.00
                     34                     35                     36
                        a                      a                      a 
 Frequencies --  2984.2202              2992.1655              3030.9334
 Red. masses --     1.6647                 1.5498                 1.9264
 Frc consts  --     0.0000                 0.0000                 0.0000
 IR Inten    --   119.3136                77.0380                81.7971
 Raman Activ --     0.0000                 0.0000                 0.0000
 Depolar     --     0.0000                 0.0000                 0.0000
 Atom AN      X      Y      Z        X      Y      Z        X      Y      Z
   1   6    -0.02   0.01  -0.02    -0.00  -0.00   0.00    -0.04  -0.21   0.19
   2   6     0.04   0.04   0.17     0.03   0.04   0.02    -0.01  -0.02   0.02
   3   6    -0.08   0.02   0.14     0.04   0.18  -0.09    -0.00  -0.00   0.01
   4   6    -0.00   0.00   0.01    -0.03   0.03  -0.03     0.00  -0.00   0.00
   5   8    -0.00  -0.00  -0.00     0.00   0.00  -0.00    -0.00   0.00  -0.00
   6   1     0.05  -0.03   0.04     0.01  -0.00   0.01    -0.30   0.13  -0.20
   7   1     0.02   0.04   0.02     0.00   0.01   0.00     0.09   0.10   0.11
   8   1    -0.02  -0.02   0.02     0.01   0.01  -0.02     0.36   0.51  -0.59
   9   1     0.22   0.32  -0.32     0.00   0.01   0.00     0.03   0.05  -0.05
  10   1    -0.35  -0.45  -0.28    -0.10  -0.13  -0.09     0.00   0.00   0.00
  11   1     0.17  -0.27  -0.23     0.21  -0.28  -0.30     0.00  -0.01  -0.01
  12   1     0.14   0.18  -0.26    -0.34  -0.39   0.64     0.01   0.01  -0.02
  13   1    -0.02   0.02  -0.02     0.11  -0.09   0.11    -0.00   0.00  -0.00
  14   1     0.01  -0.02  -0.01    -0.01   0.01   0.00    -0.00  -0.00   0.00
  15   1     0.00   0.00   0.00    -0.00   0.00  -0.00     0.00   0.00   0.00
                     37                     38                     39
                        a                      a                      a 
 Frequencies --  3032.2930              3043.8912              3499.1766
 Red. masses --     1.9370                 1.2791                 1.8734
 Frc consts  --     0.0000                 0.0000                 0.0000
 IR Inten    --    79.9752                41.9964                61.8880
 Raman Activ --     0.0000                 0.0000                 0.0000
 Depolar     --     0.0000                 0.0000                 0.0000
 Atom AN      X      Y      Z        X      Y      Z        X      Y      Z
   1   6     0.24   0.08   0.15     0.06  -0.13  -0.07     0.00   0.00   0.00
   2   6     0.02   0.02   0.02     0.00  -0.01  -0.00    -0.00  -0.00   0.00
   3   6    -0.00   0.00   0.00     0.00   0.00  -0.00    -0.00   0.00  -0.00
   4   6     0.00   0.00   0.00    -0.00  -0.00  -0.00    -0.00   0.00  -0.01
   5   8     0.00  -0.00   0.00     0.00   0.00  -0.00    -0.13   0.13  -0.16
   6   1    -0.48   0.30  -0.37    -0.41   0.22  -0.33    -0.00  -0.00   0.00
   7   1    -0.32  -0.48  -0.29     0.37   0.50   0.32    -0.00  -0.00  -0.00
   8   1    -0.04  -0.10   0.14    -0.16  -0.26   0.27    -0.00  -0.00   0.00
   9   1     0.01   0.01  -0.01     0.00   0.01  -0.01     0.00   0.00  -0.00
  10   1    -0.05  -0.06  -0.04     0.01   0.00   0.00     0.00   0.00   0.00
  11   1     0.01  -0.01  -0.01     0.00  -0.00  -0.00     0.00  -0.00  -0.00
  12   1     0.00   0.01  -0.01    -0.00  -0.00   0.01    -0.00  -0.00   0.00
  13   1    -0.00   0.00  -0.00     0.00  -0.00   0.00     0.01  -0.01   0.00
  14   1     0.00  -0.01  -0.01    -0.00   0.01   0.01    -0.00   0.00   0.00
  15   1    -0.00   0.00  -0.00    -0.00  -0.00   0.00     0.51  -0.51   0.65
