      -----------------------------------------------------------      
     |                   =====================                   |     
     |                           x T B                           |     
     |                   =====================                   |     
     |                         S. Grimme                         |     
     |          Mulliken Center for Theoretical Chemistry        |     
     |                    University of Bonn                     |     
      -----------------------------------------------------------      

   * xtb version 6.7.1 (edcfbbe) compiled by 'albert@albert-system' on 2024-07-22

   xtb is free software: you can redistribute it and/or modify it under
   the terms of the GNU Lesser General Public License as published by
   the Free Software Foundation, either version 3 of the License, or
   (at your option) any later version.
   
   xtb is distributed in the hope that it will be useful,
   but WITHOUT ANY WARRANTY; without even the implied warranty of
   MERCHANTABILITY or FITNESS FOR A PARTICULAR PURPOSE.  See the
   GNU Lesser General Public License for more details.
   
   Cite this work as:
   * C. Bannwarth, E. Caldeweyher, S. Ehlert, A. Hansen, P. Pracht,
     J. Seibert, S. Spicher, S. Grimme, WIREs Comput. Mol. Sci., 2020, 11,
     e01493. DOI: 10.1002/wcms.1493
   
   for GFN2-xTB:
   * C. Bannwarth, S. Ehlert and S. Grimme., J. Chem. Theory Comput., 2019,
     15, 1652-1671. DOI: 10.1021/acs.jctc.8b01176
   for GFN1-xTB:
   * S. Grimme, C. Bannwarth, P. Shushkov, J. Chem. Theory Comput., 2017,
     13, 1989-2009. DOI: 10.1021/acs.jctc.7b00118
   for GFN0-xTB:
   * P. Pracht, E. Caldeweyher, S. Ehlert, S. Grimme, ChemRxiv, 2019, preprint.
     DOI: 10.26434/chemrxiv.8326202.v1
   for GFN-FF:
   * S. Spicher and S. Grimme, Angew. Chem. Int. Ed., 2020, 59, 15665-15673.
     DOI: 10.1002/anie.202004239
   
   for ALPB and GBSA implicit solvation:
   * S. Ehlert, M. Stahn, S. Spicher, S. Grimme, J. Chem. Theory Comput.,
     2021, 17, 4250-4261. DOI: 10.1021/acs.jctc.1c00471
   
   for ddCOSMO and CPCM-X implicit solvation:
   * M. Stahn, S. Ehlert, S. Grimme, J. Phys. Chem. A,
     2023, XX, XXXX-XXXX. DOI: 10.1021/acs.jpca.3c04382
   
   for DFT-D4:
   * E. Caldeweyher, C. Bannwarth and S. Grimme, J. Chem. Phys., 2017,
     147, 034112. DOI: 10.1063/1.4993215
   * E. Caldeweyher, S. Ehlert, A. Hansen, H. Neugebauer, S. Spicher,
     C. Bannwarth and S. Grimme, J. Chem. Phys., 2019, 150, 154122.
     DOI: 10.1063/1.5090222
   * E. Caldeweyher, J.-M. Mewes, S. Ehlert and S. Grimme, Phys. Chem. Chem. Phys.
     2020, 22, 8499-8512. DOI: 10.1039/D0CP00502A
   
   for sTDA-xTB:
   * S. Grimme and C. Bannwarth, J. Chem. Phys., 2016, 145, 054103.
     DOI: 10.1063/1.4959605
   
   in the mass-spec context:
   * V. Asgeirsson, C. Bauer and S. Grimme, Chem. Sci., 2017, 8, 4879.
     DOI: 10.1039/c7sc00601b
   * J. Koopman and S. Grimme, ACS Omega 2019, 4, 12, 15120-15133.
     DOI: 10.1021/acsomega.9b02011
   
   for metadynamics refer to:
   * S. Grimme, J. Chem. Theory Comput., 2019, 155, 2847-2862
     DOI: 10.1021/acs.jctc.9b00143
   
   for SPH calculations refer to:
   * S. Spicher and S. Grimme, J. Chem. Theory Comput., 2021, 17, 1701-1714
     DOI: 10.1021/acs.jctc.0c01306
   
   for ONIOM refer to:
   * C. Plett, A. Katbashev, S. Ehlert, S. Grimme, M. Bursch,
     Phys. Chem. Chem. Phys., 2023, 25, 17860-17868. DOI: 10.1039/D3CP02178E
   
   for DIPRO refer to:
   * J. Kohn, N. Gildemeister, S. Grimme, D. Fazzi, A. Hansen,
     J. Chem. Phys., 2023, just accepted.
   
   for PTB refer to:
   * S. Grimme, M. Mueller, A. Hansen, J. Chem. Phys., 2023, 158, 124111.
     DOI: 10.1063/5.0137838
   
   with help from (in alphabetical order)
   P. Atkinson, C. Bannwarth, F. Bohle, G. Brandenburg, E. Caldeweyher
   M. Checinski, S. Dohm, S. Ehlert, S. Ehrlich, I. Gerasimov, C. Hölzer
   A. Katbashev, J. Kohn, J. Koopman, C. Lavigne, S. Lehtola, F. März, M. Müller,
   F. Musil, H. Neugebauer, J. Pisarek, C. Plett, P. Pracht, F. Pultar,
   J. Seibert, P. Shushkov, S. Spicher, M. Stahn, M. Steiner, T. Strunk,
   J. Stückrath, T. Rose, and J. Unsleber
   
 * started run on 2025/04/06 at 22:38:50.624     
   ID    Z sym.   atoms
    1    6 C      1-4
    2    8 O      5
    3    1 H      6-15

           -------------------------------------------------
          |                Calculation Setup                |
           -------------------------------------------------

          program call               : /srv/scratch/z5358697/.xtb/bin/xtb xtb_rrho.coord --gfn2 --ohess vtight --chrg 0 --enso --norestart -I rrho-xcontrol-inp --parallel 1 --alpb water
          hostname                   : k159
          coordinate file            : xtb_rrho.coord
          omp threads                :                     1


           -------------------------------------------------
          |                 G F N 2 - x T B                 |
           -------------------------------------------------

        Reference                      10.1021/acs.jctc.8b01176
      * Hamiltonian:
        H0-scaling (s, p, d)           1.850000    2.230000    2.230000
        zeta-weighting                 0.500000
      * Dispersion:
        s8                             2.700000
        a1                             0.520000
        a2                             5.000000
        s9                             5.000000
      * Repulsion:
        kExp                           1.500000    1.000000
        rExp                           1.000000
      * Coulomb:
        alpha                          2.000000
        third order                    shell-resolved
        anisotropic                    true
        a3                             3.000000
        a5                             4.000000
        cn-shift                       1.200000
        cn-exp                         4.000000
        max-rad                        5.000000

      * Solvation model:               ALPB
        Solvent                        water
        Parameter file                 internal GFN2-xTB/ALPB
        Dielectric constant                8.0200E+01
        Reference state                gsolv [1 M gas/solution]
        Free energy shift                  1.0808E-03 Eh       6.7819E-01 kcal/mol
        Temperature                        2.9815E+02 K
        Density                            1.0000E+00 kg/L
        Solvent mass                       1.8000E+01 g/mol
        Interaction kernel             P16
        Born radius scaling (c1)           1.4744E+00
        Born radii integrator          GBOBC
        Born offset                        0.0000E+00 a0       0.0000E+00 AA
        H-bond correction              true
        Ion screening                  false
        Surface tension                    1.0000E-05 Eh       1.5569E+01 dyn/cm
        Grid points                               974 per atom

          ...................................................
          :                      SETUP                      :
          :.................................................:
          :  # basis functions                  30          :
          :  # atomic orbitals                  30          :
          :  # shells                           20          :
          :  # electrons                        32          :
          :  max. iterations                   250          :
          :  Hamiltonian                  GFN2-xTB          :
          :  restarted?                      false          :
          :  GBSA solvation                   true          :
          :  PC potential                    false          :
          :  electronic temp.          300.0000000     K    :
          :  accuracy                    1.0000000          :
          :  -> integral cutoff          0.2500000E+02      :
          :  -> integral neglect         0.1000000E-07      :
          :  -> SCF convergence          0.1000000E-05 Eh   :
          :  -> wf. convergence          0.1000000E-03 e    :
          :  Broyden damping             0.4000000          :
          :  net charge                          0          :
          :  unpaired electrons                  0          :
          ...................................................

 iter      E             dE          RMSdq      gap      omega  full diag
   1    -17.9050708 -0.179051E+02  0.317E+00   12.06       0.0  T
   2    -17.9316566 -0.265857E-01  0.162E+00   11.87       1.0  T
   3    -17.9323858 -0.729240E-03  0.612E-01   11.87       1.0  T
   4    -17.9325242 -0.138378E-03  0.112E-01   11.85       1.0  T
   5    -17.9325404 -0.162203E-04  0.609E-02   11.86       1.0  T
   6    -17.9325427 -0.227965E-05  0.117E-02   11.86       2.2  T
   7    -17.9325429 -0.223955E-06  0.505E-03   11.86       5.1  T
   8    -17.9325430 -0.454447E-07  0.191E-03   11.86      13.5  T
   9    -17.9325430 -0.403682E-08  0.558E-04   11.86      46.3  T
  10    -17.9325430 -0.868525E-09  0.151E-04   11.86     170.5  T

   *** convergence criteria satisfied after 10 iterations ***

         #    Occupation            Energy/Eh            Energy/eV
      -------------------------------------------------------------
         1        2.0000           -0.6835772             -18.6011
       ...           ...                  ...                  ...
        10        2.0000           -0.4899710             -13.3328
        11        2.0000           -0.4684143             -12.7462
        12        2.0000           -0.4554764             -12.3941
        13        2.0000           -0.4428498             -12.0506
        14        2.0000           -0.4307676             -11.7218
        15        2.0000           -0.4280142             -11.6469
        16        2.0000           -0.4083639             -11.1121 (HOMO)
        17                          0.0276349               0.7520 (LUMO)
        18                          0.0904828               2.4622
        19                          0.0961548               2.6165
        20                          0.1167283               3.1763
        21                          0.1236029               3.3634
       ...                                ...                  ...
        30                          0.2852908               7.7632
      -------------------------------------------------------------
                  HL-Gap            0.4359988 Eh           11.8641 eV
             Fermi-level           -0.1903645 Eh           -5.1801 eV

 SCC (total)                   0 d,  0 h,  0 min,  0.021 sec
 SCC setup                      ...        0 min,  0.001 sec (  3.394%)
 Dispersion                     ...        0 min,  0.000 sec (  0.263%)
 classical contributions        ...        0 min,  0.000 sec (  0.069%)
 integral evaluation            ...        0 min,  0.001 sec (  4.051%)
 iterations                     ...        0 min,  0.017 sec ( 81.741%)
 molecular gradient             ...        0 min,  0.002 sec (  9.970%)
 printout                       ...        0 min,  0.000 sec (  0.458%)

         :::::::::::::::::::::::::::::::::::::::::::::::::::::
         ::                     SUMMARY                     ::
         :::::::::::::::::::::::::::::::::::::::::::::::::::::
         :: total energy             -17.725707502308 Eh    ::
         :: total w/o Gsasa/hb       -17.723679266117 Eh    ::
         :: gradient norm              0.026565890945 Eh/a0 ::
         :: HOMO-LUMO gap             11.864132345720 eV    ::
         ::.................................................::
         :: SCC energy               -17.932529884701 Eh    ::
         :: -> isotropic ES            0.035308727374 Eh    ::
         :: -> anisotropic ES          0.003723866738 Eh    ::
         :: -> anisotropic XC          0.006685644062 Eh    ::
         :: -> dispersion             -0.007393802440 Eh    ::
         :: -> Gsolv                  -0.006687686752 Eh    ::
         ::    -> Gelec               -0.004659450561 Eh    ::
         ::    -> Gsasa                0.000848302448 Eh    ::
         ::    -> Ghb                 -0.003957298337 Eh    ::
         ::    -> Gshift               0.001080759698 Eh    ::
         :: repulsion energy           0.206822382393 Eh    ::
         :: add. restraining           0.000000000000 Eh    ::
         :: total charge              -0.000000000000 e     ::
         :::::::::::::::::::::::::::::::::::::::::::::::::::::

      ----------------------------------------------------------- 
     |                   =====================                   |
     |                        A N C O P T                        |
     |                   =====================                   |
     |               Approximate Normal Coordinate               |
     |                Rational Function Optimizer                |
      ----------------------------------------------------------- 
      ----------------------------------------------------------- 
     |                   =====================                   |
     |                        A N C O P T                        |
     |                   =====================                   |
     |               Approximate Normal Coordinate               |
     |                Rational Function Optimizer                |
      ----------------------------------------------------------- 

          ...................................................
          :                      SETUP                      :
          :.................................................:
          :   optimization level         verytight          :
          :   max. optcycles                   300          :
          :   ANC micro-cycles                  20          :
          :   degrees of freedom                39          :
          :.................................................:
          :   RF solver                   davidson          :
          :   write xtbopt.log                true          :
          :   linear?                        false          :
          :   energy convergence         0.1000000E-06 Eh   :
          :   grad. convergence          0.2000000E-03 Eh/α :
          :   maxmium RF displ.          1.0000000          :
          :   Hlow (freq-cutoff)         0.1000000E-01      :
          :   Hmax (freq-cutoff)         5.0000000          :
          :   S6 in model hess.         20.0000000          :
          ...................................................

generating ANC from exact Hessian ...
Using Lindh-Hessian (1995)
 Shifting diagonal of input Hessian by   7.132085976808608E-003
 Lowest  eigenvalues of input Hessian
    0.000000    0.000000    0.000000    0.000000    0.000000    0.000000
    0.010000    0.012886    0.013269    0.019545    0.021219    0.034105
    0.045781    0.052088    0.057488    0.059669    0.061151    0.061531
 Highest eigenvalues
    1.133054    1.164025    1.204549    1.243384    1.289523    1.409977
 

........................................................................
.............................. CYCLE    1 ..............................
........................................................................

 iter      E             dE          RMSdq      gap      omega  full diag
   1    -17.9325430 -0.179325E+02  0.322E-05   11.86       0.0  T
   2    -17.9325430 -0.589750E-11  0.135E-05   11.86    1910.4  T
   3    -17.9325430 -0.252243E-12  0.860E-06   11.86    3002.3  T
     SCC iter.                  ...        0 min,  0.001 sec
     gradient                   ...        0 min,  0.002 sec
 * total energy  :   -17.7257075 Eh     change       -0.4667911E-10 Eh
   gradient norm :     0.0265668 Eh/α   predicted     0.0000000E+00 (-100.00%)
   displ. norm   :     0.1029110 α      lambda       -0.1138158E-02
   maximum displ.:     0.0647330 α      in ANC's #1, #12, #15, ...

........................................................................
.............................. CYCLE    2 ..............................
........................................................................

 iter      E             dE          RMSdq      gap      omega  full diag
   1    -17.9385995 -0.179386E+02  0.963E-02   12.21       0.0  T
   2    -17.9386066 -0.708647E-05  0.561E-02   12.20       1.0  T
   3    -17.9386069 -0.353973E-06  0.120E-02   12.21       2.1  T
   4    -17.9386072 -0.304344E-06  0.265E-03   12.20       9.7  T
   5    -17.9386073 -0.159870E-07  0.129E-03   12.20      20.0  T
   6    -17.9386073 -0.256031E-08  0.528E-04   12.20      48.9  T
   7    -17.9386073 -0.513381E-09  0.158E-04   12.20     162.9  T
     SCC iter.                  ...        0 min,  0.001 sec
     gradient                   ...        0 min,  0.003 sec
 * total energy  :   -17.7264572 Eh     change       -0.7497336E-03 Eh
   gradient norm :     0.0126512 Eh/α   predicted    -0.5751070E-03 ( -23.29%)
   displ. norm   :     0.0993852 α      lambda       -0.3136561E-03
   maximum displ.:     0.0919311 α      in ANC's #1, #4, #5, ...

........................................................................
.............................. CYCLE    3 ..............................
........................................................................

 iter      E             dE          RMSdq      gap      omega  full diag
   1    -17.9412513 -0.179413E+02  0.507E-02   12.45       0.0  T
   2    -17.9412554 -0.406967E-05  0.296E-02   12.44       1.0  T
   3    -17.9412556 -0.178526E-06  0.103E-02   12.45       2.5  T
   4    -17.9412557 -0.127769E-06  0.179E-03   12.45      14.4  T
   5    -17.9412557 -0.752188E-08  0.874E-04   12.45      29.5  T
   6    -17.9412557 -0.118407E-08  0.395E-04   12.45      65.3  T
     SCC iter.                  ...        0 min,  0.001 sec
     gradient                   ...        0 min,  0.003 sec
 * total energy  :   -17.7266519 Eh     change       -0.1946661E-03 Eh
   gradient norm :     0.0033790 Eh/α   predicted    -0.1583777E-03 ( -18.64%)
   displ. norm   :     0.0867588 α      lambda       -0.8043784E-04
   maximum displ.:     0.0837938 α      in ANC's #1, #4, #5, ...

........................................................................
.............................. CYCLE    4 ..............................
........................................................................

 iter      E             dE          RMSdq      gap      omega  full diag
   1    -17.9411318 -0.179411E+02  0.379E-02   12.52       0.0  T
   2    -17.9411323 -0.517094E-06  0.226E-02   12.52       1.1  T
   3    -17.9411323  0.213975E-08  0.365E-03   12.52       7.1  T
   4    -17.9411323 -0.517472E-07  0.734E-04   12.52      35.2  T
   5    -17.9411323 -0.740602E-09  0.297E-04   12.52      87.0  T
     SCC iter.                  ...        0 min,  0.001 sec
     gradient                   ...        0 min,  0.002 sec
 * total energy  :   -17.7267144 Eh     change       -0.6245189E-04 Eh
   gradient norm :     0.0025231 Eh/α   predicted    -0.4052272E-04 ( -35.11%)
   displ. norm   :     0.0797254 α      lambda       -0.5242493E-04
   maximum displ.:     0.0759824 α      in ANC's #1, #2, #5, ...

........................................................................
.............................. CYCLE    5 ..............................
........................................................................

 iter      E             dE          RMSdq      gap      omega  full diag
   1    -17.9404851 -0.179405E+02  0.358E-02   12.55       0.0  T
   2    -17.9404852 -0.950393E-07  0.213E-02   12.55       1.2  T
   3    -17.9404852 -0.197051E-07  0.128E-03   12.55      20.2  T
   4    -17.9404852 -0.742140E-08  0.631E-04   12.55      40.9  T
   5    -17.9404852 -0.429466E-09  0.244E-04   12.55     106.0  T
     SCC iter.                  ...        0 min,  0.001 sec
     gradient                   ...        0 min,  0.002 sec
 * total energy  :   -17.7267590 Eh     change       -0.4464698E-04 Eh
   gradient norm :     0.0026119 Eh/α   predicted    -0.2637996E-04 ( -40.91%)
   displ. norm   :     0.0713378 α      lambda       -0.3977946E-04
   maximum displ.:     0.0673015 α      in ANC's #1, #2, #5, ...

........................................................................
.............................. CYCLE    6 ..............................
........................................................................

 iter      E             dE          RMSdq      gap      omega  full diag
   1    -17.9400907 -0.179401E+02  0.306E-02   12.54       0.0  T
   2    -17.9400907 -0.683323E-07  0.183E-02   12.54       1.4  T
   3    -17.9400908 -0.233206E-07  0.941E-04   12.54      27.4  T
   4    -17.9400908 -0.138036E-08  0.556E-04   12.54      46.4  T
     SCC iter.                  ...        0 min,  0.001 sec
     gradient                   ...        0 min,  0.002 sec
 * total energy  :   -17.7267951 Eh     change       -0.3613035E-04 Eh
   gradient norm :     0.0021689 Eh/α   predicted    -0.1999019E-04 ( -44.67%)
   displ. norm   :     0.0698868 α      lambda       -0.3703202E-04
   maximum displ.:     0.0655439 α      in ANC's #1, #2, #5, ...

........................................................................
.............................. CYCLE    7 ..............................
........................................................................

 iter      E             dE          RMSdq      gap      omega  full diag
   1    -17.9400395 -0.179400E+02  0.296E-02   12.53       0.0  T
   2    -17.9400396 -0.739250E-07  0.177E-02   12.53       1.5  T
   3    -17.9400396 -0.218741E-07  0.111E-03   12.53      23.3  T
   4    -17.9400396 -0.423920E-08  0.625E-04   12.53      41.3  T
   5    -17.9400396 -0.746404E-09  0.293E-04   12.53      88.0  T
     SCC iter.                  ...        0 min,  0.001 sec
     gradient                   ...        0 min,  0.002 sec
 * total energy  :   -17.7268296 Eh     change       -0.3448424E-04 Eh
   gradient norm :     0.0016453 Eh/α   predicted    -0.1860693E-04 ( -46.04%)
   displ. norm   :     0.1128463 α      lambda       -0.3777674E-04
   maximum displ.:     0.1061529 α      in ANC's #1, #2, #5, ...

........................................................................
.............................. CYCLE    8 ..............................
........................................................................

 iter      E             dE          RMSdq      gap      omega  full diag
   1    -17.9402858 -0.179403E+02  0.477E-02   12.51       0.0  T
   2    -17.9402859 -0.138783E-06  0.286E-02   12.51       1.0  T
   3    -17.9402860 -0.464940E-07  0.166E-03   12.51      15.5  T
   4    -17.9402860 -0.101687E-07  0.947E-04   12.51      27.3  T
   5    -17.9402860 -0.176917E-08  0.367E-04   12.51      70.4  T
     SCC iter.                  ...        0 min,  0.001 sec
     gradient                   ...        0 min,  0.002 sec
 * total energy  :   -17.7268804 Eh     change       -0.5074271E-04 Eh
   gradient norm :     0.0013629 Eh/α   predicted    -0.1899485E-04 ( -62.57%)
   displ. norm   :     0.1050283 α      lambda       -0.3059363E-04
   maximum displ.:     0.1007379 α      in ANC's #1, #2, #5, ...

........................................................................
.............................. CYCLE    9 ..............................
........................................................................

 iter      E             dE          RMSdq      gap      omega  full diag
   1    -17.9405968 -0.179406E+02  0.439E-02   12.50       0.0  T
   2    -17.9405968 -0.503108E-07  0.263E-02   12.50       1.0  T
   3    -17.9405968 -0.297970E-07  0.109E-03   12.50      23.6  T
   4    -17.9405969 -0.202440E-08  0.668E-04   12.50      38.6  T
   5    -17.9405969 -0.876707E-09  0.199E-04   12.50     130.0  T
     SCC iter.                  ...        0 min,  0.001 sec
     gradient                   ...        0 min,  0.002 sec
 * total energy  :   -17.7269229 Eh     change       -0.4252374E-04 Eh
   gradient norm :     0.0011101 Eh/α   predicted    -0.1537209E-04 ( -63.85%)
   displ. norm   :     0.0952235 α      lambda       -0.2534474E-04
   maximum displ.:     0.0930288 α      in ANC's #1, #2, #5, ...

........................................................................
.............................. CYCLE   10 ..............................
........................................................................

 iter      E             dE          RMSdq      gap      omega  full diag
   1    -17.9408258 -0.179408E+02  0.390E-02   12.51       0.0  T
   2    -17.9408258 -0.327812E-07  0.233E-02   12.51       1.1  T
   3    -17.9408258 -0.221187E-07  0.887E-04   12.51      29.1  T
   4    -17.9408258 -0.950433E-09  0.424E-04   12.51      60.8  T
     SCC iter.                  ...        0 min,  0.001 sec
     gradient                   ...        0 min,  0.002 sec
 * total energy  :   -17.7269588 Eh     change       -0.3589679E-04 Eh
   gradient norm :     0.0008390 Eh/α   predicted    -0.1272528E-04 ( -64.55%)
   displ. norm   :     0.0859620 α      lambda       -0.2134455E-04
   maximum displ.:     0.0846687 α      in ANC's #1, #2, #26, ...

........................................................................
.............................. CYCLE   11 ..............................
........................................................................

 iter      E             dE          RMSdq      gap      omega  full diag
   1    -17.9409003 -0.179409E+02  0.349E-02   12.52       0.0  T
   2    -17.9409004 -0.254356E-07  0.208E-02   12.52       1.2  T
   3    -17.9409004 -0.163299E-07  0.784E-04   12.52      32.9  T
   4    -17.9409004 -0.776943E-09  0.472E-04   12.52      54.7  T
     SCC iter.                  ...        0 min,  0.001 sec
     gradient                   ...        0 min,  0.002 sec
 * total energy  :   -17.7269893 Eh     change       -0.3053828E-04 Eh
   gradient norm :     0.0005809 Eh/α   predicted    -0.1070852E-04 ( -64.93%)
   displ. norm   :     0.0793153 α      lambda       -0.1856319E-04
   maximum displ.:     0.0783481 α      in ANC's #1, #2, #3, ...

........................................................................
.............................. CYCLE   12 ..............................
........................................................................

 iter      E             dE          RMSdq      gap      omega  full diag
   1    -17.9409036 -0.179409E+02  0.314E-02   12.52       0.0  T
   2    -17.9409036 -0.276253E-07  0.188E-02   12.52       1.4  T
   3    -17.9409036 -0.170940E-07  0.816E-04   12.52      31.6  T
   4    -17.9409036 -0.105610E-08  0.511E-04   12.52      50.5  T
     SCC iter.                  ...        0 min,  0.001 sec
     gradient                   ...        0 min,  0.002 sec
 * total energy  :   -17.7270158 Eh     change       -0.2646851E-04 Eh
   gradient norm :     0.0004784 Eh/α   predicted    -0.9308639E-05 ( -64.83%)
   displ. norm   :     0.0762742 α      lambda       -0.1657422E-04
   maximum displ.:     0.0752358 α      in ANC's #1, #6, #2, ...

........................................................................
.............................. CYCLE   13 ..............................
........................................................................

 iter      E             dE          RMSdq      gap      omega  full diag
   1    -17.9408728 -0.179409E+02  0.305E-02   12.53       0.0  T
   2    -17.9408728 -0.259016E-07  0.182E-02   12.53       1.4  T
   3    -17.9408728 -0.151205E-07  0.745E-04   12.53      34.7  T
   4    -17.9408729 -0.570850E-09  0.437E-04   12.53      59.0  T
     SCC iter.                  ...        0 min,  0.001 sec
     gradient                   ...        0 min,  0.002 sec
 * total energy  :   -17.7270392 Eh     change       -0.2343988E-04 Eh
   gradient norm :     0.0003522 Eh/α   predicted    -0.8309890E-05 ( -64.55%)
   displ. norm   :     0.0735350 α      lambda       -0.1437646E-04
   maximum displ.:     0.0723365 α      in ANC's #1, #3, #26, ...

........................................................................
.............................. CYCLE   14 ..............................
........................................................................

 iter      E             dE          RMSdq      gap      omega  full diag
   1    -17.9408206 -0.179408E+02  0.289E-02   12.53       0.0  T
   2    -17.9408206 -0.256374E-07  0.173E-02   12.53       1.5  T
   3    -17.9408206 -0.144422E-07  0.745E-04   12.53      34.7  T
   4    -17.9408206 -0.722281E-09  0.451E-04   12.53      57.3  T
     SCC iter.                  ...        0 min,  0.001 sec
     gradient                   ...        0 min,  0.002 sec
 * total energy  :   -17.7270596 Eh     change       -0.2042237E-04 Eh
   gradient norm :     0.0003886 Eh/α   predicted    -0.7206926E-05 ( -64.71%)
   displ. norm   :     0.0759587 α      lambda       -0.1341513E-04
   maximum displ.:     0.0744931 α      in ANC's #1, #3, #26, ...

........................................................................
.............................. CYCLE   15 ..............................
........................................................................

 iter      E             dE          RMSdq      gap      omega  full diag
   1    -17.9408492 -0.179408E+02  0.296E-02   12.53       0.0  T
   2    -17.9408492 -0.238667E-07  0.177E-02   12.53       1.5  T
   3    -17.9408492 -0.165979E-07  0.766E-04   12.53      33.7  T
   4    -17.9408492 -0.689543E-09  0.305E-04   12.53      84.6  T
     SCC iter.                  ...        0 min,  0.001 sec
     gradient                   ...        0 min,  0.002 sec
 * total energy  :   -17.7270786 Eh     change       -0.1893903E-04 Eh
   gradient norm :     0.0003736 Eh/α   predicted    -0.6724606E-05 ( -64.49%)
   displ. norm   :     0.0818114 α      lambda       -0.1295471E-04
   maximum displ.:     0.0795442 α      in ANC's #1, #3, #2, ...

........................................................................
.............................. CYCLE   16 ..............................
........................................................................

 iter      E             dE          RMSdq      gap      omega  full diag
   1    -17.9407973 -0.179408E+02  0.324E-02   12.53       0.0  T
   2    -17.9407973 -0.262084E-07  0.194E-02   12.53       1.3  T
   3    -17.9407973 -0.149331E-07  0.759E-04   12.53      34.0  T
   4    -17.9407973 -0.638892E-09  0.444E-04   12.53      58.1  T
     SCC iter.                  ...        0 min,  0.001 sec
     gradient                   ...        0 min,  0.002 sec
 * total energy  :   -17.7270967 Eh     change       -0.1809976E-04 Eh
   gradient norm :     0.0005137 Eh/α   predicted    -0.6496593E-05 ( -64.11%)
   displ. norm   :     0.1014571 α      lambda       -0.1443032E-04
   maximum displ.:     0.0983796 α      in ANC's #1, #3, #2, ...

........................................................................
.............................. CYCLE   17 ..............................
........................................................................

 iter      E             dE          RMSdq      gap      omega  full diag
   1    -17.9408471 -0.179408E+02  0.389E-02   12.52       0.0  T
   2    -17.9408472 -0.390506E-07  0.233E-02   12.52       1.1  T
   3    -17.9408472 -0.273638E-07  0.996E-04   12.52      25.9  T
   4    -17.9408472 -0.112744E-08  0.516E-04   12.52      50.0  T
     SCC iter.                  ...        0 min,  0.001 sec
     gradient                   ...        0 min,  0.002 sec
 * total energy  :   -17.7271163 Eh     change       -0.1957713E-04 Eh
   gradient norm :     0.0004254 Eh/α   predicted    -0.7248090E-05 ( -62.98%)
   displ. norm   :     0.1384241 α      lambda       -0.1663445E-04
   maximum displ.:     0.1330366 α      in ANC's #1, #3, #2, ...

........................................................................
.............................. CYCLE   18 ..............................
........................................................................

 iter      E             dE          RMSdq      gap      omega  full diag
   1    -17.9406994 -0.179407E+02  0.543E-02   12.52       0.0  T
   2    -17.9406995 -0.750968E-07  0.325E-02   12.52       1.0  T
   3    -17.9406995 -0.451832E-07  0.129E-03   12.52      20.0  T
   4    -17.9406995 -0.177668E-08  0.726E-04   12.52      35.6  T
   5    -17.9406995 -0.893532E-09  0.193E-04   12.52     134.1  T
     SCC iter.                  ...        0 min,  0.001 sec
     gradient                   ...        0 min,  0.002 sec
 * total energy  :   -17.7271377 Eh     change       -0.2141001E-04 Eh
   gradient norm :     0.0007668 Eh/α   predicted    -0.8388481E-05 ( -60.82%)
   displ. norm   :     0.3707843 α      lambda       -0.3380937E-04
   maximum displ.:     0.3569065 α      in ANC's #1, #3, #2, ...

........................................................................
.............................. CYCLE   19 ..............................
........................................................................

 iter      E             dE          RMSdq      gap      omega  full diag
   1    -17.9394312 -0.179394E+02  0.142E-01   12.47       0.0  T
   2    -17.9394319 -0.639176E-06  0.850E-02   12.47       1.0  T
   3    -17.9394322 -0.352838E-06  0.357E-03   12.47       7.2  T
   4    -17.9394322 -0.135345E-07  0.203E-03   12.47      12.7  T
   5    -17.9394322 -0.726537E-08  0.437E-04   12.47      59.0  T
   6    -17.9394322 -0.374744E-09  0.246E-04   12.47     105.0  T
     SCC iter.                  ...        0 min,  0.001 sec
     gradient                   ...        0 min,  0.002 sec
 * total energy  :   -17.7271549 Eh     change       -0.1723092E-04 Eh
   gradient norm :     0.0031574 Eh/α   predicted    -0.1793696E-04 (   4.10%)
   displ. norm   :     0.0460807 α      lambda       -0.1868026E-04
   maximum displ.:     0.0434713 α      in ANC's #1, #2, #3, ...

........................................................................
.............................. CYCLE   20 ..............................
........................................................................

 iter      E             dE          RMSdq      gap      omega  full diag
   1    -17.9405503 -0.179406E+02  0.215E-02   12.51       0.0  T
   2    -17.9405504 -0.846419E-07  0.128E-02   12.51       2.0  T
   3    -17.9405504 -0.118943E-07  0.914E-04   12.51      28.2  T
   4    -17.9405504 -0.152103E-08  0.439E-04   12.51      58.8  T
     SCC iter.                  ...        0 min,  0.001 sec
     gradient                   ...        0 min,  0.002 sec
 * total energy  :   -17.7271653 Eh     change       -0.1041000E-04 Eh
   gradient norm :     0.0010104 Eh/α   predicted    -0.9358774E-05 ( -10.10%)
   displ. norm   :     0.0359716 α      lambda       -0.3701373E-05
   maximum displ.:     0.0314831 α      in ANC's #1, #2, #3, ...
 * RMSD in coord.:     0.4700819 α      energy gain  -0.1457812E-02 Eh

generating ANC from exact Hessian ...
Using Lindh-Hessian (1995)
 Shifting diagonal of input Hessian by   7.250299255034894E-003
 Lowest  eigenvalues of input Hessian
    0.000000    0.000000    0.000000    0.000000    0.000000    0.000000
    0.010000    0.013079    0.013639    0.019775    0.022186    0.032375
    0.048617    0.054024    0.059794    0.061087    0.062777    0.064987
 Highest eigenvalues
    1.154376    1.189257    1.217323    1.248917    1.299343    1.483902
 

........................................................................
.............................. CYCLE   21 ..............................
........................................................................

 iter      E             dE          RMSdq      gap      omega  full diag
   1    -17.9410078 -0.179410E+02  0.155E-02   12.53       0.0  T
   2    -17.9410078 -0.181803E-07  0.918E-03   12.53       2.8  T
   3    -17.9410078 -0.208726E-08  0.446E-04   12.53      57.9  T
   4    -17.9410078 -0.703377E-09  0.208E-04   12.53     124.1  T
     SCC iter.                  ...        0 min,  0.001 sec
     gradient                   ...        0 min,  0.002 sec
 * total energy  :   -17.7271688 Eh     change       -0.3535308E-05 Eh
   gradient norm :     0.0005998 Eh/α   predicted     0.0000000E+00 (-100.00%)
   displ. norm   :     0.0119959 α      lambda       -0.1481900E-05
   maximum displ.:     0.0090101 α      in ANC's #3, #2, #5, ...

........................................................................
.............................. CYCLE   22 ..............................
........................................................................

 iter      E             dE          RMSdq      gap      omega  full diag
   1    -17.9410765 -0.179411E+02  0.549E-03   12.53       0.0  T
   2    -17.9410765 -0.238865E-08  0.327E-03   12.53       7.9  T
   3    -17.9410765 -0.118418E-08  0.229E-04   12.53     112.7  T
   4    -17.9410765 -0.504130E-10  0.120E-04   12.53     214.7  T
     SCC iter.                  ...        0 min,  0.001 sec
     gradient                   ...        0 min,  0.002 sec
 * total energy  :   -17.7271703 Eh     change       -0.1460167E-05 Eh
   gradient norm :     0.0001872 Eh/α   predicted    -0.7419398E-06 ( -49.19%)
   displ. norm   :     0.0156081 α      lambda       -0.8701347E-06
   maximum displ.:     0.0098057 α      in ANC's #3, #2, #1, ...

........................................................................
.............................. CYCLE   23 ..............................
........................................................................

 iter      E             dE          RMSdq      gap      omega  full diag
   1    -17.9411287 -0.179411E+02  0.631E-03   12.53       0.0  T
   2    -17.9411287 -0.355305E-08  0.382E-03   12.53       6.8  T
   3    -17.9411287 -0.119403E-08  0.257E-04   12.53     100.4  T
   4    -17.9411287 -0.213060E-09  0.140E-04   12.53     184.9  T
     SCC iter.                  ...        0 min,  0.001 sec
     gradient                   ...        0 min,  0.002 sec
 * total energy  :   -17.7271712 Eh     change       -0.8984744E-06 Eh
   gradient norm :     0.0002414 Eh/α   predicted    -0.4369122E-06 ( -51.37%)
   displ. norm   :     0.0169037 α      lambda       -0.5959915E-06
   maximum displ.:     0.0105595 α      in ANC's #1, #3, #2, ...

........................................................................
.............................. CYCLE   24 ..............................
........................................................................

 iter      E             dE          RMSdq      gap      omega  full diag
   1    -17.9411163 -0.179411E+02  0.710E-03   12.53       0.0  T
   2    -17.9411163 -0.224924E-08  0.430E-03   12.53       6.0  T
   3    -17.9411163 -0.119464E-08  0.203E-04   12.53     127.1  T
   4    -17.9411163 -0.634550E-10  0.120E-04   12.53     214.3  T
     SCC iter.                  ...        0 min,  0.001 sec
     gradient                   ...        0 min,  0.002 sec
 * total energy  :   -17.7271718 Eh     change       -0.5961260E-06 Eh
   gradient norm :     0.0001926 Eh/α   predicted    -0.2976718E-06 ( -50.07%)
   displ. norm   :     0.0109415 α      lambda       -0.2904184E-06
   maximum displ.:     0.0089877 α      in ANC's #1, #5, #2, ...

........................................................................
.............................. CYCLE   25 ..............................
........................................................................

 iter      E             dE          RMSdq      gap      omega  full diag
   1    -17.9410948 -0.179411E+02  0.485E-03   12.53       0.0  T
   2    -17.9410948 -0.722668E-09  0.291E-03   12.53       8.9  T
   3    -17.9410948 -0.365276E-09  0.114E-04   12.53     227.2  T
   4    -17.9410948 -0.143920E-10  0.676E-05   12.53     382.0  T
     SCC iter.                  ...        0 min,  0.001 sec
     gradient                   ...        0 min,  0.002 sec
 * total energy  :   -17.7271721 Eh     change       -0.3075800E-06 Eh
   gradient norm :     0.0000932 Eh/α   predicted    -0.1447107E-06 ( -52.95%)
   displ. norm   :     0.0058254 α      lambda       -0.1312781E-06
   maximum displ.:     0.0055799 α      in ANC's #1, #3, #4, ...

........................................................................
.............................. CYCLE   26 ..............................
........................................................................

 iter      E             dE          RMSdq      gap      omega  full diag
   1    -17.9410871 -0.179411E+02  0.223E-03   12.53       0.0  T
   2    -17.9410871 -0.331511E-09  0.133E-03   12.53      19.4  T
   3    -17.9410871 -0.741558E-10  0.810E-05   12.53     318.9  T
   4    -17.9410871 -0.345892E-10  0.408E-05   12.53     633.0  T
     SCC iter.                  ...        0 min,  0.001 sec
     gradient                   ...        0 min,  0.002 sec
 * total energy  :   -17.7271723 Eh     change       -0.1613704E-06 Eh
   gradient norm :     0.0000572 Eh/α   predicted    -0.6732868E-07 ( -58.28%)
   displ. norm   :     0.0042052 α      lambda       -0.8108223E-07
   maximum displ.:     0.0039131 α      in ANC's #1, #3, #6, ...

........................................................................
.............................. CYCLE   27 ..............................
........................................................................

 iter      E             dE          RMSdq      gap      omega  full diag
   1    -17.9410834 -0.179411E+02  0.148E-03   12.53       0.0  T
   2    -17.9410834 -0.189797E-09  0.882E-04   12.53      29.3  T
   3    -17.9410834 -0.445155E-10  0.603E-05   12.53     428.2  T
     SCC iter.                  ...        0 min,  0.001 sec
     gradient                   ...        0 min,  0.002 sec
 * total energy  :   -17.7271724 Eh     change       -0.1113940E-06 Eh
   gradient norm :     0.0000562 Eh/α   predicted    -0.4234027E-07 ( -61.99%)
   displ. norm   :     0.0042560 α      lambda       -0.7722279E-07
   maximum displ.:     0.0038578 α      in ANC's #1, #5, #6, ...

........................................................................
.............................. CYCLE   28 ..............................
........................................................................

 iter      E             dE          RMSdq      gap      omega  full diag
   1    -17.9410846 -0.179411E+02  0.161E-03   12.53       0.0  T
   2    -17.9410846 -0.156206E-09  0.968E-04   12.53      26.7  T
   3    -17.9410846 -0.710010E-10  0.578E-05   12.53     446.6  T
     SCC iter.                  ...        0 min,  0.000 sec
     gradient                   ...        0 min,  0.002 sec
 * total energy  :   -17.7271725 Eh     change       -0.1061190E-06 Eh
   gradient norm :     0.0000579 Eh/α   predicted    -0.3979843E-07 ( -62.50%)
   displ. norm   :     0.0046614 α      lambda       -0.7871016E-07
   maximum displ.:     0.0042988 α      in ANC's #1, #6, #3, ...

........................................................................
.............................. CYCLE   29 ..............................
........................................................................

 iter      E             dE          RMSdq      gap      omega  full diag
   1    -17.9410897 -0.179411E+02  0.174E-03   12.53       0.0  T
   2    -17.9410897 -0.132111E-09  0.105E-03   12.53      24.6  T
   3    -17.9410897 -0.802736E-10  0.564E-05   12.53     457.4  T
   4    -17.9410897 -0.386891E-11  0.333E-05   12.53     774.6  T
     SCC iter.                  ...        0 min,  0.001 sec
     gradient                   ...        0 min,  0.002 sec
 * total energy  :   -17.7271726 Eh     change       -0.1029464E-06 Eh
   gradient norm :     0.0000454 Eh/α   predicted    -0.3874764E-07 ( -62.36%)
   displ. norm   :     0.0045961 α      lambda       -0.6850498E-07
   maximum displ.:     0.0043293 α      in ANC's #1, #3, #6, ...

........................................................................
.............................. CYCLE   30 ..............................
........................................................................

 iter      E             dE          RMSdq      gap      omega  full diag
   1    -17.9410928 -0.179411E+02  0.179E-03   12.53       0.0  T
   2    -17.9410928 -0.999805E-10  0.107E-03   12.53      24.1  T
   3    -17.9410928 -0.602540E-10  0.487E-05   12.53     530.1  T
   4    -17.9410928 -0.237677E-11  0.265E-05   12.53     975.4  T
     SCC iter.                  ...        0 min,  0.001 sec
     gradient                   ...        0 min,  0.002 sec
 * total energy  :   -17.7271727 Eh     change       -0.9038055E-07 Eh
   gradient norm :     0.0000334 Eh/α   predicted    -0.3318951E-07 ( -63.28%)
   displ. norm   :     0.0042672 α      lambda       -0.5797790E-07
   maximum displ.:     0.0039805 α      in ANC's #1, #3, #2, ...

   *** GEOMETRY OPTIMIZATION CONVERGED AFTER 30 ITERATIONS ***

------------------------------------------------------------------------
 total energy gain   :        -0.0014652 Eh       -0.9194 kcal/mol
 total RMSD          :         0.4841898 a0        0.2562 Å
 total power (kW/mol):        -0.1282278 (step)  -26.4888 (real)
------------------------------------------------------------------------

 ANCopt (total)                0 d,  0 h,  0 min,  0.145 sec
 optimizer setup                ...        0 min,  0.000 sec (  0.238%)
 model hessian                  ...        0 min,  0.009 sec (  6.524%)
 ANC generation                 ...        0 min,  0.000 sec (  0.279%)
 coordinate transformation      ...        0 min,  0.000 sec (  0.073%)
 single point calculation       ...        0 min,  0.126 sec ( 86.768%)
 optimization log               ...        0 min,  0.005 sec (  3.760%)
 hessian update                 ...        0 min,  0.000 sec (  0.081%)
 rational function              ...        0 min,  0.002 sec (  1.653%)

================
 final structure:
================
$coord
        3.86838785512903       -1.10756862953336       -0.45976895678257      C
        2.12251693861674        0.43384617018388        1.23794201592833      C
        0.03155849425233        1.79825764894300       -0.22395653725183      C
       -2.01496210851642        0.04721514322948       -1.28056414415789      C
       -3.66427578024293       -0.91170208483021        0.58973873067012      O
        5.36683156002877       -1.96393543701241        0.65495799274926      H
        2.84664058796783       -2.60964095711150       -1.41825463745024      H
        4.72728814689144        0.09935595282437       -1.88424623065544      H
        1.29265558010470       -0.79561613641093        2.67293898560744      H
        3.24584996974717        1.85283496775537        2.22915487539303      H
       -0.89051540201196        3.16485281863931        1.01757570965284      H
        0.87022972191850        2.83012411160557       -1.79927898581046      H
       -3.23400916246539        1.10731717379499       -2.56682337850081      H
       -1.16124934792955       -1.51571905340960       -2.34248717399064      H
       -2.69055465272092       -1.87377978102531        1.80010929070905      H
$end
 
 Bond Distances (Angstroems)
 ---------------------------
C1-C2=1.5251         C1-H6=1.0872         C1-H7=1.0869         C1-H8=1.0875         C2-C1=1.5251         C2-C3=1.5310         
C2-H9=1.0921         C2-H10=1.0919        C3-C2=1.5310         C3-C4=1.5310         C3-H11=1.0921        C3-H12=1.0909        
C4-C3=1.5310         C4-O5=1.4138         C4-H13=1.0928        C4-H14=1.0972        O5-C4=1.4138         O5-H15=0.9669        
H6-C1=1.0872         H7-C1=1.0869         H8-C1=1.0875         H9-C2=1.0921         H10-C2=1.0919        H11-C3=1.0921        
H12-C3=1.0909        H13-C4=1.0928        H14-C4=1.0972        H15-O5=0.9669        
 C  H  Rav=1.0910 sigma=0.0031  Rmin=1.0869  Rmax=1.0972     9
 C  C  Rav=1.5291 sigma=0.0028  Rmin=1.5251  Rmax=1.5310     3
 O  H  Rav=0.9669 sigma=0.0000  Rmin=0.9669  Rmax=0.9669     1
 O  C  Rav=1.4138 sigma=0.0000  Rmin=1.4138  Rmax=1.4138     1
 
 selected bond angles (degree)
 --------------------
H6-C1-C2=110.19                H7-C1-C2=111.39                H7-C1-H6=108.13                H8-C1-C2=110.33                
H8-C1-H6=108.42                H8-C1-H7=108.30                C3-C2-C1=113.10                H9-C2-C1=109.55                
H9-C2-C3=109.98                H10-C2-C1=108.72               H10-C2-C3=108.17               H10-C2-H9=107.13               
C4-C3-C2=114.22                H11-C3-C2=109.34               H11-C3-C4=107.72               H12-C3-C2=109.16               
H12-C3-C4=108.16               H12-C3-H11=108.06              O5-C4-C3=113.47                H13-C4-C3=109.53               
H13-C4-O5=104.83               H14-C4-C3=110.61               H14-C4-O5=110.01               H14-C4-H13=108.12              
H15-O5-C4=108.89               
 
 selected dihedral angles (degree)
 ---------------------------------
C3-C2-C1-H6=177.35            C3-C2-C1-H7=297.35            C3-C2-C1-H8= 57.66            H9-C2-C1-H6=300.41            
H9-C2-C1-H7= 60.42            H9-C2-C1-H8=180.72            H10-C2-C1-H6= 57.18           H10-C2-C1-H7=177.18           
H10-C2-C1-H8=297.49           C4-C3-C2-C1= 71.13            C4-C3-C2-H9=308.30            C4-C3-C2-H10=191.61           
H11-C3-C2-C1=191.91           H11-C3-C2-H9= 69.08           H11-C3-C2-H10=312.39          H12-C3-C2-C1=309.93           
H12-C3-C2-H9=187.10           H12-C3-C2-H10= 70.41          O5-C4-C3-C2= 73.31            O5-C4-C3-H11=311.64           
O5-C4-C3-H12=195.06           H13-C4-C3-C2=190.05           H13-C4-C3-H11= 68.38          H13-C4-C3-H12=311.81          
H14-C4-C3-C2=309.13           H14-C4-C3-H11=187.46          H14-C4-C3-H12= 70.88          H15-O5-C4-C3=299.63           
H15-O5-C4-H13=180.16          H15-O5-C4-H14= 64.14          
           -------------------------------------------------
          |                Final Singlepoint                |
           -------------------------------------------------

          ...................................................
          :                      SETUP                      :
          :.................................................:
          :  # basis functions                  30          :
          :  # atomic orbitals                  30          :
          :  # shells                           20          :
          :  # electrons                        32          :
          :  max. iterations                   250          :
          :  Hamiltonian                  GFN2-xTB          :
          :  restarted?                      false          :
          :  GBSA solvation                   true          :
          :  PC potential                    false          :
          :  electronic temp.          300.0000000     K    :
          :  accuracy                    1.0000000          :
          :  -> integral cutoff          0.2500000E+02      :
          :  -> integral neglect         0.1000000E-07      :
          :  -> SCF convergence          0.1000000E-05 Eh   :
          :  -> wf. convergence          0.1000000E-03 e    :
          :  Broyden damping             0.4000000          :
          :  net charge                          0          :
          :  unpaired electrons                  0          :
          ...................................................

 iter      E             dE          RMSdq      gap      omega  full diag
   1    -17.9410928 -0.179411E+02  0.634E-06   12.53       0.0  T
   2    -17.9410928 -0.461853E-13  0.421E-06   12.53    6136.1  T
   3    -17.9410928 -0.355271E-13  0.124E-06   12.53   20745.3  T

   *** convergence criteria satisfied after 3 iterations ***

         #    Occupation            Energy/Eh            Energy/eV
      -------------------------------------------------------------
         1        2.0000           -0.6870681             -18.6961
       ...           ...                  ...                  ...
        10        2.0000           -0.4888928             -13.3034
        11        2.0000           -0.4687138             -12.7544
        12        2.0000           -0.4552897             -12.3891
        13        2.0000           -0.4391461             -11.9498
        14        2.0000           -0.4341235             -11.8131
        15        2.0000           -0.4280324             -11.6474
        16        2.0000           -0.4059891             -11.0475 (HOMO)
        17                          0.0544018               1.4803 (LUMO)
        18                          0.0897316               2.4417
        19                          0.1029106               2.8003
        20                          0.1221795               3.3247
        21                          0.1314936               3.5781
       ...                                ...                  ...
        30                          0.3086785               8.3996
      -------------------------------------------------------------
                  HL-Gap            0.4603910 Eh           12.5279 eV
             Fermi-level           -0.1757936 Eh           -4.7836 eV

 SCC (total)                   0 d,  0 h,  0 min,  0.004 sec
 SCC setup                      ...        0 min,  0.001 sec ( 16.643%)
 Dispersion                     ...        0 min,  0.000 sec (  0.792%)
 classical contributions        ...        0 min,  0.000 sec (  0.264%)
 integral evaluation            ...        0 min,  0.001 sec ( 16.932%)
 iterations                     ...        0 min,  0.001 sec ( 17.963%)
 molecular gradient             ...        0 min,  0.002 sec ( 44.936%)
 printout                       ...        0 min,  0.000 sec (  2.188%)

         :::::::::::::::::::::::::::::::::::::::::::::::::::::
         ::                     SUMMARY                     ::
         :::::::::::::::::::::::::::::::::::::::::::::::::::::
         :: total energy             -17.727172684504 Eh    ::
         :: total w/o Gsasa/hb       -17.724482901119 Eh    ::
         :: gradient norm              0.000033615480 Eh/a0 ::
         :: HOMO-LUMO gap             12.527875647198 eV    ::
         ::.................................................::
         :: SCC energy               -17.941079669624 Eh    ::
         :: -> isotropic ES            0.034943157016 Eh    ::
         :: -> anisotropic ES          0.003515969368 Eh    ::
         :: -> anisotropic XC          0.006129615619 Eh    ::
         :: -> dispersion             -0.007284838825 Eh    ::
         :: -> Gsolv                  -0.007211419034 Eh    ::
         ::    -> Gelec               -0.004521635649 Eh    ::
         ::    -> Gsasa                0.000798753636 Eh    ::
         ::    -> Ghb                 -0.004569296719 Eh    ::
         ::    -> Gshift               0.001080759698 Eh    ::
         :: repulsion energy           0.213906985120 Eh    ::
         :: add. restraining           0.000000000000 Eh    ::
         :: total charge               0.000000000000 e     ::
         :::::::::::::::::::::::::::::::::::::::::::::::::::::

           ------------------------------------------------- 
          |                Numerical Hessian                |
           ------------------------------------------------- 
step length          :   0.00500
SCC accuracy         :   0.30000
Hessian scale factor :   1.00000
frozen atoms in %    :   0.00000    0
RMS gradient         :   0.00003
estimated CPU  time      0.01 min
estimated wall time      0.01 min

writing file <hessian>.

 projected vibrational frequencies (cm⁻¹)
eigval :       -0.00    -0.00     0.00     0.00     0.00     0.00
eigval :       56.61   138.36   231.70   258.94   323.26   401.65
eigval :      462.65   779.88   846.29   881.09   965.49   991.77
eigval :     1041.46  1091.47  1119.93  1134.66  1165.91  1223.40
eigval :     1261.37  1299.81  1331.40  1347.27  1354.73  1413.69
eigval :     1466.46  1474.51  1492.03  1500.71  1503.83  2892.56
eigval :     2960.54  2970.60  2976.06  2984.22  2992.17  3030.93
eigval :     3032.29  3043.89  3499.18
           -------------------------------------------------
          |                Property Printout                |
           -------------------------------------------------

    * Orbital Energies and Occupations

         #    Occupation            Energy/Eh            Energy/eV
      -------------------------------------------------------------
         1        2.0000           -0.6870681             -18.6961
       ...           ...                  ...                  ...
         4        2.0000           -0.5890801             -16.0297
         5        2.0000           -0.5624393             -15.3048
         6        2.0000           -0.5525582             -15.0359
         7        2.0000           -0.5269876             -14.3401
         8        2.0000           -0.5127016             -13.9513
         9        2.0000           -0.5001889             -13.6108
        10        2.0000           -0.4888928             -13.3034
        11        2.0000           -0.4687138             -12.7544
        12        2.0000           -0.4552897             -12.3891
        13        2.0000           -0.4391461             -11.9498
        14        2.0000           -0.4341235             -11.8131
        15        2.0000           -0.4280324             -11.6474
        16        2.0000           -0.4059891             -11.0475 (HOMO)
        17                          0.0544018               1.4803 (LUMO)
        18                          0.0897316               2.4417
        19                          0.1029106               2.8003
        20                          0.1221795               3.3247
        21                          0.1314936               3.5781
        22                          0.1393282               3.7913
        23                          0.1594525               4.3389
        24                          0.1936301               5.2689
        25                          0.2134774               5.8090
        26                          0.2257907               6.1441
        27                          0.2623190               7.1381
       ...                                ...                  ...
        30                          0.3086785               8.3996
      -------------------------------------------------------------
                  HL-Gap            0.4603910 Eh           12.5279 eV
             Fermi-level           -0.1757937 Eh           -4.7836 eV

     #   Z          covCN         q      C6AA      α(0)
     1   6 C        3.751    -0.114    22.733     6.800
     2   6 C        3.799    -0.058    21.619     6.620
     3   6 C        3.800    -0.078    21.994     6.677
     4   6 C        3.673     0.079    19.489     6.327
     5   8 O        1.654    -0.516    23.238     6.507
     6   1 H        0.925     0.040     2.446     2.446
     7   1 H        0.925     0.037     2.484     2.465
     8   1 H        0.925     0.039     2.462     2.454
     9   1 H        0.924     0.034     2.534     2.489
    10   1 H        0.924     0.038     2.479     2.462
    11   1 H        0.924     0.046     2.376     2.410
    12   1 H        0.924     0.044     2.402     2.424
    13   1 H        0.924     0.040     2.443     2.444
    14   1 H        0.924     0.025     2.656     2.549
    15   1 H        0.805     0.344     0.602     1.219

 Mol. C6AA /au·bohr⁶  :       1458.637502
 Mol. C8AA /au·bohr⁸  :      29877.592200
 Mol. α(0) /au        :         56.294101


Wiberg/Mayer (AO) data.
largest (>0.10) Wiberg bond orders for each atom

 ---------------------------------------------------------------------------
     #   Z sym  total        # sym  WBO       # sym  WBO       # sym  WBO
 ---------------------------------------------------------------------------
     1   6 C    3.996 --     2 C    1.020     8 H    0.987     6 H    0.987
                             7 H    0.985
     2   6 C    3.998 --     1 C    1.020     3 C    1.008    10 H    0.978
                             9 H    0.975
     3   6 C    3.996 --     2 C    1.008     4 C    0.999    11 H    0.976
                            12 H    0.975
     4   6 C    3.951 --     3 C    0.999     5 O    0.992    13 H    0.974
                            14 H    0.968
     5   8 O    1.914 --     4 C    0.992    15 H    0.865
     6   1 H    0.998 --     1 C    0.987
     7   1 H    0.999 --     1 C    0.985
     8   1 H    0.998 --     1 C    0.987
     9   1 H    0.999 --     2 C    0.975
    10   1 H    0.999 --     2 C    0.978
    11   1 H    0.998 --     3 C    0.976
    12   1 H    0.998 --     3 C    0.975
    13   1 H    0.998 --     4 C    0.974
    14   1 H    0.999 --     4 C    0.968
    15   1 H    0.882 --     5 O    0.865
 ---------------------------------------------------------------------------

Topologies differ in total number of bonds
Writing topology from bond orders to xtbtopo.mol

molecular dipole:
                 x           y           z       tot (Debye)
 q only:        0.751      -0.066       0.091
   full:        0.898      -0.117       0.100       2.317
molecular quadrupole (traceless):
                xx          xy          yy          xz          yz          zz
 q only:       -4.789      -0.272       2.132       0.045      -1.324       2.657
  q+dip:       -6.565      -0.463       3.266       0.630      -1.440       3.299
   full:       -6.346      -0.452       2.963       0.425      -1.661       3.383

           -------------------------------------------------
          |                Geometry Summary                 |
           -------------------------------------------------

      molecular mass/u    :       74.1217560
   center of mass at/Å    :       -0.0002689      -0.0015347      -0.0066956
  moments of inertia/u·Å² :        0.5426614E+02   0.1889854E+03   0.1959998E+03
rotational constants/cm⁻¹ :        0.3106474E+00   0.8920072E-01   0.8600841E-01

 * 14 selected distances

     #   Z          #   Z                                           value/Å
     1   6 C        2   6 C                                       1.5251186
     2   6 C        3   6 C                                       1.5310401 (max)
     3   6 C        4   6 C                                       1.5310348
     4   6 C        5   8 O                                       1.4137840
     1   6 C        6   1 H                                       1.0872389
     1   6 C        7   1 H                                       1.0869259
     1   6 C        8   1 H                                       1.0875220
     2   6 C        9   1 H                                       1.0921408
     2   6 C       10   1 H                                       1.0919415
     3   6 C       11   1 H                                       1.0921076
     3   6 C       12   1 H                                       1.0908959
     4   6 C       13   1 H                                       1.0927677
     4   6 C       14   1 H                                       1.0972321
     5   8 O       15   1 H                                       0.9669219 (min)

 * 4 distinct bonds (by element types)

   Z      Z             #   av. dist./Å        max./Å        min./Å
   1 H    6 C           9     1.0909747     1.0972321     1.0869259
   6 C    6 C           3     1.5290645     1.5310401     1.5251186
   1 H    8 O           1     0.9669219     0.9669219     0.9669219
   6 C    8 O           1     1.4137840     1.4137840     1.4137840

           -------------------------------------------------
          |               Frequency Printout                |
           -------------------------------------------------
 projected vibrational frequencies (cm⁻¹)
eigval :       -0.00    -0.00     0.00     0.00     0.00     0.00
eigval :       56.61   138.36   231.70   258.94   323.26   401.65
eigval :      462.65   779.88   846.29   881.09   965.49   991.77
eigval :     1041.46  1091.47  1119.93  1134.66  1165.91  1223.40
eigval :     1261.37  1299.81  1331.40  1347.27  1354.73  1413.69
eigval :     1466.46  1474.51  1492.03  1500.71  1503.83  2892.56
eigval :     2960.54  2970.60  2976.06  2984.22  2992.17  3030.93
eigval :     3032.29  3043.89  3499.18
 reduced masses (amu)
   1: 11.59   2:  9.40   3: 10.54   4: 11.77   5: 10.01   6: 11.20   7:  9.19   8:  5.89
   9:  3.98  10:  6.54  11:  4.89  12:  7.07  13:  8.38  14:  3.26  15:  6.83  16:  5.44
  17:  6.64  18:  5.70  19:  7.73  20:  4.47  21:  8.30  22:  7.52  23:  4.42  24:  4.09
  25:  2.94  26:  2.56  27:  3.44  28:  4.53  29:  4.71  30:  3.20  31:  1.89  32:  1.83
  33:  1.85  34:  1.62  35:  1.58  36:  1.76  37:  1.94  38:  1.66  39:  1.77  40:  1.66
  41:  1.55  42:  1.93  43:  1.94  44:  1.28  45:  1.87
 IR intensities (km·mol⁻¹)
   1:  0.13   2:  0.77   3:  0.02   4:  1.09   5:  0.48   6:  0.02   7:  2.20   8:  4.70
   9:  7.98  10: 37.84  11:174.62  12:  9.75  13:  2.64  14:  9.71  15: 18.57  16: 14.28
  17: 43.50  18:  5.13  19: 33.45  20: 69.84  21: 45.54  22:  3.36  23: 18.17  24: 11.90
  25: 12.01  26: 27.26  27: 41.93  28:  7.84  29: 19.96  30:  0.98  31:  1.02  32:  1.57
  33:  0.21  34:  1.07  35:  1.42  36: 89.73  37: 65.39  38: 55.66  39: 24.88  40:119.31
  41: 77.04  42: 81.80  43: 79.98  44: 42.00  45: 61.89
 Raman intensities (Ä⁴*amu⁻¹)
   1:  0.00   2:  0.00   3:  0.00   4:  0.00   5:  0.00   6:  0.00   7:  0.00   8:  0.00
   9:  0.00  10:  0.00  11:  0.00  12:  0.00  13:  0.00  14:  0.00  15:  0.00  16:  0.00
  17:  0.00  18:  0.00  19:  0.00  20:  0.00  21:  0.00  22:  0.00  23:  0.00  24:  0.00
  25:  0.00  26:  0.00  27:  0.00  28:  0.00  29:  0.00  30:  0.00  31:  0.00  32:  0.00
  33:  0.00  34:  0.00  35:  0.00  36:  0.00  37:  0.00  38:  0.00  39:  0.00  40:  0.00
  41:  0.00  42:  0.00  43:  0.00  44:  0.00  45:  0.00
 output can be read by thermo (or use thermo option).
 writing <g98.out> molden fake output.
 recommended (thermochemical) frequency scaling factor: 1.0
           -------------------------------------------------
          |             Thermodynamic Functions             |
           -------------------------------------------------

Molecule has no symmetry elements
It seems to be the C1 point group
c1  symmetry found (for desy threshold:  0.10E+00) used in thermo

          ...................................................
          :                      SETUP                      :
          :.................................................:
          :  # frequencies                          39      :
          :  # imaginary freq.                       0      :
          :  linear?                             false      :
          :  only rotor calc.                    false      :
          :  symmetry                               c1      :
          :  rotational number                       1      :
          :  scaling factor                  1.0000000      :
          :  rotor cutoff                    0.0000000 cm⁻¹ :
          :  imag. cutoff                 -100.0000000 cm⁻¹ :
          :.................................................:

    mode    ω/cm⁻¹     T·S(HO)/kcal·mol⁻¹    T·S(FR)/kcal·mol⁻¹   T·S(vib)
   ------------------------------------------------------------------------
       1     56.61    -1.36315 (100.00%)    -1.01917 (  0.00%)    -1.36315
       2    138.36    -0.84272 (100.00%)    -0.75479 (  0.00%)    -0.84272
       3    231.70    -0.55626 (100.00%)    -0.60213 (  0.00%)    -0.55626
       4    258.94    -0.49759 (100.00%)    -0.56923 (  0.00%)    -0.49759
   ------------------------------------------------------------------------

   temp. (K)  partition function   enthalpy   heat capacity  entropy
                                   cal/mol     cal/K/mol   cal/K/mol   J/K/mol
 298.15  VIB   33.2                 2469.198     17.199     15.241
         ROT  0.108E+06              888.752      2.981     26.019
         INT  0.359E+07             3357.950     20.180     41.260
         TR   0.617E+27             1481.254      4.968     38.808
         TOT                        4839.2038    25.1479    80.0675   335.0023

       T/K    H(0)-H(T)+PV         H(T)/Eh          T*S/Eh         G(T)/Eh
   ------------------------------------------------------------------------
    298.15    0.771176E-02    0.141993E+00    0.380426E-01    0.103951E+00
   ------------------------------------------------------------------------

         :::::::::::::::::::::::::::::::::::::::::::::::::::::
         ::                  THERMODYNAMIC                  ::
         :::::::::::::::::::::::::::::::::::::::::::::::::::::
         :: total free energy         -17.623222059015 Eh   ::
         ::.................................................::
         :: total energy              -17.727172684441 Eh   ::
         :: zero point energy           0.134281498956 Eh   ::
         :: G(RRHO) w/o ZPVE           -0.030330873529 Eh   ::
         :: G(RRHO) contrib.            0.103950625427 Eh   ::
         :::::::::::::::::::::::::::::::::::::::::::::::::::::

optimized geometry written to: xtbopt.coord


           -------------------------------------------------
          | TOTAL ENERGY              -17.727172684441 Eh   |
          | TOTAL ENTHALPY            -17.585179423305 Eh   |
          | TOTAL FREE ENERGY         -17.623222059015 Eh   |
          | GRADIENT NORM               0.000033623924 Eh/α |
          | HOMO-LUMO GAP              12.527875816673 eV   |
           -------------------------------------------------

------------------------------------------------------------------------
 * finished run on 2025/04/06 at 22:38:51.237     
------------------------------------------------------------------------
 total:
 * wall-time:     0 d,  0 h,  0 min,  0.613 sec
 *  cpu-time:     0 d,  0 h,  0 min,  0.532 sec
 * ratio c/w:     0.868 speedup
 SCF:
 * wall-time:     0 d,  0 h,  0 min,  0.021 sec
 *  cpu-time:     0 d,  0 h,  0 min,  0.007 sec
 * ratio c/w:     0.357 speedup
 ANC optimizer:
 * wall-time:     0 d,  0 h,  0 min,  0.159 sec
 *  cpu-time:     0 d,  0 h,  0 min,  0.146 sec
 * ratio c/w:     0.917 speedup
 analytical hessian:
 * wall-time:     0 d,  0 h,  0 min,  0.377 sec
 *  cpu-time:     0 d,  0 h,  0 min,  0.369 sec
 * ratio c/w:     0.978 speedup

