 Entering Gaussian System
 *********************************************
 Gaussian 98:
 frequency output generated by the xtb code
 *********************************************
                         Standard orientation:
 --------------------------------------------------------------------
  Center     Atomic     Atomic              Coordinates (Angstroms)
  Number     Number      Type              X           Y           Z
 --------------------------------------------------------------------
    1          6             0        2.057947    0.483073    0.326767
    2          6             0        1.019147   -0.079737   -0.641198
    3          8             0       -0.000006   -0.831813    0.000313
    4          6             0       -1.019162   -0.079251    0.641247
    5          6             0       -2.057965    0.482809   -0.327151
    6          1             0        2.863620    0.941664   -0.238158
    7          1             0        1.620547    1.234098    0.979884
    8          1             0        2.462080   -0.318539    0.939405
    9          1             0        1.493789   -0.794048   -1.318541
   10          1             0        0.580818    0.728528   -1.238424
   11          1             0       -1.493799   -0.793044    1.319140
   12          1             0       -0.580837    0.729476    1.237850
   13          1             0       -1.620570    1.233336   -0.980845
   14          1             0       -2.462094   -0.319275   -0.939172
   15          1             0       -2.863640    0.941829    0.237423
 --------------------------------------------------------------------
     1 basis functions        1 primitive gaussians
     1 alpha electrons        1 beta electrons
 
 Harmonic frequencies (cm**-1), IR intensities (km*mol⁻¹),
 Raman scattering activities (A**4/amu), Raman depolarization ratios,
 reduced masses (AMU), force constants (mDyne/A) and normal coordinates:
                      1                      2                      3
                        a                      a                      a 
 Frequencies --    30.9482               125.1967               186.6358
 Red. masses --     7.4379                 6.1209                 1.8873
 Frc consts  --     0.0000                 0.0000                 0.0000
 IR Inten    --     0.0250                 4.6591                 0.4776
 Raman Activ --     0.0000                 0.0000                 0.0000
 Depolar     --     0.0000                 0.0000                 0.0000
 Atom AN      X      Y      Z        X      Y      Z        X      Y      Z
   1   6     0.29  -0.33   0.07    -0.16   0.06   0.22    -0.12   0.10   0.02
   2   6     0.01   0.23   0.04     0.19  -0.11  -0.06    -0.03  -0.05   0.02
   3   8    -0.00   0.24  -0.00    -0.06  -0.00  -0.38     0.00  -0.13   0.00
   4   6    -0.01   0.23  -0.04     0.19   0.11  -0.06     0.03  -0.05  -0.02
   5   6    -0.29  -0.33  -0.07    -0.16  -0.06   0.22     0.12   0.10  -0.02
   6   1     0.05  -0.03   0.03     0.10  -0.17   0.12    -0.23   0.38   0.01
   7   1     0.14  -0.19   0.16    -0.06   0.18  -0.13    -0.16  -0.24   0.24
   8   1     0.11  -0.19  -0.13    -0.24   0.07   0.26     0.26   0.00  -0.23
   9   1    -0.07   0.12  -0.09     0.12  -0.07   0.07     0.02   0.00   0.00
  10   1     0.01   0.16   0.13     0.12  -0.06  -0.11    -0.03  -0.02   0.01
  11   1     0.07   0.12   0.09     0.12   0.07   0.07    -0.02   0.00  -0.00
  12   1    -0.01   0.16  -0.13     0.12   0.06  -0.11     0.03  -0.02  -0.01
  13   1    -0.14  -0.19  -0.16    -0.06  -0.18  -0.13     0.16  -0.24  -0.24
  14   1    -0.11  -0.19   0.13    -0.24  -0.07   0.26    -0.26   0.00   0.23
  15   1    -0.05  -0.03  -0.03     0.10   0.17   0.12     0.23   0.38  -0.01
                      4                      5                      6
                        a                      a                      a 
 Frequencies --   227.0763               303.2311               449.1242
 Red. masses --     4.0079                 8.2716                10.9220
 Frc consts  --     0.0000                 0.0000                 0.0000
 IR Inten    --     1.3109                 0.1095                16.3787
 Raman Activ --     0.0000                 0.0000                 0.0000
 Depolar     --     0.0000                 0.0000                 0.0000
 Atom AN      X      Y      Z        X      Y      Z        X      Y      Z
   1   6    -0.12   0.01   0.10    -0.40  -0.13   0.08    -0.22  -0.14   0.01
   2   6     0.16  -0.25  -0.05    -0.31   0.17  -0.15     0.04   0.01  -0.27
   3   8    -0.08  -0.00  -0.15    -0.00  -0.08   0.00     0.51  -0.00   0.43
   4   6     0.16   0.25  -0.05     0.31   0.17   0.15     0.04  -0.01  -0.27
   5   6    -0.12  -0.01   0.10     0.40  -0.13  -0.08    -0.23   0.14   0.01
   6   1    -0.18   0.30   0.07    -0.04  -0.06   0.11     0.03  -0.01   0.17
   7   1    -0.19  -0.22   0.18    -0.11  -0.04   0.03    -0.16  -0.10   0.01
   8   1     0.19   0.00  -0.12    -0.22  -0.10   0.01    -0.19  -0.11   0.00
   9   1     0.09  -0.13   0.09    -0.09   0.14  -0.14     0.00   0.02  -0.10
  10   1     0.10  -0.12  -0.11    -0.15   0.09   0.06    -0.07  -0.02  -0.04
  11   1     0.09   0.13   0.09     0.09   0.14   0.14     0.00  -0.02  -0.10
  12   1     0.10   0.12  -0.11     0.15   0.09  -0.06    -0.07   0.02  -0.04
  13   1    -0.19   0.22   0.18     0.11  -0.04  -0.03    -0.16   0.10   0.01
  14   1     0.19  -0.00  -0.12     0.22  -0.10  -0.01    -0.19   0.11   0.00
  15   1    -0.18  -0.30   0.07     0.04  -0.06  -0.11     0.03   0.01   0.17
                      7                      8                      9
                        a                      a                      a 
 Frequencies --   451.4725               808.0828               810.3757
 Red. masses --     8.6806                 2.2128                 4.5876
 Frc consts  --     0.0000                 0.0000                 0.0000
 IR Inten    --     6.9094                 7.8293                21.5811
 Raman Activ --     0.0000                 0.0000                 0.0000
 Depolar     --     0.0000                 0.0000                 0.0000
 Atom AN      X      Y      Z        X      Y      Z        X      Y      Z
   1   6     0.11   0.14   0.03    -0.02   0.08   0.00     0.15   0.02   0.00
   2   6    -0.18   0.05   0.31    -0.09   0.20  -0.01     0.25  -0.05  -0.23
   3   8    -0.00  -0.52  -0.00     0.02   0.00   0.03     0.00  -0.19   0.00
   4   6     0.18   0.05  -0.31    -0.09  -0.20  -0.01    -0.25  -0.05   0.23
   5   6    -0.11   0.14  -0.03    -0.02  -0.08   0.00    -0.15   0.02  -0.00
   6   1    -0.02  -0.04  -0.13     0.06  -0.09   0.00     0.08   0.14   0.16
   7   1     0.15   0.12  -0.01     0.25  -0.01   0.20    -0.24  -0.03  -0.15
   8   1     0.09   0.08   0.02    -0.12  -0.20  -0.20     0.03   0.13   0.16
   9   1    -0.03   0.18  -0.06     0.15  -0.11   0.28    -0.09   0.11  -0.30
  10   1    -0.17   0.06   0.25     0.01  -0.16  -0.31     0.00   0.14   0.19
  11   1     0.03   0.18   0.07     0.15   0.11   0.28     0.09   0.12   0.30
  12   1     0.17   0.06  -0.24     0.01   0.16  -0.31    -0.00   0.14  -0.19
  13   1    -0.15   0.12   0.01     0.25   0.01   0.20     0.24  -0.03   0.15
  14   1    -0.08   0.08  -0.02    -0.12   0.20  -0.20    -0.03   0.13  -0.16
  15   1     0.02  -0.04   0.13     0.06   0.09   0.00    -0.08   0.14  -0.16
                     10                     11                     12
                        a                      a                      a 
 Frequencies --   867.3224               940.9767              1043.7501
 Red. masses --     6.8472                 8.3451                 8.5388
 Frc consts  --     0.0000                 0.0000                 0.0000
 IR Inten    --     3.5203                12.4691                22.8319
 Raman Activ --     0.0000                 0.0000                 0.0000
 Depolar     --     0.0000                 0.0000                 0.0000
 Atom AN      X      Y      Z        X      Y      Z        X      Y      Z
   1   6    -0.14  -0.19  -0.03     0.30   0.16   0.04     0.28   0.12   0.14
   2   6    -0.10  -0.14   0.23    -0.01   0.05  -0.22    -0.42  -0.19  -0.05
   3   8    -0.00   0.43  -0.00    -0.45   0.00   0.19    -0.00   0.17  -0.00
   4   6     0.10  -0.14  -0.23    -0.01  -0.05  -0.22     0.42  -0.19   0.05
   5   6     0.14  -0.19   0.03     0.30  -0.16   0.04    -0.28   0.12  -0.14
   6   1    -0.18  -0.00  -0.18     0.23   0.13   0.30     0.14   0.10   0.19
   7   1    -0.13   0.03  -0.16    -0.10  -0.06   0.01    -0.03  -0.02   0.03
   8   1     0.15   0.17   0.14    -0.08  -0.02   0.04     0.01   0.03   0.08
   9   1    -0.18  -0.03  -0.05    -0.13  -0.08  -0.04    -0.22  -0.15   0.01
  10   1     0.11   0.12   0.16    -0.04  -0.01  -0.05    -0.10  -0.07  -0.06
  11   1     0.18  -0.03   0.05    -0.13   0.08  -0.04     0.22  -0.15  -0.01
  12   1    -0.11   0.12  -0.16    -0.04   0.01  -0.05     0.10  -0.07   0.06
  13   1     0.13   0.03   0.16    -0.10   0.06   0.01     0.03  -0.02  -0.03
  14   1    -0.15   0.17  -0.14    -0.08   0.02   0.04    -0.01   0.03  -0.08
  15   1     0.18  -0.00   0.18     0.23  -0.13   0.30    -0.14   0.10  -0.19
                     13                     14                     15
                        a                      a                      a 
 Frequencies --  1069.2646              1080.5514              1094.6000
 Red. masses --     9.4705                 6.7331                 7.6918
 Frc consts  --     0.0000                 0.0000                 0.0000
 IR Inten    --    60.3796                 2.0230                96.0484
 Raman Activ --     0.0000                 0.0000                 0.0000
 Depolar     --     0.0000                 0.0000                 0.0000
 Atom AN      X      Y      Z        X      Y      Z        X      Y      Z
   1   6     0.12   0.11   0.31    -0.00  -0.03   0.33    -0.05  -0.13   0.18
   2   6    -0.30  -0.27  -0.24    -0.05  -0.01  -0.38     0.10   0.24  -0.29
   3   8     0.23  -0.00  -0.09     0.00  -0.04  -0.00    -0.22   0.00   0.31
   4   6    -0.30   0.27  -0.24     0.05  -0.01   0.38     0.10  -0.24  -0.29
   5   6     0.12  -0.11   0.31     0.00  -0.03  -0.33    -0.05   0.13   0.18
   6   1    -0.02  -0.04  -0.06    -0.17  -0.08  -0.23    -0.17  -0.04  -0.20
   7   1     0.19   0.08   0.12     0.20   0.13   0.05     0.06   0.09  -0.05
   8   1     0.12   0.05   0.04     0.24   0.11   0.08     0.21   0.12   0.10
   9   1     0.01   0.04  -0.13     0.05   0.02  -0.08    -0.03  -0.06   0.03
  10   1    -0.14  -0.07  -0.02     0.04   0.04  -0.09     0.19   0.11  -0.12
  11   1     0.01  -0.04  -0.13    -0.05   0.02   0.08    -0.03   0.07   0.03
  12   1    -0.14   0.07  -0.02    -0.04   0.04   0.09     0.19  -0.11  -0.12
  13   1     0.19  -0.08   0.12    -0.20   0.13  -0.05     0.06  -0.09  -0.05
  14   1     0.12  -0.05   0.04    -0.24   0.11  -0.08     0.21  -0.12   0.10
  15   1    -0.02   0.04  -0.06     0.17  -0.08   0.23    -0.17   0.04  -0.20
                     16                     17                     18
                        a                      a                      a 
 Frequencies --  1124.4671              1184.4771              1251.8786
 Red. masses --     7.1490                 6.8212                 2.4048
 Frc consts  --     0.0000                 0.0000                 0.0000
 IR Inten    --    67.0967                20.0152                 2.8351
 Raman Activ --     0.0000                 0.0000                 0.0000
 Depolar     --     0.0000                 0.0000                 0.0000
 Atom AN      X      Y      Z        X      Y      Z        X      Y      Z
   1   6     0.15  -0.14  -0.01     0.12  -0.22  -0.03    -0.10   0.17   0.01
   2   6    -0.32   0.13   0.09    -0.14   0.35   0.02     0.02  -0.10   0.01
   3   8     0.36  -0.00  -0.18    -0.00  -0.29   0.00     0.14   0.00  -0.03
   4   6    -0.32  -0.13   0.09     0.14   0.35  -0.02     0.02   0.10   0.01
   5   6     0.15   0.14  -0.01    -0.12  -0.22   0.04    -0.10  -0.17   0.01
   6   1     0.00   0.11   0.07    -0.04   0.10   0.02     0.03  -0.04   0.01
   7   1    -0.19  -0.04  -0.14    -0.20  -0.03  -0.18     0.13   0.02   0.13
   8   1     0.07   0.11   0.16     0.11   0.13   0.17    -0.08  -0.09  -0.12
   9   1    -0.15  -0.18   0.18     0.07  -0.05   0.22    -0.39  -0.22  -0.07
  10   1     0.12  -0.00  -0.18     0.08  -0.02  -0.22     0.34   0.22   0.07
  11   1    -0.15   0.18   0.18    -0.07  -0.05  -0.22    -0.39   0.22  -0.07
  12   1     0.12   0.00  -0.18    -0.08  -0.02   0.22     0.34  -0.22   0.07
  13   1    -0.19   0.04  -0.14     0.20  -0.03   0.18     0.13  -0.02   0.13
  14   1     0.07  -0.11   0.16    -0.11   0.13  -0.17    -0.08   0.09  -0.12
  15   1     0.00  -0.11   0.07     0.04   0.10  -0.02     0.03   0.04   0.01
                     19                     20                     21
                        a                      a                      a 
 Frequencies --  1286.4640              1322.7938              1326.4936
 Red. masses --     2.7849                 3.0791                 3.4183
 Frc consts  --     0.0000                 0.0000                 0.0000
 IR Inten    --     4.2244                28.7998                15.2551
 Raman Activ --     0.0000                 0.0000                 0.0000
 Depolar     --     0.0000                 0.0000                 0.0000
 Atom AN      X      Y      Z        X      Y      Z        X      Y      Z
   1   6     0.05  -0.12   0.01    -0.00  -0.00  -0.12     0.02   0.02  -0.10
   2   6     0.02  -0.06   0.01    -0.22  -0.13  -0.03    -0.25  -0.18  -0.03
   3   8    -0.00   0.29  -0.00    -0.04   0.00   0.14    -0.00   0.05   0.00
   4   6    -0.02  -0.06  -0.01    -0.22   0.13  -0.03     0.25  -0.18   0.03
   5   6    -0.05  -0.12  -0.01    -0.00   0.00  -0.12    -0.02   0.02   0.10
   6   1    -0.03   0.05   0.00     0.08   0.06   0.13     0.08   0.02   0.10
   7   1    -0.05   0.00  -0.08     0.04  -0.02   0.03     0.02  -0.04   0.04
   8   1     0.06   0.05   0.08    -0.01   0.04   0.04    -0.01   0.04   0.04
   9   1     0.31   0.22  -0.03     0.36   0.22   0.03     0.41   0.25   0.01
  10   1    -0.44  -0.26  -0.00     0.38   0.23   0.02     0.32   0.19   0.03
  11   1    -0.31   0.22   0.03     0.36  -0.22   0.03    -0.41   0.25  -0.01
  12   1     0.44  -0.26   0.01     0.38  -0.23   0.02    -0.32   0.19  -0.03
  13   1     0.05   0.00   0.08     0.04   0.02   0.03    -0.02  -0.04  -0.04
  14   1    -0.06   0.05  -0.08    -0.01  -0.04   0.04     0.01   0.04  -0.04
  15   1     0.03   0.05  -0.00     0.08  -0.06   0.13    -0.08   0.02  -0.10
                     22                     23                     24
                        a                      a                      a 
 Frequencies --  1391.8706              1396.1125              1453.8497
 Red. masses --     3.1813                 3.1009                 1.8681
 Frc consts  --     0.0000                 0.0000                 0.0000
 IR Inten    --     3.5609                17.0040                 2.1844
 Raman Activ --     0.0000                 0.0000                 0.0000
 Depolar     --     0.0000                 0.0000                 0.0000
 Atom AN      X      Y      Z        X      Y      Z        X      Y      Z
   1   6     0.23   0.11   0.17     0.23   0.11   0.16    -0.00  -0.03  -0.01
   2   6    -0.05  -0.04   0.01    -0.05  -0.04  -0.01     0.03   0.01   0.18
   3   8     0.00   0.00  -0.00    -0.02   0.00   0.03    -0.05   0.00   0.05
   4   6     0.05  -0.04  -0.01    -0.05   0.04  -0.01     0.03  -0.01   0.18
   5   6    -0.23   0.11  -0.17     0.23  -0.11   0.16    -0.00   0.03  -0.01
   6   1    -0.17  -0.05  -0.32    -0.18  -0.03  -0.31    -0.04   0.07   0.01
   7   1    -0.31  -0.06  -0.12    -0.30  -0.05  -0.13     0.06   0.02   0.01
   8   1    -0.25  -0.23  -0.12    -0.27  -0.24  -0.13    -0.04   0.01   0.05
   9   1     0.05   0.09  -0.06     0.07   0.06  -0.02    -0.14   0.26  -0.37
  10   1     0.07  -0.00  -0.06     0.10   0.05  -0.02     0.16  -0.20  -0.40
  11   1    -0.05   0.09   0.06     0.07  -0.06  -0.02    -0.14  -0.26  -0.37
  12   1    -0.07  -0.00   0.06     0.10  -0.05  -0.02     0.16   0.20  -0.40
  13   1     0.31  -0.06   0.12    -0.30   0.05  -0.13     0.06  -0.02   0.01
  14   1     0.26  -0.23   0.12    -0.27   0.24  -0.13    -0.04  -0.01   0.05
  15   1     0.17  -0.05   0.32    -0.18   0.03  -0.31    -0.04  -0.07   0.01
                     25                     26                     27
                        a                      a                      a 
 Frequencies --  1461.0033              1481.8320              1483.0311
 Red. masses --     1.8310                 1.5622                 1.5394
 Frc consts  --     0.0000                 0.0000                 0.0000
 IR Inten    --     0.1698                 0.5803                 3.9783
 Raman Activ --     0.0000                 0.0000                 0.0000
 Depolar     --     0.0000                 0.0000                 0.0000
 Atom AN      X      Y      Z        X      Y      Z        X      Y      Z
   1   6    -0.06   0.02   0.00     0.06  -0.14  -0.02     0.05  -0.13  -0.03
   2   6     0.00   0.01   0.18     0.02  -0.02  -0.03     0.02  -0.03   0.05
   3   8    -0.00  -0.02   0.00     0.01   0.00  -0.01     0.00  -0.01  -0.00
   4   6    -0.00   0.01  -0.18     0.02   0.02  -0.03    -0.02  -0.03  -0.05
   5   6     0.06   0.02  -0.00     0.06   0.14  -0.02    -0.05  -0.13   0.03
   6   1     0.09  -0.12   0.05    -0.23   0.44   0.03    -0.22   0.42   0.03
   7   1    -0.02  -0.03   0.02     0.27   0.20  -0.06     0.28   0.17  -0.02
   8   1     0.14   0.05  -0.03    -0.28  -0.08   0.10    -0.28  -0.06   0.12
   9   1    -0.14   0.25  -0.35     0.00  -0.05   0.05    -0.06   0.06  -0.11
  10   1     0.15  -0.20  -0.39    -0.05   0.02   0.08     0.08  -0.04  -0.10
  11   1     0.14   0.25   0.35     0.00   0.05   0.05     0.06   0.06   0.11
  12   1    -0.15  -0.20   0.39    -0.05  -0.02   0.08    -0.08  -0.04   0.10
  13   1     0.02  -0.03  -0.02     0.27  -0.20  -0.06    -0.28   0.17   0.02
  14   1    -0.14   0.05   0.03    -0.28   0.08   0.10     0.28  -0.06  -0.12
  15   1    -0.09  -0.12  -0.05    -0.23  -0.44   0.03     0.22   0.42  -0.03
                     28                     29                     30
                        a                      a                      a 
 Frequencies --  1489.2829              1491.7569              2900.0895
 Red. masses --     1.5870                 1.5534                 1.7615
 Frc consts  --     0.0000                 0.0000                 0.0000
 IR Inten    --     2.1880                 0.1434                73.2051
 Raman Activ --     0.0000                 0.0000                 0.0000
 Depolar     --     0.0000                 0.0000                 0.0000
 Atom AN      X      Y      Z        X      Y      Z        X      Y      Z
   1   6     0.07   0.05  -0.13    -0.06  -0.05   0.13    -0.00  -0.00   0.00
   2   6     0.03   0.02  -0.03    -0.03  -0.02   0.01    -0.09   0.14  -0.08
   3   8    -0.00  -0.00   0.00    -0.00   0.00   0.00     0.01   0.00  -0.01
   4   6     0.03  -0.02  -0.03     0.03  -0.02  -0.01    -0.09  -0.14  -0.08
   5   6     0.07  -0.05  -0.13     0.06  -0.05  -0.13    -0.00   0.00   0.00
   6   1    -0.08  -0.06  -0.19     0.06   0.09   0.18     0.00  -0.00  -0.00
   7   1     0.02  -0.30   0.35    -0.01   0.31  -0.36     0.00  -0.00   0.00
   8   1    -0.22   0.17   0.36     0.19  -0.19  -0.36    -0.01   0.02  -0.02
   9   1    -0.01  -0.02   0.01     0.03   0.01   0.02     0.02  -0.04  -0.06
  10   1    -0.02   0.00   0.02     0.03   0.03   0.02     0.28  -0.50   0.36
  11   1    -0.01   0.02   0.01    -0.03   0.01  -0.02     0.02   0.04  -0.06
  12   1    -0.02  -0.00   0.02    -0.03   0.03  -0.02     0.28   0.50   0.36
  13   1     0.02   0.30   0.35     0.01   0.31   0.36     0.00   0.00   0.00
  14   1    -0.22  -0.17   0.36    -0.19  -0.19   0.36    -0.01  -0.02  -0.02
  15   1    -0.08   0.06  -0.19    -0.06   0.09  -0.18     0.00   0.00  -0.00
                     31                     32                     33
                        a                      a                      a 
 Frequencies --  2902.8389              2961.4536              2961.6734
 Red. masses --     1.7559                 1.6649                 1.6626
 Frc consts  --     0.0000                 0.0000                 0.0000
 IR Inten    --    77.8737                23.3299                77.4664
 Raman Activ --     0.0000                 0.0000                 0.0000
 Depolar     --     0.0000                 0.0000                 0.0000
 Atom AN      X      Y      Z        X      Y      Z        X      Y      Z
   1   6     0.00   0.01   0.00     0.01  -0.00  -0.00     0.01  -0.00  -0.01
   2   6     0.09  -0.14   0.08    -0.07   0.11   0.12    -0.07   0.11   0.12
   3   8     0.00  -0.02   0.00     0.00  -0.00  -0.00    -0.02   0.00   0.01
   4   6    -0.09  -0.14  -0.08     0.07   0.11  -0.12    -0.07  -0.11   0.12
   5   6    -0.00   0.01  -0.00    -0.01  -0.00   0.00     0.01   0.00  -0.01
   6   1    -0.01  -0.00   0.01    -0.01  -0.01   0.01    -0.01  -0.01   0.01
   7   1     0.01  -0.01  -0.02    -0.02   0.03   0.03    -0.02   0.04   0.03
   8   1     0.01  -0.02   0.02    -0.00   0.01  -0.01    -0.00   0.00  -0.01
   9   1    -0.02   0.03   0.06     0.30  -0.45  -0.41     0.30  -0.45  -0.41
  10   1    -0.28   0.50  -0.36    -0.04   0.07  -0.02    -0.04   0.08  -0.03
  11   1     0.02   0.03  -0.06    -0.30  -0.45   0.41     0.30   0.45  -0.41
  12   1     0.28   0.50   0.36     0.04   0.07   0.02    -0.04  -0.08  -0.03
  13   1    -0.01  -0.01   0.02     0.02   0.03  -0.03    -0.02  -0.04   0.03
  14   1    -0.01  -0.02  -0.02     0.00   0.01   0.01    -0.00  -0.00  -0.01
  15   1     0.01  -0.00  -0.01     0.01  -0.01  -0.01    -0.01   0.01   0.01
                     34                     35                     36
                        a                      a                      a 
 Frequencies --  3035.3167              3035.6941              3046.0079
 Red. masses --     1.8743                 1.8712                 1.6682
 Frc consts  --     0.0000                 0.0000                 0.0000
 IR Inten    --    55.8125                63.3445                21.6816
 Raman Activ --     0.0000                 0.0000                 0.0000
 Depolar     --     0.0000                 0.0000                 0.0000
 Atom AN      X      Y      Z        X      Y      Z        X      Y      Z
   1   6    -0.10   0.14   0.09     0.10  -0.14  -0.09     0.03  -0.11   0.13
   2   6    -0.01   0.01   0.01     0.01  -0.02  -0.01     0.00  -0.01   0.01
   3   8    -0.00  -0.00   0.00     0.00  -0.00  -0.00    -0.00   0.00  -0.00
   4   6    -0.01  -0.01   0.01    -0.01  -0.02   0.01    -0.00  -0.01  -0.01
   5   6    -0.10  -0.14   0.09    -0.10  -0.14   0.09    -0.03  -0.11  -0.13
   6   1     0.05   0.06  -0.03    -0.05  -0.06   0.04     0.05   0.01  -0.02
   7   1     0.27  -0.44  -0.39    -0.27   0.45   0.39     0.07  -0.13  -0.08
   8   1     0.05  -0.11   0.11    -0.04   0.11  -0.11    -0.25   0.50  -0.37
   9   1     0.03  -0.04  -0.03    -0.02   0.03   0.03     0.00  -0.00   0.00
  10   1    -0.00   0.00  -0.00    -0.01   0.02  -0.01    -0.01   0.02  -0.01
  11   1     0.03   0.04  -0.03     0.02   0.03  -0.03    -0.00  -0.00  -0.00
  12   1    -0.00  -0.00  -0.00     0.01   0.02   0.01     0.01   0.02   0.01
  13   1     0.27   0.45  -0.39     0.27   0.45  -0.39    -0.07  -0.12   0.08
  14   1     0.05   0.11   0.11     0.04   0.11   0.10     0.24   0.49   0.36
  15   1     0.05  -0.06  -0.03     0.05  -0.06  -0.04    -0.05   0.01   0.02
                     37                     38                     39
                        a                      a                      a 
 Frequencies --  3046.1109              3052.6468              3052.7234
 Red. masses --     1.6645                 1.6166                 1.6161
 Frc consts  --     0.0000                 0.0000                 0.0000
 IR Inten    --    58.4054                16.9836                49.1481
 Raman Activ --     0.0000                 0.0000                 0.0000
 Depolar     --     0.0000                 0.0000                 0.0000
 Atom AN      X      Y      Z        X      Y      Z        X      Y      Z
   1   6    -0.03   0.11  -0.13     0.13   0.08  -0.07     0.12   0.08  -0.07
   2   6    -0.00   0.01  -0.01     0.00   0.00  -0.01     0.00  -0.00  -0.00
   3   8     0.00   0.00   0.00     0.00  -0.00   0.00     0.00   0.00   0.00
   4   6    -0.00  -0.01  -0.01    -0.00   0.00   0.01     0.00  -0.00  -0.00
   5   6    -0.03  -0.11  -0.13    -0.12   0.08   0.07     0.13  -0.08  -0.07
   6   1    -0.06  -0.01   0.02    -0.50  -0.28   0.36    -0.49  -0.28   0.36
   7   1    -0.07   0.13   0.08     0.06  -0.06  -0.07     0.06  -0.06  -0.07
   8   1     0.24  -0.49   0.36    -0.00   0.04  -0.04    -0.00   0.05  -0.04
   9   1    -0.00   0.00   0.00    -0.00   0.01   0.01    -0.01   0.01   0.01
  10   1     0.01  -0.02   0.01     0.01  -0.01   0.01     0.00  -0.00   0.00
  11   1    -0.00  -0.00   0.00     0.00   0.01  -0.01    -0.01  -0.01   0.01
  12   1     0.01   0.02   0.01    -0.01  -0.01  -0.01     0.00   0.00   0.00
  13   1    -0.07  -0.13   0.08    -0.06  -0.06   0.07     0.06   0.06  -0.07
  14   1     0.25   0.50   0.36     0.00   0.04   0.03    -0.00  -0.05  -0.04
  15   1    -0.06   0.01   0.02     0.49  -0.28  -0.36    -0.51   0.28   0.36
