      -----------------------------------------------------------      
     |                   =====================                   |     
     |                           x T B                           |     
     |                   =====================                   |     
     |                         S. Grimme                         |     
     |          Mulliken Center for Theoretical Chemistry        |     
     |                    University of Bonn                     |     
      -----------------------------------------------------------      

   * xtb version 6.7.1 (edcfbbe) compiled by 'albert@albert-system' on 2024-07-22

   xtb is free software: you can redistribute it and/or modify it under
   the terms of the GNU Lesser General Public License as published by
   the Free Software Foundation, either version 3 of the License, or
   (at your option) any later version.
   
   xtb is distributed in the hope that it will be useful,
   but WITHOUT ANY WARRANTY; without even the implied warranty of
   MERCHANTABILITY or FITNESS FOR A PARTICULAR PURPOSE.  See the
   GNU Lesser General Public License for more details.
   
   Cite this work as:
   * C. Bannwarth, E. Caldeweyher, S. Ehlert, A. Hansen, P. Pracht,
     J. Seibert, S. Spicher, S. Grimme, WIREs Comput. Mol. Sci., 2020, 11,
     e01493. DOI: 10.1002/wcms.1493
   
   for GFN2-xTB:
   * C. Bannwarth, S. Ehlert and S. Grimme., J. Chem. Theory Comput., 2019,
     15, 1652-1671. DOI: 10.1021/acs.jctc.8b01176
   for GFN1-xTB:
   * S. Grimme, C. Bannwarth, P. Shushkov, J. Chem. Theory Comput., 2017,
     13, 1989-2009. DOI: 10.1021/acs.jctc.7b00118
   for GFN0-xTB:
   * P. Pracht, E. Caldeweyher, S. Ehlert, S. Grimme, ChemRxiv, 2019, preprint.
     DOI: 10.26434/chemrxiv.8326202.v1
   for GFN-FF:
   * S. Spicher and S. Grimme, Angew. Chem. Int. Ed., 2020, 59, 15665-15673.
     DOI: 10.1002/anie.202004239
   
   for ALPB and GBSA implicit solvation:
   * S. Ehlert, M. Stahn, S. Spicher, S. Grimme, J. Chem. Theory Comput.,
     2021, 17, 4250-4261. DOI: 10.1021/acs.jctc.1c00471
   
   for ddCOSMO and CPCM-X implicit solvation:
   * M. Stahn, S. Ehlert, S. Grimme, J. Phys. Chem. A,
     2023, XX, XXXX-XXXX. DOI: 10.1021/acs.jpca.3c04382
   
   for DFT-D4:
   * E. Caldeweyher, C. Bannwarth and S. Grimme, J. Chem. Phys., 2017,
     147, 034112. DOI: 10.1063/1.4993215
   * E. Caldeweyher, S. Ehlert, A. Hansen, H. Neugebauer, S. Spicher,
     C. Bannwarth and S. Grimme, J. Chem. Phys., 2019, 150, 154122.
     DOI: 10.1063/1.5090222
   * E. Caldeweyher, J.-M. Mewes, S. Ehlert and S. Grimme, Phys. Chem. Chem. Phys.
     2020, 22, 8499-8512. DOI: 10.1039/D0CP00502A
   
   for sTDA-xTB:
   * S. Grimme and C. Bannwarth, J. Chem. Phys., 2016, 145, 054103.
     DOI: 10.1063/1.4959605
   
   in the mass-spec context:
   * V. Asgeirsson, C. Bauer and S. Grimme, Chem. Sci., 2017, 8, 4879.
     DOI: 10.1039/c7sc00601b
   * J. Koopman and S. Grimme, ACS Omega 2019, 4, 12, 15120-15133.
     DOI: 10.1021/acsomega.9b02011
   
   for metadynamics refer to:
   * S. Grimme, J. Chem. Theory Comput., 2019, 155, 2847-2862
     DOI: 10.1021/acs.jctc.9b00143
   
   for SPH calculations refer to:
   * S. Spicher and S. Grimme, J. Chem. Theory Comput., 2021, 17, 1701-1714
     DOI: 10.1021/acs.jctc.0c01306
   
   for ONIOM refer to:
   * C. Plett, A. Katbashev, S. Ehlert, S. Grimme, M. Bursch,
     Phys. Chem. Chem. Phys., 2023, 25, 17860-17868. DOI: 10.1039/D3CP02178E
   
   for DIPRO refer to:
   * J. Kohn, N. Gildemeister, S. Grimme, D. Fazzi, A. Hansen,
     J. Chem. Phys., 2023, just accepted.
   
   for PTB refer to:
   * S. Grimme, M. Mueller, A. Hansen, J. Chem. Phys., 2023, 158, 124111.
     DOI: 10.1063/5.0137838
   
   with help from (in alphabetical order)
   P. Atkinson, C. Bannwarth, F. Bohle, G. Brandenburg, E. Caldeweyher
   M. Checinski, S. Dohm, S. Ehlert, S. Ehrlich, I. Gerasimov, C. Hölzer
   A. Katbashev, J. Kohn, J. Koopman, C. Lavigne, S. Lehtola, F. März, M. Müller,
   F. Musil, H. Neugebauer, J. Pisarek, C. Plett, P. Pracht, F. Pultar,
   J. Seibert, P. Shushkov, S. Spicher, M. Stahn, M. Steiner, T. Strunk,
   J. Stückrath, T. Rose, and J. Unsleber
   
 * started run on 2025/04/07 at 02:45:59.817     
   ID    Z sym.   atoms
    1    6 C      1, 2, 4, 5
    2    8 O      3
    3    1 H      6-15

           -------------------------------------------------
          |                Calculation Setup                |
           -------------------------------------------------

          program call               : /srv/scratch/z5358697/.xtb/bin/xtb xtb_rrho.coord --gfn2 --bhess vtight --chrg 0 --enso --norestart -I rrho-xcontrol-inp --parallel 1 --alpb water
          hostname                   : k140
          coordinate file            : xtb_rrho.coord
          omp threads                :                     1


           -------------------------------------------------
          |                 G F N 2 - x T B                 |
           -------------------------------------------------

        Reference                      10.1021/acs.jctc.8b01176
      * Hamiltonian:
        H0-scaling (s, p, d)           1.850000    2.230000    2.230000
        zeta-weighting                 0.500000
      * Dispersion:
        s8                             2.700000
        a1                             0.520000
        a2                             5.000000
        s9                             5.000000
      * Repulsion:
        kExp                           1.500000    1.000000
        rExp                           1.000000
      * Coulomb:
        alpha                          2.000000
        third order                    shell-resolved
        anisotropic                    true
        a3                             3.000000
        a5                             4.000000
        cn-shift                       1.200000
        cn-exp                         4.000000
        max-rad                        5.000000

      * Solvation model:               ALPB
        Solvent                        water
        Parameter file                 internal GFN2-xTB/ALPB
        Dielectric constant                8.0200E+01
        Reference state                gsolv [1 M gas/solution]
        Free energy shift                  1.0808E-03 Eh       6.7819E-01 kcal/mol
        Temperature                        2.9815E+02 K
        Density                            1.0000E+00 kg/L
        Solvent mass                       1.8000E+01 g/mol
        Interaction kernel             P16
        Born radius scaling (c1)           1.4744E+00
        Born radii integrator          GBOBC
        Born offset                        0.0000E+00 a0       0.0000E+00 AA
        H-bond correction              true
        Ion screening                  false
        Surface tension                    1.0000E-05 Eh       1.5569E+01 dyn/cm
        Grid points                               974 per atom

          ...................................................
          :                      SETUP                      :
          :.................................................:
          :  # basis functions                  30          :
          :  # atomic orbitals                  30          :
          :  # shells                           20          :
          :  # electrons                        32          :
          :  max. iterations                   250          :
          :  Hamiltonian                  GFN2-xTB          :
          :  restarted?                      false          :
          :  GBSA solvation                   true          :
          :  PC potential                    false          :
          :  electronic temp.          300.0000000     K    :
          :  accuracy                    1.0000000          :
          :  -> integral cutoff          0.2500000E+02      :
          :  -> integral neglect         0.1000000E-07      :
          :  -> SCF convergence          0.1000000E-05 Eh   :
          :  -> wf. convergence          0.1000000E-03 e    :
          :  Broyden damping             0.4000000          :
          :  net charge                          0          :
          :  unpaired electrons                  0          :
          ...................................................

 iter      E             dE          RMSdq      gap      omega  full diag
   1    -17.8840372 -0.178840E+02  0.356E+00   11.29       0.0  T
   2    -17.9230589 -0.390218E-01  0.173E+00   10.87       1.0  T
   3    -17.9237659 -0.707007E-03  0.716E-01   10.93       1.0  T
   4    -17.9239387 -0.172797E-03  0.121E-01   10.94       1.0  T
   5    -17.9239574 -0.186057E-04  0.649E-02   10.96       1.0  T
   6    -17.9239587 -0.137000E-05  0.756E-03   10.97       3.4  T
   7    -17.9239589 -0.150607E-06  0.249E-03   10.97      10.4  T
   8    -17.9239589 -0.614509E-08  0.122E-03   10.97      21.2  T
   9    -17.9239589 -0.641523E-08  0.157E-04   10.97     164.7  T
  10    -17.9239589  0.820215E-10  0.124E-04   10.97     208.6  T

   *** convergence criteria satisfied after 10 iterations ***

         #    Occupation            Energy/Eh            Energy/eV
      -------------------------------------------------------------
         1        2.0000           -0.6924728             -18.8431
       ...           ...                  ...                  ...
        10        2.0000           -0.4931711             -13.4199
        11        2.0000           -0.4695755             -12.7778
        12        2.0000           -0.4636886             -12.6176
        13        2.0000           -0.4584335             -12.4746
        14        2.0000           -0.4435768             -12.0703
        15        2.0000           -0.4272361             -11.6257
        16        2.0000           -0.4004738             -10.8974 (HOMO)
        17                          0.0026207               0.0713 (LUMO)
        18                          0.0760843               2.0704
        19                          0.1135163               3.0889
        20                          0.1146100               3.1187
        21                          0.1254364               3.4133
       ...                                ...                  ...
        30                          0.2917917               7.9401
      -------------------------------------------------------------
                  HL-Gap            0.4030944 Eh           10.9688 eV
             Fermi-level           -0.1989265 Eh           -5.4131 eV

 SCC (total)                   0 d,  0 h,  0 min,  0.016 sec
 SCC setup                      ...        0 min,  0.001 sec (  4.311%)
 Dispersion                     ...        0 min,  0.000 sec (  0.328%)
 classical contributions        ...        0 min,  0.000 sec (  0.087%)
 integral evaluation            ...        0 min,  0.001 sec (  4.298%)
 iterations                     ...        0 min,  0.012 sec ( 74.710%)
 molecular gradient             ...        0 min,  0.003 sec ( 15.611%)
 printout                       ...        0 min,  0.000 sec (  0.595%)

         :::::::::::::::::::::::::::::::::::::::::::::::::::::
         ::                     SUMMARY                     ::
         :::::::::::::::::::::::::::::::::::::::::::::::::::::
         :: total energy             -17.721583522336 Eh    ::
         :: total w/o Gsasa/hb       -17.721849454726 Eh    ::
         :: gradient norm              0.026613088873 Eh/a0 ::
         :: HOMO-LUMO gap             10.968758259201 eV    ::
         ::.................................................::
         :: SCC energy               -17.923949538139 Eh    ::
         :: -> isotropic ES            0.027403744886 Eh    ::
         :: -> anisotropic ES          0.004310139734 Eh    ::
         :: -> anisotropic XC          0.006641366490 Eh    ::
         :: -> dispersion             -0.007012962304 Eh    ::
         :: -> Gsolv                  -0.003567527459 Eh    ::
         ::    -> Gelec               -0.003833459849 Eh    ::
         ::    -> Gsasa                0.000157286665 Eh    ::
         ::    -> Ghb                 -0.000972113974 Eh    ::
         ::    -> Gshift               0.001080759698 Eh    ::
         :: repulsion energy           0.202366015803 Eh    ::
         :: add. restraining           0.000000000000 Eh    ::
         :: total charge              -0.000000000000 e     ::
         :::::::::::::::::::::::::::::::::::::::::::::::::::::

metadynamics with 1 initial structures loaded
           -------------------------------------------------
          |           Optimal kpush determination           |
           -------------------------------------------------
      ----------------------------------------------------------- 
     |                   =====================                   |
     |                        A N C O P T                        |
     |                   =====================                   |
     |               Approximate Normal Coordinate               |
     |                Rational Function Optimizer                |
      ----------------------------------------------------------- 
target rmsd / Å         0.100000
unbiased initial rmsd   0.072678
 
iter. min.        max.        rmsd       kpush
final kpush:  0.000000
           -------------------------------------------------
          |            Biased Numerical Hessian             |
           -------------------------------------------------
kpush                :   0.00000
alpha                :   1.00000
step length          :   0.00500
SCC accuracy         :   0.30000
Hessian scale factor :   1.00000
frozen atoms in %    :   0.00000    0
RMS gradient         :   0.00002
estimated CPU  time      0.01 min
estimated wall time      0.01 min

writing file <hessian>.

 projected vibrational frequencies (cm⁻¹)
eigval :       -0.00    -0.00     0.00     0.00     0.00     0.00
eigval :       30.95   125.20   186.64   227.08   303.23   449.12
eigval :      451.47   808.08   810.38   867.32   940.98  1043.75
eigval :     1069.26  1080.55  1094.60  1124.47  1184.48  1251.88
eigval :     1286.46  1322.79  1326.49  1391.87  1396.11  1453.85
eigval :     1461.00  1481.83  1483.03  1489.28  1491.76  2900.09
eigval :     2902.84  2961.45  2961.67  3035.32  3035.69  3046.01
eigval :     3046.11  3052.65  3052.72
           -------------------------------------------------
          |                Property Printout                |
           -------------------------------------------------

    * Orbital Energies and Occupations

         #    Occupation            Energy/Eh            Energy/eV
      -------------------------------------------------------------
         1        2.0000           -0.6967644             -18.9599
       ...           ...                  ...                  ...
         4        2.0000           -0.5953962             -16.2016
         5        2.0000           -0.5689345             -15.4815
         6        2.0000           -0.5492293             -14.9453
         7        2.0000           -0.5443426             -14.8123
         8        2.0000           -0.5159961             -14.0410
         9        2.0000           -0.4939995             -13.4424
        10        2.0000           -0.4930680             -13.4171
        11        2.0000           -0.4678111             -12.7298
        12        2.0000           -0.4649006             -12.6506
        13        2.0000           -0.4598707             -12.5137
        14        2.0000           -0.4436897             -12.0734
        15        2.0000           -0.4263869             -11.6026
        16        2.0000           -0.3986714             -10.8484 (HOMO)
        17                          0.0210360               0.5724 (LUMO)
        18                          0.0924499               2.5157
        19                          0.1174688               3.1965
        20                          0.1190561               3.2397
        21                          0.1254074               3.4125
        22                          0.1499212               4.0796
        23                          0.1695871               4.6147
        24                          0.1953014               5.3144
        25                          0.1973868               5.3712
        26                          0.2001416               5.4461
        27                          0.2443442               6.6489
       ...                                ...                  ...
        30                          0.2965111               8.0685
      -------------------------------------------------------------
                  HL-Gap            0.4197073 Eh           11.4208 eV
             Fermi-level           -0.1888177 Eh           -5.1380 eV

     #   Z          covCN         q      C6AA      α(0)
     1   6 C        3.750    -0.126    22.981     6.837
     2   6 C        3.687     0.078    19.473     6.317
     3   8 O        1.698    -0.369    20.241     6.074
     4   6 C        3.687     0.078    19.473     6.317
     5   6 C        3.750    -0.126    22.981     6.837
     6   1 H        0.925     0.054     2.269     2.356
     7   1 H        0.925     0.046     2.375     2.410
     8   1 H        0.925     0.053     2.289     2.366
     9   1 H        0.924     0.051     2.306     2.375
    10   1 H        0.924     0.030     2.593     2.518
    11   1 H        0.924     0.051     2.306     2.375
    12   1 H        0.924     0.030     2.593     2.518
    13   1 H        0.925     0.046     2.375     2.410
    14   1 H        0.925     0.053     2.289     2.366
    15   1 H        0.925     0.054     2.269     2.356

 Mol. C6AA /au·bohr⁶  :       1459.725429
 Mol. C8AA /au·bohr⁸  :      29710.536519
 Mol. α(0) /au        :         56.431653


Wiberg/Mayer (AO) data.
largest (>0.10) Wiberg bond orders for each atom

 ---------------------------------------------------------------------------
     #   Z sym  total        # sym  WBO       # sym  WBO       # sym  WBO
 ---------------------------------------------------------------------------
     1   6 C    3.994 --     2 C    1.010     8 H    0.987     7 H    0.984
                             6 H    0.984
     2   6 C    3.948 --     1 C    1.010     3 O    0.973     9 H    0.971
                            10 H    0.969
     3   8 O    2.046 --     4 C    0.973     2 C    0.973
     4   6 C    3.948 --     5 C    1.010     3 O    0.973    11 H    0.971
                            12 H    0.969
     5   6 C    3.994 --     4 C    1.010    14 H    0.987    13 H    0.984
                            15 H    0.984
     6   1 H    0.997 --     1 C    0.984
     7   1 H    0.998 --     1 C    0.984
     8   1 H    0.997 --     1 C    0.987
     9   1 H    0.997 --     2 C    0.971
    10   1 H    0.999 --     2 C    0.969
    11   1 H    0.997 --     4 C    0.971
    12   1 H    0.999 --     4 C    0.969
    13   1 H    0.998 --     5 C    0.984
    14   1 H    0.997 --     5 C    0.987
    15   1 H    0.997 --     5 C    0.984
 ---------------------------------------------------------------------------

Topologies differ in total number of bonds
Writing topology from bond orders to xtbtopo.mol

molecular dipole:
                 x           y           z       tot (Debye)
 q only:       -0.000       0.597      -0.000
   full:       -0.000       0.725      -0.000       1.843
molecular quadrupole (traceless):
                xx          xy          yy          xz          yz          zz
 q only:        3.021      -0.000      -2.751      -1.074       0.001      -0.270
  q+dip:        1.926      -0.000      -2.208      -0.956       0.001       0.282
   full:        2.439      -0.000      -2.598      -1.195       0.001       0.160

           -------------------------------------------------
          |                Geometry Summary                 |
           -------------------------------------------------

      molecular mass/u    :       74.1217560
   center of mass at/Å    :       -0.0000079      -0.0000626      -0.0000062
  moments of inertia/u·Å² :        0.4708141E+02   0.1887808E+03   0.1901524E+03
rotational constants/cm⁻¹ :        0.3580528E+00   0.8929740E-01   0.8865329E-01

 * 14 selected distances

     #   Z          #   Z                                           value/Å
     1   6 C        2   6 C                                       1.5273565
     2   6 C        3   8 O                                       1.4197979
     3   8 O        4   6 C                                       1.4197977
     4   6 C        5   6 C                                       1.5273566 (max)
     1   6 C        6   1 H                                       1.0856126
     1   6 C        7   1 H                                       1.0871620
     1   6 C        8   1 H                                       1.0868440
     2   6 C        9   1 H                                       1.0928491
     2   6 C       10   1 H                                       1.0964049
     4   6 C       11   1 H                                       1.0928492
     4   6 C       12   1 H                                       1.0964049
     5   6 C       13   1 H                                       1.0871622
     5   6 C       14   1 H                                       1.0868440
     5   6 C       15   1 H                                       1.0856125 (min)

 * 3 distinct bonds (by element types)

   Z      Z             #   av. dist./Å        max./Å        min./Å
   1 H    6 C          10     1.0897745     1.0964049     1.0856125
   6 C    6 C           2     1.5273565     1.5273566     1.5273565
   6 C    8 O           2     1.4197978     1.4197979     1.4197977

           -------------------------------------------------
          |               Frequency Printout                |
           -------------------------------------------------
 projected vibrational frequencies (cm⁻¹)
eigval :       -0.00    -0.00     0.00     0.00     0.00     0.00
eigval :       30.95   125.20   186.64   227.08   303.23   449.12
eigval :      451.47   808.08   810.38   867.32   940.98  1043.75
eigval :     1069.26  1080.55  1094.60  1124.47  1184.48  1251.88
eigval :     1286.46  1322.79  1326.49  1391.87  1396.11  1453.85
eigval :     1461.00  1481.83  1483.03  1489.28  1491.76  2900.09
eigval :     2902.84  2961.45  2961.67  3035.32  3035.69  3046.01
eigval :     3046.11  3052.65  3052.72
 reduced masses (amu)
   1:  8.85   2: 11.42   3:  8.84   4: 11.74   5: 10.05   6: 10.67   7:  7.44   8:  6.12
   9:  1.89  10:  4.01  11:  8.27  12: 10.92  13:  8.68  14:  2.21  15:  4.59  16:  6.85
  17:  8.35  18:  8.54  19:  9.47  20:  6.73  21:  7.69  22:  7.15  23:  6.82  24:  2.40
  25:  2.78  26:  3.08  27:  3.42  28:  3.18  29:  3.10  30:  1.87  31:  1.83  32:  1.56
  33:  1.54  34:  1.59  35:  1.55  36:  1.76  37:  1.76  38:  1.66  39:  1.66  40:  1.87
  41:  1.87  42:  1.67  43:  1.66  44:  1.62  45:  1.62
 IR intensities (km·mol⁻¹)
   1:  0.84   2:  0.01   3:  1.18   4:  0.59   5:  0.79   6:  0.45   7:  0.02   8:  4.66
   9:  0.48  10:  1.31  11:  0.11  12: 16.38  13:  6.91  14:  7.83  15: 21.58  16:  3.52
  17: 12.47  18: 22.83  19: 60.38  20:  2.02  21: 96.05  22: 67.10  23: 20.02  24:  2.84
  25:  4.22  26: 28.80  27: 15.26  28:  3.56  29: 17.00  30:  2.18  31:  0.17  32:  0.58
  33:  3.98  34:  2.19  35:  0.14  36: 73.21  37: 77.87  38: 23.33  39: 77.47  40: 55.81
  41: 63.34  42: 21.68  43: 58.41  44: 16.98  45: 49.15
 Raman intensities (Ä⁴*amu⁻¹)
   1:  0.00   2:  0.00   3:  0.00   4:  0.00   5:  0.00   6:  0.00   7:  0.00   8:  0.00
   9:  0.00  10:  0.00  11:  0.00  12:  0.00  13:  0.00  14:  0.00  15:  0.00  16:  0.00
  17:  0.00  18:  0.00  19:  0.00  20:  0.00  21:  0.00  22:  0.00  23:  0.00  24:  0.00
  25:  0.00  26:  0.00  27:  0.00  28:  0.00  29:  0.00  30:  0.00  31:  0.00  32:  0.00
  33:  0.00  34:  0.00  35:  0.00  36:  0.00  37:  0.00  38:  0.00  39:  0.00  40:  0.00
  41:  0.00  42:  0.00  43:  0.00  44:  0.00  45:  0.00
 output can be read by thermo (or use thermo option).
 writing <g98.out> molden fake output.
 recommended (thermochemical) frequency scaling factor: 1.0
           -------------------------------------------------
          |             Thermodynamic Functions             |
           -------------------------------------------------

Molecule has the following symmetry elements: (C2) 
It seems to be the C2 point group
c2  symmetry found (for desy threshold:  0.10E+00) used in thermo

          ...................................................
          :                      SETUP                      :
          :.................................................:
          :  # frequencies                          39      :
          :  # imaginary freq.                       0      :
          :  linear?                             false      :
          :  only rotor calc.                    false      :
          :  symmetry                               c2      :
          :  rotational number                       2      :
          :  scaling factor                  1.0000000      :
          :  rotor cutoff                    0.0000000 cm⁻¹ :
          :  imag. cutoff                 -100.0000000 cm⁻¹ :
          :.................................................:

    mode    ω/cm⁻¹     T·S(HO)/kcal·mol⁻¹    T·S(FR)/kcal·mol⁻¹   T·S(vib)
   ------------------------------------------------------------------------
       1     30.95    -1.71964 (100.00%)    -1.19753 (  0.00%)    -1.71964
       2    125.20    -0.89998 (100.00%)    -0.78436 (  0.00%)    -0.89998
       3    186.64    -0.67411 (100.00%)    -0.66617 (  0.00%)    -0.67411
       4    227.08    -0.56706 (100.00%)    -0.60810 (  0.00%)    -0.56706
   ------------------------------------------------------------------------

   temp. (K)  partition function   enthalpy   heat capacity  entropy
                                   cal/mol     cal/K/mol   cal/K/mol   J/K/mol
 298.15  VIB   74.6                 2580.460     17.224     17.223
         ROT  0.497E+05              888.752      2.981     24.469
         INT  0.370E+07             3469.212     20.205     41.692
         TR   0.617E+27             1481.254      4.968     38.808
         TOT                        4950.4659    25.1735    80.4998   336.8110

       T/K    H(0)-H(T)+PV         H(T)/Eh          T*S/Eh         G(T)/Eh
   ------------------------------------------------------------------------
    298.15    0.788907E-02    0.141455E+00    0.382480E-01    0.103207E+00
   ------------------------------------------------------------------------

         :::::::::::::::::::::::::::::::::::::::::::::::::::::
         ::                  THERMODYNAMIC                  ::
         :::::::::::::::::::::::::::::::::::::::::::::::::::::
         :: total free energy         -17.619455934676 Eh   ::
         ::.................................................::
         :: total energy              -17.722662472024 Eh   ::
         :: zero point energy           0.133565498323 Eh   ::
         :: G(RRHO) w/o ZPVE           -0.030358960975 Eh   ::
         :: G(RRHO) contrib.            0.103206537348 Eh   ::
         :::::::::::::::::::::::::::::::::::::::::::::::::::::

optimized geometry written to: xtbopt.coord


           -------------------------------------------------
          | TOTAL ENERGY              -17.722662472024 Eh   |
          | TOTAL ENTHALPY            -17.581207904083 Eh   |
          | TOTAL FREE ENERGY         -17.619455934676 Eh   |
          | GRADIENT NORM               0.000022804083 Eh/α |
          | HOMO-LUMO GAP              11.420817514234 eV   |
           -------------------------------------------------

------------------------------------------------------------------------
 * finished run on 2025/04/07 at 02:46:00.556     
------------------------------------------------------------------------
 total:
 * wall-time:     0 d,  0 h,  0 min,  0.739 sec
 *  cpu-time:     0 d,  0 h,  0 min,  0.670 sec
 * ratio c/w:     0.907 speedup
 SCF:
 * wall-time:     0 d,  0 h,  0 min,  0.016 sec
 *  cpu-time:     0 d,  0 h,  0 min,  0.008 sec
 * ratio c/w:     0.502 speedup
 analytical hessian:
 * wall-time:     0 d,  0 h,  0 min,  0.412 sec
 *  cpu-time:     0 d,  0 h,  0 min,  0.402 sec
 * ratio c/w:     0.976 speedup

