! pbe def2-sv(p) def2/J RI DEFGRID1 loosescf d4 GCP(DFT/SV(P)) printgap
%output
    printlevel normal
end
* xyz 0 1
C -2.5267829875 -0.9539980982 0.3386604749
C -1.1006449543 -0.4806452042 0.6366158685
H -0.9637691168 -0.4171955013 1.7305316383
C -0.8314841732 0.8982050593 0.0133102853
H -1.0601952489 0.8426268471 -1.0557730095
C 0.6422230244 1.2751097348 0.2032308138
H 0.839104831 1.4208470292 1.2812974195
C 1.570910007 0.1607261937 -0.2922784889
H 1.4886031553 0.0780847862 -1.3849483264
C 1.1504942755 -1.185486359 0.3141640154
H 1.3669032161 -1.150919538 1.4047113986
O -0.2171169948 -1.452871244 0.1158836463
O 1.8635991346 -2.1893376482 -0.3034621588
O 2.8965193432 0.4044905014 0.0966757144
O 0.9678367418 2.4530352682 -0.4957736054
O -1.6672757623 1.8989388571 0.5368031423
O -2.7397827754 -0.9290884733 -1.0518619773
H -3.2248541891 -0.2787733437 0.8488060909
H -2.6337111526 -1.9704693813 0.7334973924
H 1.4709691009 -3.0481941548 -0.0779027994
H 3.1749538822 1.2488765763 -0.2909119563
H 0.2285666638 3.0757463074 -0.414640875
H -1.5416993323 1.9646614933 1.4959071214
H -3.6139132791 -1.2953576127 -1.245158462
*
