 Entering Gaussian System
 *********************************************
 Gaussian 98:
 frequency output generated by the xtb code
 *********************************************
                         Standard orientation:
 --------------------------------------------------------------------
  Center     Atomic     Atomic              Coordinates (Angstroms)
  Number     Number      Type              X           Y           Z
 --------------------------------------------------------------------
    1          6             0        1.661360   -0.694420   -0.563082
    2          6             0        1.366307    0.537350    0.286532
    3          6             0       -0.027219    0.532231    0.918948
    4          6             0       -1.177718    0.542200   -0.096247
    5          8             0       -1.666658   -0.745269   -0.416004
    6          1             0        2.700247   -0.685548   -0.884714
    7          1             0        1.491389   -1.603533    0.009581
    8          1             0        1.040223   -0.711335   -1.455560
    9          1             0        2.103145    0.598404    1.090186
   10          1             0        1.474204    1.434042   -0.327939
   11          1             0       -0.144725   -0.346331    1.556977
   12          1             0       -0.118748    1.415804    1.551978
   13          1             0       -2.042223    1.063561    0.321486
   14          1             0       -0.871207    1.067856   -1.010987
   15          1             0       -0.941240   -1.279041   -0.768329
 --------------------------------------------------------------------
     1 basis functions        1 primitive gaussians
     1 alpha electrons        1 beta electrons
 
 Harmonic frequencies (cm**-1), IR intensities (km*mol⁻¹),
 Raman scattering activities (A**4/amu), Raman depolarization ratios,
 reduced masses (AMU), force constants (mDyne/A) and normal coordinates:
                      1                      2                      3
                        a                      a                      a 
 Frequencies --   100.8366               118.5463               240.5535
 Red. masses --     8.9449                 7.9371                 3.2863
 Frc consts  --     0.0000                 0.0000                 0.0000
 IR Inten    --     4.6323                 0.0718                30.1001
 Raman Activ --     0.0000                 0.0000                 0.0000
 Depolar     --     0.0000                 0.0000                 0.0000
 Atom AN      X      Y      Z        X      Y      Z        X      Y      Z
   1   6     0.19   0.22  -0.09    -0.42   0.10  -0.24     0.24   0.03  -0.02
   2   6     0.10  -0.00   0.19     0.04  -0.12   0.25     0.09  -0.01  -0.00
   3   6    -0.01  -0.16  -0.07    -0.05   0.24   0.05     0.02   0.04  -0.14
   4   6     0.19  -0.06  -0.32     0.13  -0.04  -0.15    -0.15  -0.02   0.03
   5   8    -0.47   0.03   0.29     0.32  -0.18   0.11    -0.18  -0.06   0.18
   6   1     0.04   0.14  -0.09    -0.10  -0.08  -0.01     0.19  -0.20   0.39
   7   1     0.14   0.02  -0.07    -0.28  -0.02  -0.19    -0.35  -0.00  -0.15
   8   1    -0.00   0.07   0.01    -0.07   0.24  -0.11     0.40   0.23  -0.24
   9   1    -0.01  -0.07   0.09    -0.01  -0.22   0.11    -0.03  -0.03   0.05
  10   1     0.06   0.05   0.13     0.15   0.02   0.18     0.08   0.01   0.03
  11   1    -0.03  -0.08  -0.07    -0.07   0.13   0.09     0.01   0.02  -0.02
  12   1    -0.04  -0.08   0.03    -0.02   0.13  -0.07     0.01   0.02  -0.05
  13   1     0.10   0.17  -0.22     0.01   0.00  -0.13    -0.02  -0.03   0.07
  14   1     0.18  -0.20  -0.15     0.08  -0.07  -0.07    -0.11   0.01  -0.00
  15   1    -0.18  -0.14   0.17     0.11  -0.05   0.09    -0.14   0.11  -0.33
                      4                      5                      6
                        a                      a                      a 
 Frequencies --   299.8423               326.2375               391.2214
 Red. masses --     6.5735                 2.3627                 9.7436
 Frc consts  --     0.0000                 0.0000                 0.0000
 IR Inten    --     6.0628               126.7194                52.6680
 Raman Activ --     0.0000                 0.0000                 0.0000
 Depolar     --     0.0000                 0.0000                 0.0000
 Atom AN      X      Y      Z        X      Y      Z        X      Y      Z
   1   6     0.37  -0.06  -0.17    -0.11   0.02   0.07     0.08  -0.07  -0.08
   2   6     0.01  -0.33   0.13     0.15   0.02   0.13    -0.33  -0.13  -0.09
   3   6    -0.15   0.23  -0.13     0.08   0.12  -0.04    -0.24  -0.14   0.05
   4   6    -0.31   0.11   0.07     0.03  -0.10  -0.05     0.05   0.27  -0.17
   5   8     0.02  -0.00   0.04    -0.07  -0.11   0.06     0.41   0.07   0.41
   6   1     0.08   0.20  -0.14    -0.11   0.09  -0.23     0.04   0.09   0.03
   7   1     0.33  -0.09  -0.09     0.17   0.01   0.09     0.09  -0.04  -0.04
   8   1     0.03  -0.07   0.00    -0.24  -0.07   0.17     0.08  -0.08  -0.06
   9   1    -0.07  -0.20   0.12     0.03  -0.05   0.06    -0.07   0.02  -0.05
  10   1     0.14  -0.06   0.11     0.10   0.01   0.06    -0.16  -0.04  -0.04
  11   1    -0.13   0.17   0.09     0.01   0.07   0.03    -0.14  -0.13  -0.12
  12   1     0.04   0.17  -0.16    -0.01   0.07  -0.07    -0.02  -0.13   0.14
  13   1    -0.10  -0.05   0.10     0.02  -0.04   0.03    -0.01   0.12  -0.16
  14   1    -0.18   0.09   0.02    -0.03  -0.02  -0.02     0.10  -0.02  -0.07
  15   1     0.08   0.02   0.14    -0.24   0.18  -0.75     0.04   0.19  -0.28
                      7                      8                      9
                        a                      a                      a 
 Frequencies --   465.1322               803.8520               829.3381
 Red. masses --     6.7128                 2.9854                 7.7509
 Frc consts  --     0.0000                 0.0000                 0.0000
 IR Inten    --     1.0309                11.7870                11.0656
 Raman Activ --     0.0000                 0.0000                 0.0000
 Depolar     --     0.0000                 0.0000                 0.0000
 Atom AN      X      Y      Z        X      Y      Z        X      Y      Z
   1   6     0.13  -0.03  -0.15    -0.02  -0.03  -0.11     0.13  -0.19  -0.11
   2   6    -0.26  -0.11  -0.09    -0.11   0.14  -0.22     0.33   0.08   0.06
   3   6    -0.03   0.18   0.43    -0.02   0.18   0.12    -0.07   0.23   0.37
   4   6     0.26  -0.19   0.09    -0.01  -0.02   0.14    -0.33   0.18  -0.04
   5   8    -0.15   0.03  -0.17    -0.04  -0.07  -0.07    -0.08  -0.23  -0.10
   6   1     0.07   0.10   0.07     0.05   0.00   0.13     0.00  -0.13  -0.14
   7   1     0.06  -0.05  -0.10     0.05   0.14   0.24    -0.02  -0.10  -0.12
   8   1     0.13  -0.03  -0.11     0.12  -0.37  -0.11    -0.05   0.10   0.02
   9   1     0.02   0.08  -0.12    -0.11  -0.45   0.06     0.17   0.16  -0.07
  10   1    -0.21  -0.06  -0.09     0.33   0.19   0.24     0.01  -0.06  -0.13
  11   1    -0.02   0.22   0.34     0.16  -0.07  -0.10     0.02  -0.09  -0.10
  12   1     0.03   0.23  -0.12    -0.02  -0.07   0.20    -0.03  -0.09   0.31
  13   1     0.06   0.04  -0.13    -0.04   0.06  -0.12    -0.15   0.13  -0.25
  14   1     0.24  -0.11   0.05     0.14  -0.10   0.03     0.08  -0.12  -0.05
  15   1    -0.11  -0.03  -0.13     0.01   0.01  -0.02     0.08   0.07  -0.02
                     10                     11                     12
                        a                      a                      a 
 Frequencies --   901.9500               959.6301               976.6703
 Red. masses --     4.6774                 4.4020                 8.1980
 Frc consts  --     0.0000                 0.0000                 0.0000
 IR Inten    --     2.4306                22.1225                42.9803
 Raman Activ --     0.0000                 0.0000                 0.0000
 Depolar     --     0.0000                 0.0000                 0.0000
 Atom AN      X      Y      Z        X      Y      Z        X      Y      Z
   1   6    -0.13  -0.09   0.09     0.12  -0.09  -0.25    -0.17   0.26   0.10
   2   6    -0.19  -0.07   0.08     0.09   0.11   0.09     0.00  -0.23  -0.01
   3   6     0.15   0.38  -0.02    -0.14   0.06   0.24     0.35  -0.09   0.13
   4   6     0.24   0.01  -0.04     0.18   0.03  -0.27    -0.12   0.35  -0.18
   5   8    -0.08  -0.10  -0.05    -0.00   0.02   0.06    -0.12  -0.33  -0.07
   6   1    -0.00   0.32   0.13     0.04  -0.24  -0.05     0.01   0.17   0.19
   7   1     0.14  -0.21  -0.23    -0.06   0.14   0.17     0.02   0.13   0.14
   8   1     0.09   0.07  -0.07     0.00  -0.21  -0.04     0.08  -0.12  -0.05
   9   1    -0.02   0.02  -0.01     0.15  -0.02  -0.09     0.18  -0.11  -0.16
  10   1     0.07  -0.15  -0.15    -0.16   0.13   0.14    -0.17   0.00   0.06
  11   1     0.09  -0.13  -0.31    -0.27  -0.00  -0.01    -0.13   0.04   0.08
  12   1    -0.04  -0.13   0.30    -0.12  -0.00   0.08     0.31   0.03  -0.01
  13   1     0.06  -0.15   0.17     0.01  -0.27   0.23     0.01   0.09   0.03
  14   1    -0.17   0.09  -0.04    -0.27   0.24  -0.04    -0.12   0.01  -0.11
  15   1    -0.12  -0.17   0.00    -0.17  -0.23   0.01     0.08   0.05   0.01
                     13                     14                     15
                        a                      a                      a 
 Frequencies --  1044.9131              1096.0096              1125.9064
 Red. masses --     7.6534                 7.3165                 6.5564
 Frc consts  --     0.0000                 0.0000                 0.0000
 IR Inten    --    29.9779                92.5233                 4.8679
 Raman Activ --     0.0000                 0.0000                 0.0000
 Depolar     --     0.0000                 0.0000                 0.0000
 Atom AN      X      Y      Z        X      Y      Z        X      Y      Z
   1   6    -0.23  -0.07  -0.02    -0.09  -0.31  -0.21     0.09  -0.21   0.02
   2   6     0.20   0.09   0.09    -0.04   0.33   0.32    -0.26   0.24  -0.04
   3   6     0.07  -0.11   0.13     0.05  -0.06  -0.19     0.25  -0.20   0.22
   4   6    -0.29  -0.32  -0.27     0.15   0.17   0.14    -0.11   0.22  -0.33
   5   8     0.10   0.34   0.11    -0.13  -0.22  -0.06    -0.01  -0.08   0.05
   6   1     0.01   0.28   0.20     0.01   0.04   0.04    -0.01  -0.03  -0.10
   7   1     0.15  -0.08  -0.05     0.09  -0.11  -0.07    -0.00  -0.14  -0.15
   8   1     0.16  -0.17  -0.15     0.10  -0.20  -0.14    -0.05   0.12   0.05
   9   1     0.25  -0.04  -0.15     0.01   0.14   0.06    -0.24  -0.03   0.17
  10   1     0.03  -0.02  -0.04    -0.14   0.12   0.11     0.12   0.10   0.09
  11   1     0.16   0.00   0.11    -0.04   0.04   0.02     0.40   0.04   0.23
  12   1    -0.22   0.02  -0.06    -0.16   0.03  -0.12     0.07   0.06  -0.08
  13   1    -0.06  -0.07  -0.04     0.21   0.21   0.16    -0.07  -0.08   0.01
  14   1    -0.08  -0.01  -0.05    -0.02  -0.08  -0.05    -0.05   0.22   0.01
  15   1     0.06   0.13   0.03     0.22   0.27   0.02    -0.06  -0.09  -0.00
                     16                     17                     18
                        a                      a                      a 
 Frequencies --  1133.6999              1179.0575              1220.7126
 Red. masses --     6.9359                 4.5617                 3.8320
 Frc consts  --     0.0000                 0.0000                 0.0000
 IR Inten    --    11.2579                38.5914                 4.3868
 Raman Activ --     0.0000                 0.0000                 0.0000
 Depolar     --     0.0000                 0.0000                 0.0000
 Atom AN      X      Y      Z        X      Y      Z        X      Y      Z
   1   6    -0.15   0.00   0.09    -0.08  -0.08  -0.17    -0.05  -0.21   0.15
   2   6     0.30   0.11  -0.18    -0.01   0.04   0.31     0.07   0.30  -0.20
   3   6    -0.32  -0.23   0.00     0.17   0.02  -0.26     0.02  -0.08   0.06
   4   6     0.15   0.35   0.11    -0.17   0.07   0.16    -0.03  -0.13   0.06
   5   8    -0.02  -0.22   0.01     0.13   0.05  -0.01     0.05   0.11  -0.03
   6   1    -0.00   0.21   0.12     0.02   0.02   0.08    -0.02   0.15  -0.01
   7   1     0.09  -0.09  -0.08     0.03   0.02   0.04     0.07  -0.21  -0.20
   8   1     0.08   0.00  -0.06     0.05  -0.18  -0.08     0.03   0.15   0.00
   9   1     0.09  -0.05  -0.06     0.02   0.17   0.05    -0.05  -0.09   0.03
  10   1     0.25  -0.06  -0.14    -0.24   0.05   0.08     0.01   0.23   0.18
  11   1    -0.10   0.04   0.12     0.07   0.00  -0.07    -0.52   0.03  -0.02
  12   1    -0.20   0.04  -0.15     0.20  -0.01  -0.03     0.43   0.01   0.04
  13   1    -0.08  -0.06  -0.04    -0.28  -0.10  -0.29    -0.03  -0.02  -0.04
  14   1     0.18   0.24   0.17     0.22   0.03   0.13    -0.09  -0.17  -0.10
  15   1    -0.14  -0.21  -0.03    -0.29  -0.39  -0.06    -0.05  -0.06  -0.01
                     19                     20                     21
                        a                      a                      a 
 Frequencies --  1267.1252              1298.4702              1332.0157
 Red. masses --     2.4664                 2.9176                 3.5502
 Frc consts  --     0.0000                 0.0000                 0.0000
 IR Inten    --     0.4779                28.2445                30.7148
 Raman Activ --     0.0000                 0.0000                 0.0000
 Depolar     --     0.0000                 0.0000                 0.0000
 Atom AN      X      Y      Z        X      Y      Z        X      Y      Z
   1   6    -0.13   0.08  -0.21     0.01   0.02  -0.03    -0.00   0.01  -0.02
   2   6     0.12   0.03   0.08    -0.02   0.01   0.00    -0.03  -0.06  -0.09
   3   6    -0.07  -0.08   0.13     0.01  -0.11   0.08     0.39  -0.05   0.07
   4   6     0.01  -0.07  -0.10    -0.08   0.18   0.18     0.14   0.10   0.12
   5   8    -0.02   0.02   0.01     0.21   0.07  -0.10    -0.10   0.03   0.01
   6   1     0.01   0.01   0.09     0.01  -0.00   0.02    -0.00   0.02   0.00
   7   1     0.03   0.12   0.13    -0.02   0.02   0.02    -0.02   0.03   0.03
   8   1     0.06  -0.22  -0.11    -0.02  -0.02   0.01    -0.01   0.01   0.00
   9   1    -0.35   0.36   0.34    -0.02  -0.02   0.02    -0.19   0.06   0.14
  10   1     0.31  -0.24  -0.30     0.09  -0.08  -0.09     0.02  -0.02  -0.02
  11   1    -0.13   0.01   0.06     0.09   0.02   0.10    -0.29  -0.01  -0.05
  12   1     0.34  -0.00   0.07    -0.21   0.02  -0.07    -0.43   0.01  -0.10
  13   1     0.04  -0.02   0.06     0.11   0.25   0.06    -0.36  -0.34  -0.32
  14   1    -0.05  -0.00  -0.03    -0.37  -0.45  -0.36    -0.14  -0.10  -0.10
  15   1     0.03   0.05   0.01    -0.26  -0.36  -0.07     0.10   0.16   0.02
                     22                     23                     24
                        a                      a                      a 
 Frequencies --  1348.8671              1358.6547              1409.7274
 Red. masses --     4.8161                 3.9854                 3.3023
 Frc consts  --     0.0000                 0.0000                 0.0000
 IR Inten    --     5.1881                35.9213                 1.8015
 Raman Activ --     0.0000                 0.0000                 0.0000
 Depolar     --     0.0000                 0.0000                 0.0000
 Atom AN      X      Y      Z        X      Y      Z        X      Y      Z
   1   6    -0.12  -0.08   0.01     0.01  -0.06  -0.04     0.10  -0.34  -0.24
   2   6     0.37  -0.26  -0.26    -0.01  -0.06  -0.11    -0.08   0.06   0.08
   3   6    -0.18   0.09   0.04     0.33   0.07   0.07    -0.04  -0.03  -0.04
   4   6     0.07   0.03  -0.01    -0.30  -0.12  -0.09     0.05   0.00   0.02
   5   8    -0.01  -0.01  -0.00     0.10  -0.04  -0.00    -0.02   0.00   0.00
   6   1     0.00   0.18   0.11     0.01   0.09   0.05     0.08   0.42   0.21
   7   1     0.05   0.02   0.08    -0.03   0.06   0.08    -0.16   0.27   0.41
   8   1     0.01   0.10  -0.02    -0.04   0.08   0.02    -0.21   0.42   0.12
   9   1    -0.28   0.22   0.25    -0.16   0.08   0.11     0.12  -0.01  -0.10
  10   1    -0.38   0.25   0.31     0.01   0.03   0.03     0.12  -0.04  -0.04
  11   1     0.27  -0.01   0.03    -0.35   0.01  -0.06     0.02   0.02   0.04
  12   1    -0.06  -0.01   0.06    -0.35  -0.02   0.01     0.09  -0.02   0.02
  13   1     0.02   0.01   0.02     0.25   0.35   0.18    -0.04  -0.04  -0.05
  14   1    -0.10  -0.02  -0.05     0.26   0.19   0.21    -0.04  -0.01  -0.02
  15   1     0.01   0.01  -0.00    -0.10  -0.17  -0.02     0.03   0.04   0.00
                     25                     26                     27
                        a                      a                      a 
 Frequencies --  1470.0698              1474.6394              1492.3470
 Red. masses --     1.8798                 1.8164                 1.8757
 Frc consts  --     0.0000                 0.0000                 0.0000
 IR Inten    --     1.5699                 0.9318                 0.0985
 Raman Activ --     0.0000                 0.0000                 0.0000
 Depolar     --     0.0000                 0.0000                 0.0000
 Atom AN      X      Y      Z        X      Y      Z        X      Y      Z
   1   6     0.03   0.01   0.03     0.01  -0.01  -0.00     0.01   0.04   0.02
   2   6     0.01  -0.01  -0.02    -0.04  -0.08  -0.02    -0.16  -0.20  -0.05
   3   6     0.04   0.00  -0.23    -0.03   0.01   0.13    -0.00  -0.02  -0.05
   4   6    -0.06   0.11  -0.07    -0.11   0.16  -0.08     0.05  -0.05   0.04
   5   8     0.00   0.03   0.00     0.00   0.03  -0.00     0.00  -0.01  -0.00
   6   1    -0.02   0.06  -0.06    -0.00   0.05  -0.00     0.00  -0.00   0.02
   7   1    -0.09  -0.00  -0.03    -0.05   0.01  -0.00    -0.06  -0.05  -0.10
   8   1     0.01  -0.05  -0.00    -0.01  -0.01   0.01    -0.04  -0.12   0.03
   9   1    -0.01  -0.02   0.01     0.05   0.20  -0.06     0.19   0.55  -0.23
  10   1    -0.01  -0.00  -0.01     0.15   0.07   0.14     0.46   0.20   0.39
  11   1    -0.06   0.35   0.46     0.03  -0.21  -0.27    -0.01   0.07   0.10
  12   1    -0.10  -0.34   0.45     0.02   0.20  -0.26    -0.02  -0.07   0.08
  13   1    -0.03  -0.25   0.25    -0.02  -0.35   0.41    -0.00   0.11  -0.14
  14   1     0.25  -0.24  -0.05     0.40  -0.38  -0.08    -0.15   0.11   0.01
  15   1     0.00   0.01  -0.00     0.00   0.01   0.01    -0.00  -0.00  -0.00
                     28                     29                     30
                        a                      a                      a 
 Frequencies --  1500.9774              1510.2062              2875.1462
 Red. masses --     1.6022                 1.5520                 1.7550
 Frc consts  --     0.0000                 0.0000                 0.0000
 IR Inten    --     1.2989                 1.1502                97.6672
 Raman Activ --     0.0000                 0.0000                 0.0000
 Depolar     --     0.0000                 0.0000                 0.0000
 Atom AN      X      Y      Z        X      Y      Z        X      Y      Z
   1   6    -0.20  -0.01  -0.05    -0.04  -0.11   0.18     0.00   0.00   0.00
   2   6    -0.09  -0.02  -0.00    -0.03  -0.04   0.04     0.00  -0.00   0.00
   3   6     0.02  -0.00  -0.03     0.00   0.00   0.00     0.00  -0.00  -0.00
   4   6    -0.01   0.03  -0.00     0.00  -0.00   0.01     0.09   0.09  -0.23
   5   8     0.00   0.01   0.00     0.00  -0.00  -0.00     0.01   0.01  -0.00
   6   1     0.02  -0.42   0.10    -0.19   0.17  -0.61    -0.00   0.00   0.00
   7   1     0.66   0.02   0.23    -0.14   0.16   0.24     0.00  -0.00   0.00
   8   1     0.15   0.43  -0.12     0.51   0.12  -0.35    -0.00   0.00  -0.00
   9   1     0.05   0.05  -0.06     0.02   0.05  -0.02    -0.00  -0.00  -0.00
  10   1     0.09   0.02   0.04     0.04  -0.01   0.01    -0.00   0.01  -0.01
  11   1    -0.01   0.04   0.05     0.01  -0.01  -0.02     0.00   0.03  -0.02
  12   1    -0.02  -0.04   0.05    -0.00   0.01  -0.02    -0.00  -0.00  -0.00
  13   1    -0.01  -0.04   0.03     0.00   0.03  -0.03    -0.07   0.07   0.01
  14   1     0.04  -0.05  -0.01    -0.03   0.03   0.00    -0.28  -0.45   0.80
  15   1    -0.01  -0.01  -0.01    -0.02  -0.03  -0.00    -0.00  -0.00   0.00
                     31                     32                     33
                        a                      a                      a 
 Frequencies --  2963.2269              2969.8405              2977.6951
 Red. masses --     1.9392                 1.7119                 1.7244
 Frc consts  --     0.0000                 0.0000                 0.0000
 IR Inten    --    54.6875                25.3356                51.8977
 Raman Activ --     0.0000                 0.0000                 0.0000
 Depolar     --     0.0000                 0.0000                 0.0000
 Atom AN      X      Y      Z        X      Y      Z        X      Y      Z
   1   6    -0.01   0.01  -0.02    -0.00   0.00  -0.00    -0.01   0.00  -0.00
   2   6     0.09  -0.15   0.22     0.03  -0.02   0.05     0.11   0.07   0.06
   3   6     0.01   0.06  -0.02    -0.00  -0.11  -0.03     0.00  -0.19   0.02
   4   6     0.03  -0.01  -0.01    -0.18   0.11   0.07     0.06  -0.05  -0.02
   5   8    -0.00  -0.00  -0.00     0.00   0.01   0.00    -0.00  -0.00  -0.00
   6   1     0.01   0.00  -0.01     0.00  -0.00  -0.00     0.03   0.00  -0.01
   7   1    -0.01  -0.05   0.03    -0.00  -0.01   0.01    -0.00   0.00   0.00
   8   1     0.04   0.00   0.05     0.01   0.00   0.01     0.02   0.00   0.03
   9   1    -0.39  -0.05  -0.42    -0.12  -0.01  -0.13    -0.38  -0.01  -0.42
  10   1     0.08   0.58  -0.39     0.01   0.07  -0.05    -0.01  -0.26   0.20
  11   1    -0.03  -0.19   0.14     0.02   0.11  -0.09     0.05   0.39  -0.30
  12   1     0.01  -0.05  -0.05    -0.03   0.28   0.20    -0.03   0.31   0.24
  13   1    -0.10   0.06   0.05     0.68  -0.41  -0.35    -0.25   0.15   0.13
  14   1     0.01   0.01  -0.02    -0.05  -0.03   0.08     0.03   0.02  -0.05
  15   1     0.00  -0.00  -0.00    -0.01   0.01   0.01     0.01  -0.00  -0.00
                     34                     35                     36
                        a                      a                      a 
 Frequencies --  2982.2089              2993.2059              3023.9958
 Red. masses --     1.6710                 1.5608                 1.8710
 Frc consts  --     0.0000                 0.0000                 0.0000
 IR Inten    --   105.5703                90.5099                79.7111
 Raman Activ --     0.0000                 0.0000                 0.0000
 Depolar     --     0.0000                 0.0000                 0.0000
 Atom AN      X      Y      Z        X      Y      Z        X      Y      Z
   1   6     0.02   0.01  -0.01     0.02   0.00   0.00     0.26   0.11   0.02
   2   6    -0.09  -0.13   0.00    -0.04  -0.03  -0.04     0.02   0.02   0.01
   3   6    -0.02  -0.17   0.09     0.03  -0.09  -0.19    -0.00   0.01   0.00
   4   6     0.02  -0.02  -0.00     0.04  -0.03  -0.02    -0.00   0.00   0.00
   5   8    -0.00  -0.00  -0.00    -0.00  -0.00  -0.00    -0.00   0.00   0.00
   6   1    -0.06  -0.00   0.02    -0.05  -0.00   0.01    -0.54  -0.00   0.17
   7   1    -0.01  -0.05   0.03     0.00  -0.01   0.01    -0.04  -0.39   0.27
   8   1    -0.01   0.00  -0.02    -0.02   0.00  -0.03    -0.33   0.02  -0.51
   9   1     0.27   0.00   0.32     0.17   0.01   0.19    -0.06  -0.00  -0.07
  10   1     0.03   0.44  -0.32     0.00   0.09  -0.07    -0.00  -0.04   0.03
  11   1     0.07   0.53  -0.38    -0.04  -0.36   0.22    -0.00  -0.01   0.01
  12   1    -0.01   0.06   0.07    -0.07   0.66   0.44     0.00  -0.03  -0.02
  13   1    -0.09   0.05   0.05    -0.17   0.10   0.08     0.01  -0.01  -0.00
  14   1     0.02   0.01  -0.03     0.01   0.00  -0.01    -0.00   0.00   0.00
  15   1     0.00  -0.00  -0.00     0.01  -0.00  -0.00     0.00  -0.00  -0.00
                     37                     38                     39
                        a                      a                      a 
 Frequencies --  3027.4497              3038.7730              3494.7566
 Red. masses --     1.9467                 1.3270                 1.8726
 Frc consts  --     0.0000                 0.0000                 0.0000
 IR Inten    --    84.0928                40.9866                81.9431
 Raman Activ --     0.0000                 0.0000                 0.0000
 Depolar     --     0.0000                 0.0000                 0.0000
 Atom AN      X      Y      Z        X      Y      Z        X      Y      Z
   1   6     0.06  -0.17   0.23     0.11  -0.06  -0.12     0.00  -0.00   0.00
   2   6     0.01  -0.02   0.03     0.01   0.00  -0.00    -0.00  -0.00  -0.00
   3   6    -0.00  -0.00   0.00    -0.00   0.00   0.00     0.00  -0.00  -0.00
   4   6    -0.00  -0.00   0.00     0.00  -0.00  -0.00     0.00  -0.01  -0.00
   5   8    -0.00   0.00  -0.00     0.00  -0.00  -0.00     0.18  -0.13  -0.09
   6   1    -0.03  -0.03   0.05    -0.75  -0.02   0.21     0.00  -0.00  -0.00
   7   1     0.14   0.64  -0.40     0.07   0.26  -0.19     0.00   0.00   0.00
   8   1    -0.33  -0.02  -0.44     0.31  -0.01   0.40    -0.00   0.00  -0.00
   9   1    -0.04  -0.00  -0.04    -0.01  -0.00  -0.01     0.00   0.00   0.00
  10   1     0.01   0.05  -0.04    -0.00  -0.02   0.01    -0.00   0.00  -0.00
  11   1     0.00   0.01  -0.01    -0.00   0.00  -0.00    -0.00   0.00  -0.00
  12   1     0.00  -0.00  -0.00     0.00  -0.01  -0.01    -0.00   0.00   0.00
  13   1     0.00  -0.00  -0.00    -0.00   0.00   0.00    -0.01   0.00   0.00
  14   1    -0.00   0.00  -0.00    -0.00  -0.00   0.00     0.00   0.00  -0.00
  15   1     0.00  -0.00  -0.00    -0.00   0.00   0.00    -0.72   0.54   0.36
