      -----------------------------------------------------------      
     |                   =====================                   |     
     |                           x T B                           |     
     |                   =====================                   |     
     |                         S. Grimme                         |     
     |          Mulliken Center for Theoretical Chemistry        |     
     |                    University of Bonn                     |     
      -----------------------------------------------------------      

   * xtb version 6.7.1 (edcfbbe) compiled by 'albert@albert-system' on 2024-07-22

   xtb is free software: you can redistribute it and/or modify it under
   the terms of the GNU Lesser General Public License as published by
   the Free Software Foundation, either version 3 of the License, or
   (at your option) any later version.
   
   xtb is distributed in the hope that it will be useful,
   but WITHOUT ANY WARRANTY; without even the implied warranty of
   MERCHANTABILITY or FITNESS FOR A PARTICULAR PURPOSE.  See the
   GNU Lesser General Public License for more details.
   
   Cite this work as:
   * C. Bannwarth, E. Caldeweyher, S. Ehlert, A. Hansen, P. Pracht,
     J. Seibert, S. Spicher, S. Grimme, WIREs Comput. Mol. Sci., 2020, 11,
     e01493. DOI: 10.1002/wcms.1493
   
   for GFN2-xTB:
   * C. Bannwarth, S. Ehlert and S. Grimme., J. Chem. Theory Comput., 2019,
     15, 1652-1671. DOI: 10.1021/acs.jctc.8b01176
   for GFN1-xTB:
   * S. Grimme, C. Bannwarth, P. Shushkov, J. Chem. Theory Comput., 2017,
     13, 1989-2009. DOI: 10.1021/acs.jctc.7b00118
   for GFN0-xTB:
   * P. Pracht, E. Caldeweyher, S. Ehlert, S. Grimme, ChemRxiv, 2019, preprint.
     DOI: 10.26434/chemrxiv.8326202.v1
   for GFN-FF:
   * S. Spicher and S. Grimme, Angew. Chem. Int. Ed., 2020, 59, 15665-15673.
     DOI: 10.1002/anie.202004239
   
   for ALPB and GBSA implicit solvation:
   * S. Ehlert, M. Stahn, S. Spicher, S. Grimme, J. Chem. Theory Comput.,
     2021, 17, 4250-4261. DOI: 10.1021/acs.jctc.1c00471
   
   for ddCOSMO and CPCM-X implicit solvation:
   * M. Stahn, S. Ehlert, S. Grimme, J. Phys. Chem. A,
     2023, XX, XXXX-XXXX. DOI: 10.1021/acs.jpca.3c04382
   
   for DFT-D4:
   * E. Caldeweyher, C. Bannwarth and S. Grimme, J. Chem. Phys., 2017,
     147, 034112. DOI: 10.1063/1.4993215
   * E. Caldeweyher, S. Ehlert, A. Hansen, H. Neugebauer, S. Spicher,
     C. Bannwarth and S. Grimme, J. Chem. Phys., 2019, 150, 154122.
     DOI: 10.1063/1.5090222
   * E. Caldeweyher, J.-M. Mewes, S. Ehlert and S. Grimme, Phys. Chem. Chem. Phys.
     2020, 22, 8499-8512. DOI: 10.1039/D0CP00502A
   
   for sTDA-xTB:
   * S. Grimme and C. Bannwarth, J. Chem. Phys., 2016, 145, 054103.
     DOI: 10.1063/1.4959605
   
   in the mass-spec context:
   * V. Asgeirsson, C. Bauer and S. Grimme, Chem. Sci., 2017, 8, 4879.
     DOI: 10.1039/c7sc00601b
   * J. Koopman and S. Grimme, ACS Omega 2019, 4, 12, 15120-15133.
     DOI: 10.1021/acsomega.9b02011
   
   for metadynamics refer to:
   * S. Grimme, J. Chem. Theory Comput., 2019, 155, 2847-2862
     DOI: 10.1021/acs.jctc.9b00143
   
   for SPH calculations refer to:
   * S. Spicher and S. Grimme, J. Chem. Theory Comput., 2021, 17, 1701-1714
     DOI: 10.1021/acs.jctc.0c01306
   
   for ONIOM refer to:
   * C. Plett, A. Katbashev, S. Ehlert, S. Grimme, M. Bursch,
     Phys. Chem. Chem. Phys., 2023, 25, 17860-17868. DOI: 10.1039/D3CP02178E
   
   for DIPRO refer to:
   * J. Kohn, N. Gildemeister, S. Grimme, D. Fazzi, A. Hansen,
     J. Chem. Phys., 2023, just accepted.
   
   for PTB refer to:
   * S. Grimme, M. Mueller, A. Hansen, J. Chem. Phys., 2023, 158, 124111.
     DOI: 10.1063/5.0137838
   
   with help from (in alphabetical order)
   P. Atkinson, C. Bannwarth, F. Bohle, G. Brandenburg, E. Caldeweyher
   M. Checinski, S. Dohm, S. Ehlert, S. Ehrlich, I. Gerasimov, C. Hölzer
   A. Katbashev, J. Kohn, J. Koopman, C. Lavigne, S. Lehtola, F. März, M. Müller,
   F. Musil, H. Neugebauer, J. Pisarek, C. Plett, P. Pracht, F. Pultar,
   J. Seibert, P. Shushkov, S. Spicher, M. Stahn, M. Steiner, T. Strunk,
   J. Stückrath, T. Rose, and J. Unsleber
   
 * started run on 2025/04/06 at 22:34:25.809     
   ID    Z sym.   atoms
    1    6 C      1-4
    2    8 O      5
    3    1 H      6-15

           -------------------------------------------------
          |                Calculation Setup                |
           -------------------------------------------------

          program call               : /srv/scratch/z5358697/.xtb/bin/xtb xtb_rrho.coord --gfn2 --bhess vtight --chrg 0 --enso --norestart -I rrho-xcontrol-inp --parallel 1 --alpb water
          hostname                   : k159
          coordinate file            : xtb_rrho.coord
          omp threads                :                     1


           -------------------------------------------------
          |                 G F N 2 - x T B                 |
           -------------------------------------------------

        Reference                      10.1021/acs.jctc.8b01176
      * Hamiltonian:
        H0-scaling (s, p, d)           1.850000    2.230000    2.230000
        zeta-weighting                 0.500000
      * Dispersion:
        s8                             2.700000
        a1                             0.520000
        a2                             5.000000
        s9                             5.000000
      * Repulsion:
        kExp                           1.500000    1.000000
        rExp                           1.000000
      * Coulomb:
        alpha                          2.000000
        third order                    shell-resolved
        anisotropic                    true
        a3                             3.000000
        a5                             4.000000
        cn-shift                       1.200000
        cn-exp                         4.000000
        max-rad                        5.000000

      * Solvation model:               ALPB
        Solvent                        water
        Parameter file                 internal GFN2-xTB/ALPB
        Dielectric constant                8.0200E+01
        Reference state                gsolv [1 M gas/solution]
        Free energy shift                  1.0808E-03 Eh       6.7819E-01 kcal/mol
        Temperature                        2.9815E+02 K
        Density                            1.0000E+00 kg/L
        Solvent mass                       1.8000E+01 g/mol
        Interaction kernel             P16
        Born radius scaling (c1)           1.4744E+00
        Born radii integrator          GBOBC
        Born offset                        0.0000E+00 a0       0.0000E+00 AA
        H-bond correction              true
        Ion screening                  false
        Surface tension                    1.0000E-05 Eh       1.5569E+01 dyn/cm
        Grid points                               974 per atom

          ...................................................
          :                      SETUP                      :
          :.................................................:
          :  # basis functions                  30          :
          :  # atomic orbitals                  30          :
          :  # shells                           20          :
          :  # electrons                        32          :
          :  max. iterations                   250          :
          :  Hamiltonian                  GFN2-xTB          :
          :  restarted?                      false          :
          :  GBSA solvation                   true          :
          :  PC potential                    false          :
          :  electronic temp.          300.0000000     K    :
          :  accuracy                    1.0000000          :
          :  -> integral cutoff          0.2500000E+02      :
          :  -> integral neglect         0.1000000E-07      :
          :  -> SCF convergence          0.1000000E-05 Eh   :
          :  -> wf. convergence          0.1000000E-03 e    :
          :  Broyden damping             0.4000000          :
          :  net charge                          0          :
          :  unpaired electrons                  0          :
          ...................................................

 iter      E             dE          RMSdq      gap      omega  full diag
   1    -17.9032762 -0.179033E+02  0.332E+00   12.03       0.0  T
   2    -17.9297010 -0.264248E-01  0.172E+00   11.85       1.0  T
   3    -17.9304260 -0.725091E-03  0.620E-01   11.85       1.0  T
   4    -17.9305666 -0.140597E-03  0.115E-01   11.83       1.0  T
   5    -17.9305830 -0.164044E-04  0.632E-02   11.84       1.0  T
   6    -17.9305855 -0.244050E-05  0.119E-02   11.85       2.2  T
   7    -17.9305857 -0.234414E-06  0.529E-03   11.85       4.9  T
   8    -17.9305858 -0.481519E-07  0.204E-03   11.85      12.7  T
   9    -17.9305858 -0.457740E-08  0.520E-04   11.85      49.6  T
  10    -17.9305858 -0.814858E-09  0.179E-04   11.85     144.5  T

   *** convergence criteria satisfied after 10 iterations ***

         #    Occupation            Energy/Eh            Energy/eV
      -------------------------------------------------------------
         1        2.0000           -0.6826949             -18.5771
       ...           ...                  ...                  ...
        10        2.0000           -0.4903592             -13.3434
        11        2.0000           -0.4687227             -12.7546
        12        2.0000           -0.4635685             -12.6143
        13        2.0000           -0.4428278             -12.0500
        14        2.0000           -0.4286444             -11.6640
        15        2.0000           -0.4250832             -11.5671
        16        2.0000           -0.4092422             -11.1360 (HOMO)
        17                          0.0260716               0.7094 (LUMO)
        18                          0.0835083               2.2724
        19                          0.0881915               2.3998
        20                          0.1189543               3.2369
        21                          0.1322762               3.5994
       ...                                ...                  ...
        30                          0.2946603               8.0181
      -------------------------------------------------------------
                  HL-Gap            0.4353137 Eh           11.8455 eV
             Fermi-level           -0.1915853 Eh           -5.2133 eV

 SCC (total)                   0 d,  0 h,  0 min,  0.019 sec
 SCC setup                      ...        0 min,  0.001 sec (  3.538%)
 Dispersion                     ...        0 min,  0.000 sec (  0.283%)
 classical contributions        ...        0 min,  0.000 sec (  0.062%)
 integral evaluation            ...        0 min,  0.001 sec (  3.706%)
 iterations                     ...        0 min,  0.016 sec ( 82.187%)
 molecular gradient             ...        0 min,  0.002 sec (  9.662%)
 printout                       ...        0 min,  0.000 sec (  0.500%)

         :::::::::::::::::::::::::::::::::::::::::::::::::::::
         ::                     SUMMARY                     ::
         :::::::::::::::::::::::::::::::::::::::::::::::::::::
         :: total energy             -17.724515679547 Eh    ::
         :: total w/o Gsasa/hb       -17.723083863552 Eh    ::
         :: gradient norm              0.026901520253 Eh/a0 ::
         :: HOMO-LUMO gap             11.845489518661 eV    ::
         ::.................................................::
         :: SCC energy               -17.930573373118 Eh    ::
         :: -> isotropic ES            0.035115643810 Eh    ::
         :: -> anisotropic ES          0.003374142044 Eh    ::
         :: -> anisotropic XC          0.006673247200 Eh    ::
         :: -> dispersion             -0.007399896721 Eh    ::
         :: -> Gsolv                  -0.006046272269 Eh    ::
         ::    -> Gelec               -0.004614456274 Eh    ::
         ::    -> Gsasa                0.000826115502 Eh    ::
         ::    -> Ghb                 -0.003338691196 Eh    ::
         ::    -> Gshift               0.001080759698 Eh    ::
         :: repulsion energy           0.206057693571 Eh    ::
         :: add. restraining           0.000000000000 Eh    ::
         :: total charge               0.000000000000 e     ::
         :::::::::::::::::::::::::::::::::::::::::::::::::::::

metadynamics with 1 initial structures loaded
           -------------------------------------------------
          |           Optimal kpush determination           |
           -------------------------------------------------
      ----------------------------------------------------------- 
     |                   =====================                   |
     |                        A N C O P T                        |
     |                   =====================                   |
     |               Approximate Normal Coordinate               |
     |                Rational Function Optimizer                |
      ----------------------------------------------------------- 
target rmsd / Å         0.100000
unbiased initial rmsd   0.099101
 
iter. min.        max.        rmsd       kpush
final kpush:  0.000000
           -------------------------------------------------
          |            Biased Numerical Hessian             |
           -------------------------------------------------
kpush                :   0.00000
alpha                :   1.00000
step length          :   0.00500
SCC accuracy         :   0.30000
Hessian scale factor :   1.00000
frozen atoms in %    :   0.00000    0
RMS gradient         :   0.00005
estimated CPU  time      0.01 min
estimated wall time      0.01 min

writing file <hessian>.

 projected vibrational frequencies (cm⁻¹)
eigval :       -0.00    -0.00    -0.00     0.00     0.00     0.00
eigval :      100.84   118.55   240.55   299.84   326.24   391.22
eigval :      465.13   803.85   829.34   901.95   959.63   976.67
eigval :     1044.91  1096.01  1125.91  1133.70  1179.06  1220.71
eigval :     1267.13  1298.47  1332.02  1348.87  1358.65  1409.73
eigval :     1470.07  1474.64  1492.35  1500.98  1510.21  2875.15
eigval :     2963.23  2969.84  2977.70  2982.21  2993.21  3024.00
eigval :     3027.45  3038.77  3494.76
           -------------------------------------------------
          |                Property Printout                |
           -------------------------------------------------

    * Orbital Energies and Occupations

         #    Occupation            Energy/Eh            Energy/eV
      -------------------------------------------------------------
         1        2.0000           -0.6865898             -18.6831
       ...           ...                  ...                  ...
         4        2.0000           -0.5889400             -16.0259
         5        2.0000           -0.5645027             -15.3609
         6        2.0000           -0.5521797             -15.0256
         7        2.0000           -0.5272712             -14.3478
         8        2.0000           -0.5090330             -13.8515
         9        2.0000           -0.4994236             -13.5900
        10        2.0000           -0.4911038             -13.3636
        11        2.0000           -0.4681578             -12.7392
        12        2.0000           -0.4622142             -12.5775
        13        2.0000           -0.4416629             -12.0183
        14        2.0000           -0.4310264             -11.7288
        15        2.0000           -0.4235731             -11.5260
        16        2.0000           -0.4077587             -11.0957 (HOMO)
        17                          0.0523701               1.4251 (LUMO)
        18                          0.0866548               2.3580
        19                          0.0979270               2.6647
        20                          0.1248836               3.3983
        21                          0.1365658               3.7161
        22                          0.1416585               3.8547
        23                          0.1593443               4.3360
        24                          0.1880058               5.1159
        25                          0.2041399               5.5549
        26                          0.2285171               6.2183
        27                          0.2589999               7.0477
       ...                                ...                  ...
        30                          0.3026134               8.2345
      -------------------------------------------------------------
                  HL-Gap            0.4601289 Eh           12.5207 eV
             Fermi-level           -0.1776943 Eh           -4.8353 eV

     #   Z          covCN         q      C6AA      α(0)
     1   6 C        3.751    -0.112    22.703     6.795
     2   6 C        3.799    -0.060    21.663     6.627
     3   6 C        3.799    -0.079    22.014     6.680
     4   6 C        3.673     0.079    19.489     6.327
     5   8 O        1.654    -0.512    23.160     6.497
     6   1 H        0.925     0.040     2.449     2.447
     7   1 H        0.925     0.040     2.443     2.444
     8   1 H        0.925     0.037     2.486     2.465
     9   1 H        0.924     0.038     2.482     2.464
    10   1 H        0.924     0.035     2.517     2.481
    11   1 H        0.924     0.051     2.310     2.377
    12   1 H        0.924     0.040     2.444     2.445
    13   1 H        0.924     0.040     2.448     2.447
    14   1 H        0.923     0.024     2.667     2.554
    15   1 H        0.805     0.339     0.615     1.232

 Mol. C6AA /au·bohr⁶  :       1457.929383
 Mol. C8AA /au·bohr⁸  :      29865.930731
 Mol. α(0) /au        :         56.281299


Wiberg/Mayer (AO) data.
largest (>0.10) Wiberg bond orders for each atom

 ---------------------------------------------------------------------------
     #   Z sym  total        # sym  WBO       # sym  WBO       # sym  WBO
 ---------------------------------------------------------------------------
     1   6 C    3.996 --     2 C    1.020     7 H    0.987     6 H    0.986
                             8 H    0.984
     2   6 C    3.997 --     1 C    1.020     3 C    1.009    10 H    0.978
                             9 H    0.978
     3   6 C    3.995 --     2 C    1.009     4 C    0.996    12 H    0.977
                            11 H    0.974
     4   6 C    3.951 --     3 C    0.996     5 O    0.992    13 H    0.976
                            14 H    0.970
     5   8 O    1.916 --     4 C    0.992    15 H    0.865
     6   1 H    0.998 --     1 C    0.986
     7   1 H    0.998 --     1 C    0.987
     8   1 H    0.999 --     1 C    0.984
     9   1 H    0.999 --     2 C    0.978
    10   1 H    0.999 --     2 C    0.978
    11   1 H    0.997 --     3 C    0.974
    12   1 H    0.998 --     3 C    0.977
    13   1 H    0.998 --     4 C    0.976
    14   1 H    0.999 --     4 C    0.970
    15   1 H    0.885 --     5 O    0.865
 ---------------------------------------------------------------------------

Topologies differ in total number of bonds
Writing topology from bond orders to xtbtopo.mol

molecular dipole:
                 x           y           z       tot (Debye)
 q only:        0.752       0.106      -0.022
   full:        0.907       0.141      -0.069       2.339
molecular quadrupole (traceless):
                xx          xy          yy          xz          yz          zz
 q only:       -3.869      -2.058       2.399      -0.664       1.056       1.470
  q+dip:       -4.957      -3.020       2.372      -0.969       0.303       2.584
   full:       -4.892      -2.919       2.716      -0.959       0.839       2.176

           -------------------------------------------------
          |                Geometry Summary                 |
           -------------------------------------------------

      molecular mass/u    :       74.1217560
   center of mass at/Å    :       -0.0006054       0.0007523      -0.0001727
  moments of inertia/u·Å² :        0.6550082E+02   0.1521937E+03   0.1937607E+03
rotational constants/cm⁻¹ :        0.2573652E+00   0.1107643E+00   0.8700232E-01

 * 14 selected distances

     #   Z          #   Z                                           value/Å
     1   6 C        2   6 C                                       1.5251750
     2   6 C        3   6 C                                       1.5303237
     3   6 C        4   6 C                                       1.5343951 (max)
     4   6 C        5   8 O                                       1.4138190
     1   6 C        6   1 H                                       1.0875716
     1   6 C        7   1 H                                       1.0878051
     1   6 C        8   1 H                                       1.0874811
     2   6 C        9   1 H                                       1.0920238
     2   6 C       10   1 H                                       1.0923707
     3   6 C       11   1 H                                       1.0921354
     3   6 C       12   1 H                                       1.0907828
     4   6 C       13   1 H                                       1.0925602
     4   6 C       14   1 H                                       1.0986406
     5   8 O       15   1 H                                       0.9670968 (min)

 * 4 distinct bonds (by element types)

   Z      Z             #   av. dist./Å        max./Å        min./Å
   1 H    6 C           9     1.0912635     1.0986406     1.0874811
   6 C    6 C           3     1.5299646     1.5343951     1.5251750
   1 H    8 O           1     0.9670968     0.9670968     0.9670968
   6 C    8 O           1     1.4138190     1.4138190     1.4138190

           -------------------------------------------------
          |               Frequency Printout                |
           -------------------------------------------------
 projected vibrational frequencies (cm⁻¹)
eigval :       -0.00    -0.00    -0.00     0.00     0.00     0.00
eigval :      100.84   118.55   240.55   299.84   326.24   391.22
eigval :      465.13   803.85   829.34   901.95   959.63   976.67
eigval :     1044.91  1096.01  1125.91  1133.70  1179.06  1220.71
eigval :     1267.13  1298.47  1332.02  1348.87  1358.65  1409.73
eigval :     1470.07  1474.64  1492.35  1500.98  1510.21  2875.15
eigval :     2963.23  2969.84  2977.70  2982.21  2993.21  3024.00
eigval :     3027.45  3038.77  3494.76
 reduced masses (amu)
   1: 11.70   2:  9.94   3: 11.27   4: 10.80   5: 10.44   6: 10.64   7:  8.94   8:  7.94
   9:  3.29  10:  6.57  11:  2.36  12:  9.74  13:  6.71  14:  2.99  15:  7.75  16:  4.68
  17:  4.40  18:  8.20  19:  7.65  20:  7.32  21:  6.56  22:  6.94  23:  4.56  24:  3.83
  25:  2.47  26:  2.92  27:  3.55  28:  4.82  29:  3.99  30:  3.30  31:  1.88  32:  1.82
  33:  1.88  34:  1.60  35:  1.55  36:  1.76  37:  1.94  38:  1.71  39:  1.72  40:  1.67
  41:  1.56  42:  1.87  43:  1.95  44:  1.33  45:  1.87
 IR intensities (km·mol⁻¹)
   1:  0.41   2:  0.48   3:  0.05   4:  0.68   5:  0.61   6:  0.59   7:  4.63   8:  0.07
   9: 30.10  10:  6.06  11:126.72  12: 52.67  13:  1.03  14: 11.79  15: 11.07  16:  2.43
  17: 22.12  18: 42.98  19: 29.98  20: 92.52  21:  4.87  22: 11.26  23: 38.59  24:  4.39
  25:  0.48  26: 28.24  27: 30.71  28:  5.19  29: 35.92  30:  1.80  31:  1.57  32:  0.93
  33:  0.10  34:  1.30  35:  1.15  36: 97.67  37: 54.69  38: 25.34  39: 51.90  40:105.57
  41: 90.51  42: 79.71  43: 84.09  44: 40.99  45: 81.94
 Raman intensities (Ä⁴*amu⁻¹)
   1:  0.00   2:  0.00   3:  0.00   4:  0.00   5:  0.00   6:  0.00   7:  0.00   8:  0.00
   9:  0.00  10:  0.00  11:  0.00  12:  0.00  13:  0.00  14:  0.00  15:  0.00  16:  0.00
  17:  0.00  18:  0.00  19:  0.00  20:  0.00  21:  0.00  22:  0.00  23:  0.00  24:  0.00
  25:  0.00  26:  0.00  27:  0.00  28:  0.00  29:  0.00  30:  0.00  31:  0.00  32:  0.00
  33:  0.00  34:  0.00  35:  0.00  36:  0.00  37:  0.00  38:  0.00  39:  0.00  40:  0.00
  41:  0.00  42:  0.00  43:  0.00  44:  0.00  45:  0.00
 output can be read by thermo (or use thermo option).
 writing <g98.out> molden fake output.
 recommended (thermochemical) frequency scaling factor: 1.0
           -------------------------------------------------
          |             Thermodynamic Functions             |
           -------------------------------------------------

Molecule has no symmetry elements
It seems to be the C1 point group
c1  symmetry found (for desy threshold:  0.10E+00) used in thermo

          ...................................................
          :                      SETUP                      :
          :.................................................:
          :  # frequencies                          39      :
          :  # imaginary freq.                       0      :
          :  linear?                             false      :
          :  only rotor calc.                    false      :
          :  symmetry                               c1      :
          :  rotational number                       1      :
          :  scaling factor                  1.0000000      :
          :  rotor cutoff                    0.0000000 cm⁻¹ :
          :  imag. cutoff                 -100.0000000 cm⁻¹ :
          :.................................................:

    mode    ω/cm⁻¹     T·S(HO)/kcal·mol⁻¹    T·S(FR)/kcal·mol⁻¹   T·S(vib)
   ------------------------------------------------------------------------
       1    100.84    -1.02506 (100.00%)    -0.84838 (  0.00%)    -1.02506
       2    118.55    -0.93140 (100.00%)    -0.80050 (  0.00%)    -0.93140
       3    240.55    -0.53631 (100.00%)    -0.59103 (  0.00%)    -0.53631
       4    299.84    -0.42271 (100.00%)    -0.52579 (  0.00%)    -0.42271
   ------------------------------------------------------------------------

   temp. (K)  partition function   enthalpy   heat capacity  entropy
                                   cal/mol     cal/K/mol   cal/K/mol   J/K/mol
 298.15  VIB   21.1                 2393.482     17.070     14.085
         ROT  0.106E+06              888.752      2.981     25.979
         INT  0.224E+07             3282.234     20.051     40.064
         TR   0.617E+27             1481.254      4.968     38.808
         TOT                        4763.4881    25.0192    78.8716   329.9986

       T/K    H(0)-H(T)+PV         H(T)/Eh          T*S/Eh         G(T)/Eh
   ------------------------------------------------------------------------
    298.15    0.759110E-02    0.142057E+00    0.374744E-01    0.104582E+00
   ------------------------------------------------------------------------

         :::::::::::::::::::::::::::::::::::::::::::::::::::::
         ::                  THERMODYNAMIC                  ::
         :::::::::::::::::::::::::::::::::::::::::::::::::::::
         :: total free energy         -17.621303688322 Eh   ::
         ::.................................................::
         :: total energy              -17.725885808882 Eh   ::
         :: zero point energy           0.134465445722 Eh   ::
         :: G(RRHO) w/o ZPVE           -0.029883325162 Eh   ::
         :: G(RRHO) contrib.            0.104582120560 Eh   ::
         :::::::::::::::::::::::::::::::::::::::::::::::::::::

optimized geometry written to: xtbopt.coord


           -------------------------------------------------
          | TOTAL ENERGY              -17.725885808882 Eh   |
          | TOTAL ENTHALPY            -17.583829261750 Eh   |
          | TOTAL FREE ENERGY         -17.621303688322 Eh   |
          | GRADIENT NORM               0.000049429481 Eh/α |
          | HOMO-LUMO GAP              12.520743717887 eV   |
           -------------------------------------------------

------------------------------------------------------------------------
 * finished run on 2025/04/06 at 22:34:26.374     
------------------------------------------------------------------------
 total:
 * wall-time:     0 d,  0 h,  0 min,  0.565 sec
 *  cpu-time:     0 d,  0 h,  0 min,  0.498 sec
 * ratio c/w:     0.881 speedup
 SCF:
 * wall-time:     0 d,  0 h,  0 min,  0.019 sec
 *  cpu-time:     0 d,  0 h,  0 min,  0.007 sec
 * ratio c/w:     0.355 speedup
 analytical hessian:
 * wall-time:     0 d,  0 h,  0 min,  0.411 sec
 *  cpu-time:     0 d,  0 h,  0 min,  0.403 sec
 * ratio c/w:     0.980 speedup

