 Entering Gaussian System
 *********************************************
 Gaussian 98:
 frequency output generated by the xtb code
 *********************************************
                         Standard orientation:
 --------------------------------------------------------------------
  Center     Atomic     Atomic              Coordinates (Angstroms)
  Number     Number      Type              X           Y           Z
 --------------------------------------------------------------------
    1          6             0        1.979199    0.562967    0.316176
    2          6             0        1.020360   -0.136849   -0.644773
    3          8             0       -0.000012   -0.883952    0.000351
    4          6             0       -1.020355   -0.136329    0.644919
    5          6             0       -1.979166    0.562812   -0.316549
    6          1             0        2.354770   -0.149343    1.046400
    7          1             0        2.813942    0.969039   -0.246745
    8          1             0        1.487645    1.377967    0.841326
    9          1             0        1.561936   -0.886911   -1.226361
   10          1             0        0.581935    0.590637   -1.338589
   11          1             0       -1.561962   -0.885937    1.227064
   12          1             0       -0.581901    0.591653    1.338196
   13          1             0       -2.354774   -0.150027   -1.046238
   14          1             0       -2.813886    0.969345    0.246072
   15          1             0       -1.487575    1.377395   -0.842311
 --------------------------------------------------------------------
     1 basis functions        1 primitive gaussians
     1 alpha electrons        1 beta electrons
 
 Harmonic frequencies (cm**-1), IR intensities (km*mol⁻¹),
 Raman scattering activities (A**4/amu), Raman depolarization ratios,
 reduced masses (AMU), force constants (mDyne/A) and normal coordinates:
                      1                      2                      3
                        a                      a                      a 
 Frequencies --    -6.8316               127.4215               196.6844
 Red. masses --     7.6486                 5.1987                 1.5736
 Frc consts  --     0.0000                 0.0000                 0.0000
 IR Inten    --     0.0604                 4.7899                 0.3708
 Raman Activ --     0.0000                 0.0000                 0.0000
 Depolar     --     0.0000                 0.0000                 0.0000
 Atom AN      X      Y      Z        X      Y      Z        X      Y      Z
   1   6     0.33  -0.31   0.09     0.16  -0.05  -0.19    -0.08   0.08   0.02
   2   6     0.00   0.22   0.02    -0.18   0.10   0.04     0.00  -0.05   0.04
   3   8    -0.00   0.23  -0.00     0.06   0.00   0.35     0.00  -0.10   0.00
   4   6    -0.00   0.22  -0.03    -0.18  -0.10   0.04    -0.00  -0.05  -0.04
   5   6    -0.33  -0.31  -0.09     0.16   0.05  -0.19     0.08   0.08  -0.02
   6   1     0.12  -0.20  -0.09     0.28  -0.09  -0.25     0.29  -0.03  -0.21
   7   1     0.07  -0.04   0.02    -0.12   0.19  -0.15    -0.23   0.38  -0.05
   8   1     0.16  -0.15   0.17     0.03  -0.17   0.18    -0.16  -0.22   0.27
   9   1    -0.07   0.09  -0.10    -0.11   0.06  -0.08     0.02  -0.00   0.02
  10   1     0.00   0.16   0.11    -0.13   0.06   0.10    -0.00  -0.03   0.00
  11   1     0.07   0.10   0.10    -0.11  -0.06  -0.08    -0.02  -0.00  -0.02
  12   1    -0.00   0.16  -0.11    -0.13  -0.06   0.10     0.00  -0.03  -0.00
  13   1    -0.12  -0.20   0.09     0.28   0.09  -0.25    -0.29  -0.03   0.21
  14   1    -0.07  -0.04  -0.02    -0.12  -0.19  -0.15     0.23   0.38   0.05
  15   1    -0.16  -0.15  -0.17     0.03   0.17   0.18     0.16  -0.22  -0.27
                      4                      5                      6
                        a                      a                      a 
 Frequencies --   251.9867               296.6546               445.5303
 Red. masses --     4.7454                 8.2345                10.8348
 Frc consts  --     0.0000                 0.0000                 0.0000
 IR Inten    --     2.6493                 0.2784                16.8192
 Raman Activ --     0.0000                 0.0000                 0.0000
 Depolar     --     0.0000                 0.0000                 0.0000
 Atom AN      X      Y      Z        X      Y      Z        X      Y      Z
   1   6    -0.14   0.00   0.10    -0.38  -0.12   0.10     0.23   0.16  -0.02
   2   6     0.19  -0.26  -0.02    -0.31   0.17  -0.15    -0.05   0.02   0.27
   3   8    -0.10  -0.00  -0.20     0.00  -0.10   0.00    -0.51  -0.00  -0.42
   4   6     0.19   0.26  -0.02     0.31   0.17   0.15    -0.05  -0.02   0.27
   5   6    -0.14  -0.00   0.10     0.38  -0.12  -0.10     0.23  -0.16  -0.02
   6   1     0.18  -0.01  -0.09    -0.19  -0.11  -0.00     0.18   0.12   0.00
   7   1    -0.18   0.28   0.03    -0.06  -0.02   0.11    -0.02  -0.01  -0.17
   8   1    -0.20  -0.19   0.18    -0.11  -0.06   0.06     0.15   0.11  -0.01
   9   1     0.10  -0.13   0.11    -0.09   0.14  -0.15    -0.01  -0.01   0.11
  10   1     0.12  -0.13  -0.11    -0.16   0.10   0.06     0.08   0.03   0.04
  11   1     0.10   0.13   0.11     0.09   0.14   0.15    -0.01   0.01   0.11
  12   1     0.12   0.12  -0.11     0.16   0.10  -0.06     0.08  -0.03   0.04
  13   1     0.18   0.01  -0.09     0.19  -0.11   0.00     0.18  -0.12   0.00
  14   1    -0.18  -0.28   0.03     0.06  -0.02  -0.11    -0.02   0.01  -0.17
  15   1    -0.20   0.19   0.18     0.11  -0.06  -0.06     0.15  -0.11  -0.01
                      7                      8                      9
                        a                      a                      a 
 Frequencies --   462.8263               806.7747               813.2926
 Red. masses --     8.8989                 2.1952                 5.0264
 Frc consts  --     0.0000                 0.0000                 0.0000
 IR Inten    --     6.7483                 8.8421                21.9347
 Raman Activ --     0.0000                 0.0000                 0.0000
 Depolar     --     0.0000                 0.0000                 0.0000
 Atom AN      X      Y      Z        X      Y      Z        X      Y      Z
   1   6    -0.12  -0.15  -0.03     0.02  -0.08   0.00    -0.15  -0.03  -0.01
   2   6     0.18  -0.04  -0.31     0.10  -0.19   0.04    -0.26   0.05   0.23
   3   8    -0.00   0.53  -0.00    -0.02   0.00  -0.04     0.00   0.22  -0.00
   4   6    -0.18  -0.04   0.31     0.10   0.19   0.04     0.26   0.05  -0.23
   5   6     0.12  -0.15   0.03     0.03   0.08   0.00     0.15  -0.03   0.01
   6   1    -0.10  -0.10  -0.03     0.10   0.22   0.18    -0.01  -0.13  -0.14
   7   1     0.02   0.05   0.13    -0.06   0.09  -0.01    -0.08  -0.16  -0.17
   8   1    -0.14  -0.12   0.01    -0.24  -0.03  -0.22     0.22   0.05   0.14
   9   1     0.02  -0.16   0.07    -0.15   0.07  -0.30     0.07  -0.09   0.31
  10   1     0.17  -0.07  -0.23    -0.04   0.19   0.29     0.02  -0.15  -0.17
  11   1    -0.02  -0.16  -0.07    -0.15  -0.07  -0.30    -0.07  -0.09  -0.31
  12   1    -0.17  -0.07   0.23    -0.04  -0.19   0.29    -0.02  -0.15   0.17
  13   1     0.10  -0.10   0.03     0.10  -0.22   0.18     0.01  -0.13   0.14
  14   1    -0.02   0.05  -0.13    -0.06  -0.09  -0.01     0.08  -0.16   0.17
  15   1     0.14  -0.12  -0.01    -0.24   0.03  -0.22    -0.22   0.05  -0.14
                     10                     11                     12
                        a                      a                      a 
 Frequencies --   865.8693               938.5166              1045.9707
 Red. masses --     6.5607                 8.2895                 8.3055
 Frc consts  --     0.0000                 0.0000                 0.0000
 IR Inten    --     3.5130                12.0237                24.8565
 Raman Activ --     0.0000                 0.0000                 0.0000
 Depolar     --     0.0000                 0.0000                 0.0000
 Atom AN      X      Y      Z        X      Y      Z        X      Y      Z
   1   6     0.12   0.19   0.02    -0.29  -0.18  -0.03    -0.27  -0.14  -0.13
   2   6     0.09   0.13  -0.23    -0.01  -0.03   0.22     0.40   0.21   0.04
   3   8    -0.00  -0.42   0.00     0.45  -0.00  -0.20    -0.00  -0.17   0.00
   4   6    -0.09   0.13   0.23    -0.01   0.03   0.22    -0.40   0.21  -0.04
   5   6    -0.12   0.19  -0.02    -0.29   0.18  -0.03     0.27  -0.14   0.13
   6   1    -0.13  -0.19  -0.14     0.09   0.02  -0.03     0.01  -0.03  -0.07
   7   1     0.16   0.01   0.16    -0.21  -0.17  -0.30    -0.13  -0.13  -0.20
   8   1     0.15   0.00   0.19     0.10   0.06  -0.02     0.04   0.03  -0.04
   9   1     0.18   0.05   0.07     0.12   0.08   0.04     0.21   0.16  -0.02
  10   1    -0.08  -0.15  -0.17     0.05   0.02   0.05     0.10   0.09   0.06
  11   1    -0.18   0.05  -0.07     0.12  -0.08   0.04    -0.21   0.16   0.02
  12   1     0.08  -0.14   0.17     0.05  -0.02   0.05    -0.10   0.09  -0.06
  13   1     0.13  -0.19   0.14     0.09  -0.02  -0.03    -0.01  -0.03   0.07
  14   1    -0.16   0.01  -0.16    -0.21   0.17  -0.30     0.13  -0.13   0.20
  15   1    -0.15   0.00  -0.19     0.10  -0.06  -0.02    -0.04   0.03   0.04
                     13                     14                     15
                        a                      a                      a 
 Frequencies --  1068.8452              1080.8480              1101.0700
 Red. masses --     9.3572                 6.8220                 8.1222
 Frc consts  --     0.0000                 0.0000                 0.0000
 IR Inten    --    47.2398                 0.8730               108.4706
 Raman Activ --     0.0000                 0.0000                 0.0000
 Depolar     --     0.0000                 0.0000                 0.0000
 Atom AN      X      Y      Z        X      Y      Z        X      Y      Z
   1   6     0.10   0.13   0.32     0.01  -0.00  -0.33    -0.06  -0.13   0.16
   2   6    -0.27  -0.28  -0.26     0.06   0.04   0.38     0.13   0.26  -0.28
   3   8     0.20  -0.00  -0.06     0.00   0.03  -0.00    -0.24   0.00   0.33
   4   6    -0.27   0.28  -0.26    -0.06   0.04  -0.38     0.13  -0.26  -0.28
   5   6     0.10  -0.13   0.32    -0.01  -0.00   0.33    -0.06   0.13   0.16
   6   1     0.15   0.08   0.07    -0.24  -0.14  -0.09     0.18   0.14   0.09
   7   1    -0.04  -0.05  -0.08     0.15   0.10   0.22    -0.15  -0.05  -0.19
   8   1     0.18   0.11   0.11    -0.18  -0.14  -0.04     0.03   0.07  -0.08
   9   1     0.00   0.02  -0.12    -0.03   0.01   0.06    -0.03  -0.07   0.05
  10   1    -0.10  -0.06  -0.05    -0.06  -0.03   0.10     0.20   0.11  -0.12
  11   1     0.00  -0.02  -0.12     0.03   0.01  -0.06    -0.03   0.07   0.05
  12   1    -0.10   0.06  -0.05     0.06  -0.03  -0.10     0.20  -0.11  -0.12
  13   1     0.15  -0.08   0.07     0.24  -0.14   0.09     0.18  -0.14   0.09
  14   1    -0.04   0.05  -0.08    -0.15   0.10  -0.22    -0.15   0.05  -0.19
  15   1     0.18  -0.11   0.11     0.18  -0.14   0.04     0.03  -0.07  -0.08
                     16                     17                     18
                        a                      a                      a 
 Frequencies --  1124.0801              1182.5141              1252.0034
 Red. masses --     6.9219                 6.7582                 2.3701
 Frc consts  --     0.0000                 0.0000                 0.0000
 IR Inten    --    61.0820                18.6437                 2.6984
 Raman Activ --     0.0000                 0.0000                 0.0000
 Depolar     --     0.0000                 0.0000                 0.0000
 Atom AN      X      Y      Z        X      Y      Z        X      Y      Z
   1   6    -0.16   0.13  -0.00     0.14  -0.21  -0.02    -0.11   0.17  -0.01
   2   6     0.32  -0.13  -0.07    -0.16   0.34  -0.00     0.02  -0.09   0.02
   3   8    -0.35   0.00   0.16    -0.00  -0.28   0.00     0.14   0.00  -0.02
   4   6     0.32   0.13  -0.07     0.16   0.34   0.00     0.02   0.09   0.02
   5   6    -0.16  -0.13  -0.00    -0.14  -0.21   0.02    -0.11  -0.17  -0.01
   6   1    -0.05  -0.12  -0.14     0.08   0.14   0.16    -0.07  -0.11  -0.12
   7   1    -0.01  -0.12  -0.07    -0.03   0.10   0.01     0.03  -0.04   0.01
   8   1     0.19   0.07   0.14    -0.20  -0.07  -0.19     0.11   0.04   0.13
   9   1     0.14   0.16  -0.20     0.07  -0.02   0.23    -0.38  -0.25  -0.07
  10   1    -0.14   0.01   0.18     0.10  -0.03  -0.21     0.33   0.24   0.06
  11   1     0.14  -0.16  -0.20    -0.07  -0.02  -0.23    -0.38   0.25  -0.07
  12   1    -0.14  -0.01   0.18    -0.10  -0.03   0.21     0.33  -0.24   0.06
  13   1    -0.05   0.12  -0.14    -0.08   0.14  -0.16    -0.07   0.11  -0.12
  14   1    -0.01   0.12  -0.07     0.03   0.10  -0.01     0.03   0.04   0.01
  15   1     0.19  -0.07   0.14     0.20  -0.07   0.19     0.11  -0.04   0.13
                     19                     20                     21
                        a                      a                      a 
 Frequencies --  1283.3948              1324.8067              1326.4834
 Red. masses --     2.6966                 3.0822                 3.5154
 Frc consts  --     0.0000                 0.0000                 0.0000
 IR Inten    --     2.4727                26.0983                19.6451
 Raman Activ --     0.0000                 0.0000                 0.0000
 Depolar     --     0.0000                 0.0000                 0.0000
 Atom AN      X      Y      Z        X      Y      Z        X      Y      Z
   1   6     0.05  -0.12   0.04    -0.00  -0.01  -0.12    -0.02  -0.01   0.10
   2   6     0.03  -0.05   0.00    -0.21  -0.14  -0.03     0.24   0.20   0.02
   3   8    -0.00   0.28  -0.00    -0.06   0.00   0.15     0.00  -0.08  -0.00
   4   6    -0.03  -0.05  -0.00    -0.21   0.14  -0.03    -0.24   0.20  -0.02
   5   6    -0.05  -0.12  -0.04    -0.00   0.01  -0.12     0.02  -0.01  -0.10
   6   1     0.06   0.06   0.07    -0.01   0.04   0.02     0.01  -0.05  -0.04
   7   1    -0.03   0.04  -0.01     0.07   0.07   0.12    -0.07  -0.04  -0.10
   8   1    -0.05  -0.00  -0.09     0.04  -0.01   0.04    -0.03   0.03  -0.05
   9   1     0.29   0.22  -0.03     0.35   0.24   0.02    -0.40  -0.28  -0.00
  10   1    -0.44  -0.29  -0.00     0.37   0.25   0.02    -0.28  -0.20  -0.03
  11   1    -0.29   0.22   0.03     0.35  -0.24   0.02     0.40  -0.28   0.00
  12   1     0.44  -0.29   0.00     0.37  -0.26   0.02     0.28  -0.20   0.03
  13   1    -0.06   0.06  -0.07    -0.01  -0.04   0.02    -0.01  -0.05   0.04
  14   1     0.03   0.04   0.01     0.07  -0.07   0.12     0.07  -0.04   0.10
  15   1     0.05  -0.00   0.09     0.04   0.01   0.04     0.03   0.03   0.05
                     22                     23                     24
                        a                      a                      a 
 Frequencies --  1392.1700              1395.0219              1456.9190
 Red. masses --     3.1671                 3.1204                 1.8707
 Frc consts  --     0.0000                 0.0000                 0.0000
 IR Inten    --     4.5067                15.5868                 1.4787
 Raman Activ --     0.0000                 0.0000                 0.0000
 Depolar     --     0.0000                 0.0000                 0.0000
 Atom AN      X      Y      Z        X      Y      Z        X      Y      Z
   1   6     0.22   0.14   0.17     0.21   0.13   0.17    -0.00   0.05  -0.00
   2   6    -0.05  -0.04   0.02    -0.05  -0.04  -0.01    -0.02  -0.02  -0.18
   3   8    -0.00   0.01   0.00    -0.02   0.00   0.04     0.05  -0.00  -0.05
   4   6     0.05  -0.04  -0.02    -0.05   0.04  -0.01    -0.02   0.02  -0.18
   5   6    -0.22   0.14  -0.17     0.21  -0.13   0.17    -0.00  -0.05  -0.00
   6   1    -0.24  -0.25  -0.10    -0.25  -0.27  -0.12     0.05   0.01  -0.03
   7   1    -0.15  -0.09  -0.32    -0.15  -0.07  -0.31     0.06  -0.12  -0.01
   8   1    -0.29  -0.08  -0.13    -0.29  -0.07  -0.15    -0.08  -0.06   0.02
   9   1     0.05   0.09  -0.07     0.07   0.06  -0.02     0.13  -0.22   0.39
  10   1     0.08  -0.00  -0.06     0.09   0.05  -0.01    -0.19   0.23   0.36
  11   1    -0.05   0.09   0.07     0.07  -0.06  -0.02     0.13   0.22   0.39
  12   1    -0.08  -0.00   0.06     0.09  -0.05  -0.01    -0.19  -0.23   0.36
  13   1     0.24  -0.25   0.10    -0.25   0.27  -0.12     0.05  -0.01  -0.03
  14   1     0.15  -0.09   0.32    -0.15   0.07  -0.31     0.06   0.12  -0.01
  15   1     0.29  -0.08   0.13    -0.29   0.07  -0.15    -0.08   0.06   0.02
                     25                     26                     27
                        a                      a                      a 
 Frequencies --  1460.7338              1483.9758              1485.5671
 Red. masses --     1.8026                 1.5770                 1.5601
 Frc consts  --     0.0000                 0.0000                 0.0000
 IR Inten    --     0.0566                 2.0438                 3.6192
 Raman Activ --     0.0000                 0.0000                 0.0000
 Depolar     --     0.0000                 0.0000                 0.0000
 Atom AN      X      Y      Z        X      Y      Z        X      Y      Z
   1   6     0.06  -0.03   0.01    -0.08   0.11   0.05    -0.07   0.12   0.05
   2   6     0.01  -0.02  -0.18    -0.03   0.02   0.04    -0.02   0.01  -0.06
   3   8     0.00   0.02  -0.00    -0.01   0.00   0.01    -0.00   0.01   0.00
   4   6    -0.01  -0.02   0.18    -0.03  -0.02   0.04     0.02   0.01   0.06
   5   6    -0.06  -0.03  -0.01    -0.08  -0.11   0.05     0.07   0.12  -0.05
   6   1    -0.14  -0.07   0.01     0.36  -0.01  -0.20     0.32  -0.01  -0.19
   7   1    -0.11   0.15  -0.06     0.24  -0.37   0.11     0.23  -0.37   0.08
   8   1     0.04   0.06  -0.06    -0.25  -0.09  -0.08    -0.27  -0.10  -0.07
   9   1     0.13  -0.20   0.37    -0.01   0.06  -0.07     0.06  -0.06   0.14
  10   1    -0.17   0.23   0.35     0.06  -0.05  -0.10    -0.07   0.07   0.12
  11   1    -0.13  -0.20  -0.37    -0.01  -0.06  -0.07    -0.06  -0.06  -0.14
  12   1     0.17   0.23  -0.35     0.06   0.05  -0.10     0.07   0.07  -0.12
  13   1     0.14  -0.07  -0.01     0.36   0.01  -0.20    -0.32  -0.01   0.19
  14   1     0.11   0.15   0.06     0.24   0.37   0.11    -0.23  -0.37  -0.08
  15   1    -0.04   0.06   0.06    -0.25   0.09  -0.08     0.27  -0.10   0.07
                     28                     29                     30
                        a                      a                      a 
 Frequencies --  1490.4591              1493.7199              2896.2545
 Red. masses --     1.5565                 1.5735                 1.7594
 Frc consts  --     0.0000                 0.0000                 0.0000
 IR Inten    --     1.8500                 0.5729                94.6985
 Raman Activ --     0.0000                 0.0000                 0.0000
 Depolar     --     0.0000                 0.0000                 0.0000
 Atom AN      X      Y      Z        X      Y      Z        X      Y      Z
   1   6    -0.05  -0.08   0.12    -0.05  -0.06   0.12     0.00   0.00  -0.00
   2   6    -0.02  -0.02  -0.00    -0.03  -0.03   0.04     0.09  -0.13   0.09
   3   8     0.01  -0.00  -0.01    -0.00  -0.00   0.00    -0.01   0.00   0.01
   4   6    -0.02   0.02  -0.00     0.03  -0.03  -0.04     0.09   0.13   0.09
   5   6    -0.05   0.08   0.12     0.05  -0.06  -0.12     0.00  -0.00  -0.00
   6   1     0.14  -0.22  -0.27     0.15  -0.22  -0.28     0.01  -0.02   0.02
   7   1    -0.02   0.23   0.16     0.00   0.20   0.17    -0.00   0.00   0.00
   8   1     0.10   0.31  -0.38     0.08   0.30  -0.38    -0.00   0.00  -0.00
   9   1     0.02  -0.02   0.04     0.00   0.04  -0.05    -0.03   0.04   0.06
  10   1    -0.02   0.03   0.05     0.07   0.00  -0.04    -0.28   0.45  -0.42
  11   1     0.02   0.02   0.04    -0.00   0.04   0.05    -0.03  -0.04   0.06
  12   1    -0.02  -0.03   0.05    -0.07   0.00   0.04    -0.28  -0.45  -0.42
  13   1     0.14   0.22  -0.27    -0.15  -0.22   0.28     0.01   0.02   0.02
  14   1    -0.02  -0.23   0.16    -0.00   0.20  -0.17    -0.00  -0.00   0.00
  15   1     0.10  -0.31  -0.38    -0.08   0.30   0.38    -0.00  -0.00  -0.00
                     31                     32                     33
                        a                      a                      a 
 Frequencies --  2898.7640              2963.9930              2964.3733
 Red. masses --     1.7549                 1.6657                 1.6610
 Frc consts  --     0.0000                 0.0000                 0.0000
 IR Inten    --    61.9375                28.1198                69.8136
 Raman Activ --     0.0000                 0.0000                 0.0000
 Depolar     --     0.0000                 0.0000                 0.0000
 Atom AN      X      Y      Z        X      Y      Z        X      Y      Z
   1   6    -0.00  -0.01  -0.00     0.01  -0.00  -0.00     0.01  -0.01  -0.01
   2   6    -0.09   0.13  -0.10    -0.08   0.11   0.10    -0.08   0.11   0.10
   3   8     0.00   0.02  -0.00     0.00  -0.00  -0.00    -0.02   0.00   0.01
   4   6     0.09   0.13   0.10     0.08   0.11  -0.10    -0.08  -0.11   0.10
   5   6     0.00  -0.01   0.00    -0.01  -0.00   0.00     0.01   0.01  -0.01
   6   1    -0.01   0.02  -0.02    -0.00   0.00  -0.01    -0.00   0.00  -0.01
   7   1     0.01   0.00  -0.01    -0.01  -0.01   0.01    -0.02  -0.01   0.01
   8   1    -0.01   0.02   0.01    -0.02   0.03   0.02    -0.02   0.04   0.03
   9   1     0.02  -0.03  -0.05     0.34  -0.47  -0.35     0.34  -0.47  -0.35
  10   1     0.28  -0.45   0.42    -0.04   0.07  -0.03    -0.05   0.08  -0.04
  11   1    -0.02  -0.03   0.05    -0.34  -0.47   0.35     0.34   0.47  -0.35
  12   1    -0.28  -0.45  -0.42     0.04   0.07   0.03    -0.05  -0.07  -0.04
  13   1     0.01   0.02   0.02     0.00   0.00   0.01    -0.00  -0.00  -0.01
  14   1    -0.01   0.00   0.01     0.01  -0.01  -0.01    -0.02   0.01   0.01
  15   1     0.01   0.02  -0.01     0.02   0.03  -0.02    -0.02  -0.04   0.03
                     34                     35                     36
                        a                      a                      a 
 Frequencies --  3036.5858              3036.8563              3043.8293
 Red. masses --     1.9032                 1.8994                 1.6491
 Frc consts  --     0.0000                 0.0000                 0.0000
 IR Inten    --    47.7074                71.7641                10.4866
 Raman Activ --     0.0000                 0.0000                 0.0000
 Depolar     --     0.0000                 0.0000                 0.0000
 Atom AN      X      Y      Z        X      Y      Z        X      Y      Z
   1   6     0.12  -0.15  -0.06    -0.12   0.15   0.06    -0.02   0.08  -0.15
   2   6     0.01  -0.01  -0.01    -0.01   0.02   0.00    -0.00   0.00  -0.01
   3   8     0.00   0.00  -0.00    -0.00   0.00   0.00     0.00  -0.00   0.00
   4   6     0.01   0.01  -0.01     0.01   0.02  -0.00     0.00   0.00   0.01
   5   6     0.12   0.15  -0.06     0.12   0.15  -0.06     0.02   0.08   0.15
   6   1    -0.06   0.12  -0.15     0.05  -0.12   0.15     0.23  -0.44   0.43
   7   1    -0.06  -0.06   0.05     0.06   0.06  -0.05    -0.06  -0.02   0.02
   8   1    -0.29   0.47   0.31     0.30  -0.48  -0.31    -0.10   0.16   0.08
   9   1    -0.03   0.04   0.03     0.03  -0.03  -0.02    -0.00   0.00   0.00
  10   1     0.00  -0.00   0.00     0.01  -0.02   0.01     0.01  -0.01   0.01
  11   1    -0.03  -0.04   0.03    -0.03  -0.03   0.02     0.00   0.00  -0.00
  12   1     0.00   0.00   0.00    -0.01  -0.02  -0.01    -0.01  -0.01  -0.01
  13   1    -0.06  -0.12  -0.15    -0.05  -0.12  -0.15    -0.23  -0.44  -0.43
  14   1    -0.06   0.06   0.05    -0.06   0.06   0.05     0.06  -0.02  -0.02
  15   1    -0.29  -0.47   0.31    -0.29  -0.47   0.31     0.10   0.16  -0.08
                     37                     38                     39
                        a                      a                      a 
 Frequencies --  3044.0303              3053.1018              3053.3300
 Red. masses --     1.6464                 1.6085                 1.6057
 Frc consts  --     0.0000                 0.0000                 0.0000
 IR Inten    --    68.3316                16.3157                46.7982
 Raman Activ --     0.0000                 0.0000                 0.0000
 Depolar     --     0.0000                 0.0000                 0.0000
 Atom AN      X      Y      Z        X      Y      Z        X      Y      Z
   1   6     0.02  -0.08   0.15    -0.12  -0.08   0.07    -0.12  -0.08   0.07
   2   6     0.00  -0.00   0.01    -0.00  -0.00   0.01    -0.00   0.00   0.00
   3   8    -0.00  -0.00  -0.00     0.00  -0.00   0.00    -0.00  -0.00  -0.00
   4   6     0.00   0.00   0.01     0.00  -0.00  -0.01    -0.00  -0.00   0.00
   5   6     0.02   0.08   0.15     0.13  -0.08  -0.07    -0.12   0.08   0.07
   6   1    -0.23   0.43  -0.43    -0.00  -0.04   0.04    -0.00  -0.04   0.04
   7   1     0.06   0.02  -0.02     0.51   0.24  -0.36     0.52   0.25  -0.36
   8   1     0.10  -0.17  -0.08    -0.07   0.08   0.07    -0.07   0.08   0.07
   9   1     0.01  -0.01  -0.00     0.00  -0.01  -0.01     0.01  -0.01  -0.01
  10   1    -0.01   0.02  -0.01    -0.01   0.01  -0.01    -0.00   0.00  -0.00
  11   1     0.01   0.01  -0.00    -0.00  -0.01   0.01     0.01   0.01  -0.01
  12   1    -0.01  -0.02  -0.01     0.01   0.01   0.01    -0.00  -0.00  -0.00
  13   1    -0.23  -0.44  -0.43     0.00  -0.04  -0.04    -0.00   0.04   0.04
  14   1     0.06  -0.02  -0.02    -0.52   0.25   0.36     0.51  -0.24  -0.36
  15   1     0.10   0.17  -0.08     0.07   0.08  -0.07    -0.07  -0.08   0.07
