      -----------------------------------------------------------      
     |                   =====================                   |     
     |                           x T B                           |     
     |                   =====================                   |     
     |                         S. Grimme                         |     
     |          Mulliken Center for Theoretical Chemistry        |     
     |                    University of Bonn                     |     
      -----------------------------------------------------------      

   * xtb version 6.7.1 (edcfbbe) compiled by 'albert@albert-system' on 2024-07-22

   xtb is free software: you can redistribute it and/or modify it under
   the terms of the GNU Lesser General Public License as published by
   the Free Software Foundation, either version 3 of the License, or
   (at your option) any later version.
   
   xtb is distributed in the hope that it will be useful,
   but WITHOUT ANY WARRANTY; without even the implied warranty of
   MERCHANTABILITY or FITNESS FOR A PARTICULAR PURPOSE.  See the
   GNU Lesser General Public License for more details.
   
   Cite this work as:
   * C. Bannwarth, E. Caldeweyher, S. Ehlert, A. Hansen, P. Pracht,
     J. Seibert, S. Spicher, S. Grimme, WIREs Comput. Mol. Sci., 2020, 11,
     e01493. DOI: 10.1002/wcms.1493
   
   for GFN2-xTB:
   * C. Bannwarth, S. Ehlert and S. Grimme., J. Chem. Theory Comput., 2019,
     15, 1652-1671. DOI: 10.1021/acs.jctc.8b01176
   for GFN1-xTB:
   * S. Grimme, C. Bannwarth, P. Shushkov, J. Chem. Theory Comput., 2017,
     13, 1989-2009. DOI: 10.1021/acs.jctc.7b00118
   for GFN0-xTB:
   * P. Pracht, E. Caldeweyher, S. Ehlert, S. Grimme, ChemRxiv, 2019, preprint.
     DOI: 10.26434/chemrxiv.8326202.v1
   for GFN-FF:
   * S. Spicher and S. Grimme, Angew. Chem. Int. Ed., 2020, 59, 15665-15673.
     DOI: 10.1002/anie.202004239
   
   for ALPB and GBSA implicit solvation:
   * S. Ehlert, M. Stahn, S. Spicher, S. Grimme, J. Chem. Theory Comput.,
     2021, 17, 4250-4261. DOI: 10.1021/acs.jctc.1c00471
   
   for ddCOSMO and CPCM-X implicit solvation:
   * M. Stahn, S. Ehlert, S. Grimme, J. Phys. Chem. A,
     2023, XX, XXXX-XXXX. DOI: 10.1021/acs.jpca.3c04382
   
   for DFT-D4:
   * E. Caldeweyher, C. Bannwarth and S. Grimme, J. Chem. Phys., 2017,
     147, 034112. DOI: 10.1063/1.4993215
   * E. Caldeweyher, S. Ehlert, A. Hansen, H. Neugebauer, S. Spicher,
     C. Bannwarth and S. Grimme, J. Chem. Phys., 2019, 150, 154122.
     DOI: 10.1063/1.5090222
   * E. Caldeweyher, J.-M. Mewes, S. Ehlert and S. Grimme, Phys. Chem. Chem. Phys.
     2020, 22, 8499-8512. DOI: 10.1039/D0CP00502A
   
   for sTDA-xTB:
   * S. Grimme and C. Bannwarth, J. Chem. Phys., 2016, 145, 054103.
     DOI: 10.1063/1.4959605
   
   in the mass-spec context:
   * V. Asgeirsson, C. Bauer and S. Grimme, Chem. Sci., 2017, 8, 4879.
     DOI: 10.1039/c7sc00601b
   * J. Koopman and S. Grimme, ACS Omega 2019, 4, 12, 15120-15133.
     DOI: 10.1021/acsomega.9b02011
   
   for metadynamics refer to:
   * S. Grimme, J. Chem. Theory Comput., 2019, 155, 2847-2862
     DOI: 10.1021/acs.jctc.9b00143
   
   for SPH calculations refer to:
   * S. Spicher and S. Grimme, J. Chem. Theory Comput., 2021, 17, 1701-1714
     DOI: 10.1021/acs.jctc.0c01306
   
   for ONIOM refer to:
   * C. Plett, A. Katbashev, S. Ehlert, S. Grimme, M. Bursch,
     Phys. Chem. Chem. Phys., 2023, 25, 17860-17868. DOI: 10.1039/D3CP02178E
   
   for DIPRO refer to:
   * J. Kohn, N. Gildemeister, S. Grimme, D. Fazzi, A. Hansen,
     J. Chem. Phys., 2023, just accepted.
   
   for PTB refer to:
   * S. Grimme, M. Mueller, A. Hansen, J. Chem. Phys., 2023, 158, 124111.
     DOI: 10.1063/5.0137838
   
   with help from (in alphabetical order)
   P. Atkinson, C. Bannwarth, F. Bohle, G. Brandenburg, E. Caldeweyher
   M. Checinski, S. Dohm, S. Ehlert, S. Ehrlich, I. Gerasimov, C. Hölzer
   A. Katbashev, J. Kohn, J. Koopman, C. Lavigne, S. Lehtola, F. März, M. Müller,
   F. Musil, H. Neugebauer, J. Pisarek, C. Plett, P. Pracht, F. Pultar,
   J. Seibert, P. Shushkov, S. Spicher, M. Stahn, M. Steiner, T. Strunk,
   J. Stückrath, T. Rose, and J. Unsleber
   
 * started run on 2025/04/07 at 02:45:59.848     
   ID    Z sym.   atoms
    1    6 C      1, 2, 4, 5
    2    8 O      3
    3    1 H      6-15

           -------------------------------------------------
          |                Calculation Setup                |
           -------------------------------------------------

          program call               : /srv/scratch/z5358697/.xtb/bin/xtb xtb_rrho.coord --gfn2 --bhess vtight --chrg 0 --enso --norestart -I rrho-xcontrol-inp --parallel 1 --alpb water
          hostname                   : k140
          coordinate file            : xtb_rrho.coord
          omp threads                :                     1


           -------------------------------------------------
          |                 G F N 2 - x T B                 |
           -------------------------------------------------

        Reference                      10.1021/acs.jctc.8b01176
      * Hamiltonian:
        H0-scaling (s, p, d)           1.850000    2.230000    2.230000
        zeta-weighting                 0.500000
      * Dispersion:
        s8                             2.700000
        a1                             0.520000
        a2                             5.000000
        s9                             5.000000
      * Repulsion:
        kExp                           1.500000    1.000000
        rExp                           1.000000
      * Coulomb:
        alpha                          2.000000
        third order                    shell-resolved
        anisotropic                    true
        a3                             3.000000
        a5                             4.000000
        cn-shift                       1.200000
        cn-exp                         4.000000
        max-rad                        5.000000

      * Solvation model:               ALPB
        Solvent                        water
        Parameter file                 internal GFN2-xTB/ALPB
        Dielectric constant                8.0200E+01
        Reference state                gsolv [1 M gas/solution]
        Free energy shift                  1.0808E-03 Eh       6.7819E-01 kcal/mol
        Temperature                        2.9815E+02 K
        Density                            1.0000E+00 kg/L
        Solvent mass                       1.8000E+01 g/mol
        Interaction kernel             P16
        Born radius scaling (c1)           1.4744E+00
        Born radii integrator          GBOBC
        Born offset                        0.0000E+00 a0       0.0000E+00 AA
        H-bond correction              true
        Ion screening                  false
        Surface tension                    1.0000E-05 Eh       1.5569E+01 dyn/cm
        Grid points                               974 per atom

          ...................................................
          :                      SETUP                      :
          :.................................................:
          :  # basis functions                  30          :
          :  # atomic orbitals                  30          :
          :  # shells                           20          :
          :  # electrons                        32          :
          :  max. iterations                   250          :
          :  Hamiltonian                  GFN2-xTB          :
          :  restarted?                      false          :
          :  GBSA solvation                   true          :
          :  PC potential                    false          :
          :  electronic temp.          300.0000000     K    :
          :  accuracy                    1.0000000          :
          :  -> integral cutoff          0.2500000E+02      :
          :  -> integral neglect         0.1000000E-07      :
          :  -> SCF convergence          0.1000000E-05 Eh   :
          :  -> wf. convergence          0.1000000E-03 e    :
          :  Broyden damping             0.4000000          :
          :  net charge                          0          :
          :  unpaired electrons                  0          :
          ...................................................

 iter      E             dE          RMSdq      gap      omega  full diag
   1    -17.8841927 -0.178842E+02  0.354E+00   11.32       0.0  T
   2    -17.9229731 -0.387804E-01  0.171E+00   10.90       1.0  T
   3    -17.9236483 -0.675175E-03  0.712E-01   10.96       1.0  T
   4    -17.9238114 -0.163121E-03  0.118E-01   10.98       1.0  T
   5    -17.9238286 -0.171690E-04  0.632E-02   11.00       1.0  T
   6    -17.9238298 -0.126763E-05  0.741E-03   11.00       3.5  T
   7    -17.9238300 -0.145960E-06  0.243E-03   11.00      10.6  T
   8    -17.9238300 -0.554736E-08  0.116E-03   11.00      22.3  T
   9    -17.9238300 -0.507743E-08  0.154E-04   11.00     168.1  T
  10    -17.9238300  0.780140E-10  0.118E-04   11.00     218.5  T

   *** convergence criteria satisfied after 10 iterations ***

         #    Occupation            Energy/Eh            Energy/eV
      -------------------------------------------------------------
         1        2.0000           -0.6923217             -18.8390
       ...           ...                  ...                  ...
        10        2.0000           -0.4925779             -13.4037
        11        2.0000           -0.4685064             -12.7487
        12        2.0000           -0.4620222             -12.5723
        13        2.0000           -0.4587754             -12.4839
        14        2.0000           -0.4441331             -12.0855
        15        2.0000           -0.4260341             -11.5930
        16        2.0000           -0.4006594             -10.9025 (HOMO)
        17                          0.0037464               0.1019 (LUMO)
        18                          0.0740399               2.0147
        19                          0.1136095               3.0915
        20                          0.1159219               3.1544
        21                          0.1237905               3.3685
       ...                                ...                  ...
        30                          0.2880423               7.8380
      -------------------------------------------------------------
                  HL-Gap            0.4044059 Eh           11.0044 eV
             Fermi-level           -0.1984565 Eh           -5.4003 eV

 SCC (total)                   0 d,  0 h,  0 min,  0.050 sec
 SCC setup                      ...        0 min,  0.001 sec (  1.396%)
 Dispersion                     ...        0 min,  0.000 sec (  0.106%)
 classical contributions        ...        0 min,  0.000 sec (  0.024%)
 integral evaluation            ...        0 min,  0.001 sec (  1.856%)
 iterations                     ...        0 min,  0.046 sec ( 92.908%)
 molecular gradient             ...        0 min,  0.002 sec (  3.504%)
 printout                       ...        0 min,  0.000 sec (  0.184%)

         :::::::::::::::::::::::::::::::::::::::::::::::::::::
         ::                     SUMMARY                     ::
         :::::::::::::::::::::::::::::::::::::::::::::::::::::
         :: total energy             -17.721627174206 Eh    ::
         :: total w/o Gsasa/hb       -17.721919024629 Eh    ::
         :: gradient norm              0.026331801249 Eh/a0 ::
         :: HOMO-LUMO gap             11.004443397376 eV    ::
         ::.................................................::
         :: SCC energy               -17.923818815176 Eh    ::
         :: -> isotropic ES            0.027419829643 Eh    ::
         :: -> anisotropic ES          0.004157309853 Eh    ::
         :: -> anisotropic XC          0.006687161025 Eh    ::
         :: -> dispersion             -0.007104132758 Eh    ::
         :: -> Gsolv                  -0.003550266478 Eh    ::
         ::    -> Gelec               -0.003842116901 Eh    ::
         ::    -> Gsasa                0.000185039512 Eh    ::
         ::    -> Ghb                 -0.000973948787 Eh    ::
         ::    -> Gshift               0.001080759698 Eh    ::
         :: repulsion energy           0.202191640970 Eh    ::
         :: add. restraining           0.000000000000 Eh    ::
         :: total charge              -0.000000000000 e     ::
         :::::::::::::::::::::::::::::::::::::::::::::::::::::

metadynamics with 1 initial structures loaded
           -------------------------------------------------
          |           Optimal kpush determination           |
           -------------------------------------------------
      ----------------------------------------------------------- 
     |                   =====================                   |
     |                        A N C O P T                        |
     |                   =====================                   |
     |               Approximate Normal Coordinate               |
     |                Rational Function Optimizer                |
      ----------------------------------------------------------- 
target rmsd / Å         0.100000
unbiased initial rmsd   0.041263
 
iter. min.        max.        rmsd       kpush
final kpush:  0.000000
           -------------------------------------------------
          |            Biased Numerical Hessian             |
           -------------------------------------------------
kpush                :   0.00000
alpha                :   1.00000
step length          :   0.00500
SCC accuracy         :   0.30000
Hessian scale factor :   1.00000
frozen atoms in %    :   0.00000    0
RMS gradient         :   0.00002
estimated CPU  time      0.01 min
estimated wall time      0.01 min

writing file <hessian>.

 projected vibrational frequencies (cm⁻¹)
eigval :       -0.00    -0.00    -0.00    -0.00     0.00     0.00
eigval :       -6.83   127.42   196.68   251.99   296.65   445.53
eigval :      462.83   806.77   813.29   865.87   938.52  1045.97
eigval :     1068.85  1080.85  1101.07  1124.08  1182.51  1252.00
eigval :     1283.39  1324.81  1326.48  1392.17  1395.02  1456.92
eigval :     1460.73  1483.98  1485.57  1490.46  1493.72  2896.25
eigval :     2898.76  2963.99  2964.37  3036.59  3036.86  3043.83
eigval :     3044.03  3053.10  3053.33
           -------------------------------------------------
          |                Property Printout                |
           -------------------------------------------------

    * Orbital Energies and Occupations

         #    Occupation            Energy/Eh            Energy/eV
      -------------------------------------------------------------
         1        2.0000           -0.6967168             -18.9586
       ...           ...                  ...                  ...
         4        2.0000           -0.5959343             -16.2162
         5        2.0000           -0.5666117             -15.4183
         6        2.0000           -0.5492088             -14.9447
         7        2.0000           -0.5451409             -14.8340
         8        2.0000           -0.5161054             -14.0439
         9        2.0000           -0.4950396             -13.4707
        10        2.0000           -0.4934403             -13.4272
        11        2.0000           -0.4677370             -12.7278
        12        2.0000           -0.4631869             -12.6040
        13        2.0000           -0.4600781             -12.5194
        14        2.0000           -0.4439361             -12.0801
        15        2.0000           -0.4256994             -11.5839
        16        2.0000           -0.3990071             -10.8575 (HOMO)
        17                          0.0223622               0.6085 (LUMO)
        18                          0.0892646               2.4290
        19                          0.1179582               3.2098
        20                          0.1207697               3.2863
        21                          0.1232922               3.3550
        22                          0.1494555               4.0669
        23                          0.1689877               4.5984
        24                          0.1971529               5.3648
        25                          0.2009277               5.4675
        26                          0.2018470               5.4925
        27                          0.2459543               6.6928
       ...                                ...                  ...
        30                          0.2966534               8.0724
      -------------------------------------------------------------
                  HL-Gap            0.4213693 Eh           11.4660 eV
             Fermi-level           -0.1883224 Eh           -5.1245 eV

     #   Z          covCN         q      C6AA      α(0)
     1   6 C        3.750    -0.126    22.978     6.837
     2   6 C        3.686     0.077    19.482     6.319
     3   8 O        1.698    -0.370    20.253     6.076
     4   6 C        3.686     0.077    19.482     6.319
     5   6 C        3.750    -0.126    22.978     6.837
     6   1 H        0.925     0.052     2.295     2.369
     7   1 H        0.925     0.054     2.271     2.356
     8   1 H        0.925     0.046     2.367     2.406
     9   1 H        0.924     0.052     2.300     2.372
    10   1 H        0.924     0.030     2.593     2.518
    11   1 H        0.924     0.052     2.300     2.372
    12   1 H        0.924     0.030     2.593     2.518
    13   1 H        0.925     0.052     2.295     2.369
    14   1 H        0.925     0.054     2.271     2.356
    15   1 H        0.925     0.046     2.367     2.406

 Mol. C6AA /au·bohr⁶  :       1459.597697
 Mol. C8AA /au·bohr⁸  :      29709.909178
 Mol. α(0) /au        :         56.429708


Wiberg/Mayer (AO) data.
largest (>0.10) Wiberg bond orders for each atom

 ---------------------------------------------------------------------------
     #   Z sym  total        # sym  WBO       # sym  WBO       # sym  WBO
 ---------------------------------------------------------------------------
     1   6 C    3.994 --     2 C    1.010     6 H    0.987     8 H    0.984
                             7 H    0.984
     2   6 C    3.948 --     1 C    1.010     3 O    0.973     9 H    0.971
                            10 H    0.969
     3   8 O    2.047 --     2 C    0.973     4 C    0.973
     4   6 C    3.948 --     5 C    1.010     3 O    0.973    11 H    0.971
                            12 H    0.969
     5   6 C    3.994 --     4 C    1.010    13 H    0.987    15 H    0.984
                            14 H    0.984
     6   1 H    0.997 --     1 C    0.987
     7   1 H    0.997 --     1 C    0.984
     8   1 H    0.998 --     1 C    0.984
     9   1 H    0.997 --     2 C    0.971
    10   1 H    0.999 --     2 C    0.969
    11   1 H    0.997 --     4 C    0.971
    12   1 H    0.999 --     4 C    0.969
    13   1 H    0.997 --     5 C    0.987
    14   1 H    0.997 --     5 C    0.984
    15   1 H    0.998 --     5 C    0.984
 ---------------------------------------------------------------------------

Topologies differ in total number of bonds
Writing topology from bond orders to xtbtopo.mol

molecular dipole:
                 x           y           z       tot (Debye)
 q only:        0.000       0.612      -0.000
   full:        0.000       0.735      -0.000       1.868
molecular quadrupole (traceless):
                xx          xy          yy          xz          yz          zz
 q only:        2.971      -0.001      -2.746      -1.103       0.001      -0.225
  q+dip:        2.061      -0.000      -2.402      -0.889       0.001       0.341
   full:        2.522      -0.001      -2.730      -1.170       0.001       0.209

           -------------------------------------------------
          |                Geometry Summary                 |
           -------------------------------------------------

      molecular mass/u    :       74.1217560
   center of mass at/Å    :        0.0000054      -0.0009216       0.0000229
  moments of inertia/u·Å² :        0.5140936E+02   0.1791028E+03   0.1849214E+03
rotational constants/cm⁻¹ :        0.3279098E+00   0.9412266E-01   0.9116108E-01

 * 14 selected distances

     #   Z          #   Z                                           value/Å
     1   6 C        2   6 C                                       1.5272648 (max)
     2   6 C        3   8 O                                       1.4196860
     3   8 O        4   6 C                                       1.4196859
     4   6 C        5   6 C                                       1.5272647
     1   6 C        6   1 H                                       1.0870441
     1   6 C        7   1 H                                       1.0856199 (min)
     1   6 C        8   1 H                                       1.0870289
     2   6 C        9   1 H                                       1.0927684
     2   6 C       10   1 H                                       1.0967371
     4   6 C       11   1 H                                       1.0927684
     4   6 C       12   1 H                                       1.0967372
     5   6 C       13   1 H                                       1.0870442
     5   6 C       14   1 H                                       1.0856200
     5   6 C       15   1 H                                       1.0870290

 * 3 distinct bonds (by element types)

   Z      Z             #   av. dist./Å        max./Å        min./Å
   1 H    6 C          10     1.0898397     1.0967372     1.0856199
   6 C    6 C           2     1.5272648     1.5272648     1.5272647
   6 C    8 O           2     1.4196860     1.4196860     1.4196859

           -------------------------------------------------
          |               Frequency Printout                |
           -------------------------------------------------
 projected vibrational frequencies (cm⁻¹)
eigval :       -0.00    -0.00    -0.00    -0.00     0.00     0.00
eigval :       -6.83   127.42   196.68   251.99   296.65   445.53
eigval :      462.83   806.77   813.29   865.87   938.52  1045.97
eigval :     1068.85  1080.85  1101.07  1124.08  1182.51  1252.00
eigval :     1283.39  1324.81  1326.48  1392.17  1395.02  1456.92
eigval :     1460.73  1483.98  1485.57  1490.46  1493.72  2896.25
eigval :     2898.76  2963.99  2964.37  3036.59  3036.86  3043.83
eigval :     3044.03  3053.10  3053.33
 reduced masses (amu)
   1:  8.41   2: 10.01   3: 10.18   4: 10.76   5: 11.59   6: 10.86   7:  7.65   8:  5.20
   9:  1.57  10:  4.75  11:  8.23  12: 10.83  13:  8.90  14:  2.20  15:  5.03  16:  6.56
  17:  8.29  18:  8.31  19:  9.36  20:  6.82  21:  8.12  22:  6.92  23:  6.76  24:  2.37
  25:  2.70  26:  3.08  27:  3.52  28:  3.17  29:  3.12  30:  1.87  31:  1.80  32:  1.58
  33:  1.56  34:  1.56  35:  1.57  36:  1.76  37:  1.75  38:  1.67  39:  1.66  40:  1.90
  41:  1.90  42:  1.65  43:  1.65  44:  1.61  45:  1.61
 IR intensities (km·mol⁻¹)
   1:  1.72   2:  0.59   3:  0.16   4:  0.08   5:  0.19   6:  0.97   7:  0.06   8:  4.79
   9:  0.37  10:  2.65  11:  0.28  12: 16.82  13:  6.75  14:  8.84  15: 21.93  16:  3.51
  17: 12.02  18: 24.86  19: 47.24  20:  0.87  21:108.47  22: 61.08  23: 18.64  24:  2.70
  25:  2.47  26: 26.10  27: 19.65  28:  4.51  29: 15.59  30:  1.48  31:  0.06  32:  2.04
  33:  3.62  34:  1.85  35:  0.57  36: 94.70  37: 61.94  38: 28.12  39: 69.81  40: 47.71
  41: 71.76  42: 10.49  43: 68.33  44: 16.32  45: 46.80
 Raman intensities (Ä⁴*amu⁻¹)
   1:  0.00   2:  0.00   3:  0.00   4:  0.00   5:  0.00   6:  0.00   7:  0.00   8:  0.00
   9:  0.00  10:  0.00  11:  0.00  12:  0.00  13:  0.00  14:  0.00  15:  0.00  16:  0.00
  17:  0.00  18:  0.00  19:  0.00  20:  0.00  21:  0.00  22:  0.00  23:  0.00  24:  0.00
  25:  0.00  26:  0.00  27:  0.00  28:  0.00  29:  0.00  30:  0.00  31:  0.00  32:  0.00
  33:  0.00  34:  0.00  35:  0.00  36:  0.00  37:  0.00  38:  0.00  39:  0.00  40:  0.00
  41:  0.00  42:  0.00  43:  0.00  44:  0.00  45:  0.00
 output can be read by thermo (or use thermo option).
 writing <g98.out> molden fake output.
 recommended (thermochemical) frequency scaling factor: 1.0
           -------------------------------------------------
          |             Thermodynamic Functions             |
           -------------------------------------------------

Molecule has the following symmetry elements: (C2) 
It seems to be the C2 point group
c2  symmetry found (for desy threshold:  0.10E+00) used in thermo
 inverting freq            1   6.83159805853068     

          ...................................................
          :                      SETUP                      :
          :.................................................:
          :  # frequencies                          39      :
          :  # imaginary freq.                       0      :
          :  linear?                             false      :
          :  only rotor calc.                    false      :
          :  symmetry                               c2      :
          :  rotational number                       2      :
          :  scaling factor                  1.0000000      :
          :  rotor cutoff                    0.0000000 cm⁻¹ :
          :  imag. cutoff                 -100.0000000 cm⁻¹ :
          :.................................................:

    mode    ω/cm⁻¹     T·S(HO)/kcal·mol⁻¹    T·S(FR)/kcal·mol⁻¹   T·S(vib)
   ------------------------------------------------------------------------
       1      6.83    -2.61421 (100.00%)    -1.64098 (  0.00%)    -2.61421
       2    127.42    -0.88986 (100.00%)    -0.77914 (  0.00%)    -0.88986
       3    196.68    -0.64516 (100.00%)    -0.65064 (  0.00%)    -0.64516
       4    251.99    -0.51182 (100.00%)    -0.57728 (  0.00%)    -0.51182
       5    296.65    -0.42805 (100.00%)    -0.52896 (  0.00%)    -0.42805
   ------------------------------------------------------------------------

   temp. (K)  partition function   enthalpy   heat capacity  entropy
                                   cal/mol     cal/K/mol   cal/K/mol   J/K/mol
 298.15  VIB   290.                 2579.621     17.162     19.920
         ROT  0.498E+05              888.752      2.981     24.476
         INT  0.145E+08             3468.373     20.143     44.396
         TR   0.617E+27             1481.254      4.968     38.808
         TOT                        4949.6273    25.1107    83.2042   348.1263

       T/K    H(0)-H(T)+PV         H(T)/Eh          T*S/Eh         G(T)/Eh
   ------------------------------------------------------------------------
    298.15    0.788773E-02    0.141507E+00    0.395330E-01    0.101974E+00
   ------------------------------------------------------------------------

         :::::::::::::::::::::::::::::::::::::::::::::::::::::
         ::                  THERMODYNAMIC                  ::
         :::::::::::::::::::::::::::::::::::::::::::::::::::::
         :: total free energy         -17.620692266765 Eh   ::
         ::.................................................::
         :: total energy              -17.722666304720 Eh   ::
         :: zero point energy           0.133619292597 Eh   ::
         :: G(RRHO) w/o ZPVE           -0.031645254642 Eh   ::
         :: G(RRHO) contrib.            0.101974037955 Eh   ::
         :::::::::::::::::::::::::::::::::::::::::::::::::::::
imag cut-off (cm-1) :    5.00
 found            1  significant imaginary frequency
 writing imag mode distorted coords to xtbhess.coord
 for further optimization.

optimized geometry written to: xtbopt.coord


           -------------------------------------------------
          | TOTAL ENERGY              -17.722666304720 Eh   |
          | TOTAL ENTHALPY            -17.581159278951 Eh   |
          | TOTAL FREE ENERGY         -17.620692266765 Eh   |
          | GRADIENT NORM               0.000021970057 Eh/α |
          | HOMO-LUMO GAP              11.466042130822 eV   |
           -------------------------------------------------

------------------------------------------------------------------------
 * finished run on 2025/04/07 at 02:46:00.442     
------------------------------------------------------------------------
 total:
 * wall-time:     0 d,  0 h,  0 min,  0.593 sec
 *  cpu-time:     0 d,  0 h,  0 min,  0.459 sec
 * ratio c/w:     0.773 speedup
 SCF:
 * wall-time:     0 d,  0 h,  0 min,  0.050 sec
 *  cpu-time:     0 d,  0 h,  0 min,  0.007 sec
 * ratio c/w:     0.142 speedup
 analytical hessian:
 * wall-time:     0 d,  0 h,  0 min,  0.405 sec
 *  cpu-time:     0 d,  0 h,  0 min,  0.390 sec
 * ratio c/w:     0.962 speedup

