15
 xtb: 6.7.1 (edcfbbe)
C            1.67257732549541        0.78889147249879        0.40793189553188
C            1.27657473595169       -0.56155883689247       -0.16119378242199
O           -0.04458503344670       -0.58559378051581       -0.72537452770268
C           -1.10546799609826       -0.47506692529148        0.24593140449161
C           -1.81368508874024        0.86216953767816        0.14704302643782
H            1.59463865910033        1.57147785039474       -0.35390678548142
H            1.05178686732069        1.06805054956404        1.26518307500544
H            2.71313599407218        0.74587068164483        0.74920262284385
H            1.35950555463184       -1.34319284316384        0.60919468643075
H            1.94412980669170       -0.83258095047532       -0.98592967081695
H           -1.81330799156946       -1.28824419740813        0.03986012342659
H           -0.70527819176470       -0.63494528691711        1.25568289870241
H           -2.65181429771273        0.89170481033837        0.85255505019309
H           -1.13862114138042        1.69138459898249        0.37829005569337
H           -2.21515567089764        1.01100744090095       -0.86065513168512
