 Entering Gaussian System
 *********************************************
 Gaussian 98:
 frequency output generated by the xtb code
 *********************************************
                         Standard orientation:
 --------------------------------------------------------------------
  Center     Atomic     Atomic              Coordinates (Angstroms)
  Number     Number      Type              X           Y           Z
 --------------------------------------------------------------------
    1          6             0        2.106197    0.373063   -0.477536
    2          6             0        1.236752   -0.528273    0.396549
    3          8             0       -0.067703   -0.030314    0.625275
    4          6             0       -0.933913   -0.078283   -0.496835
    5          6             0       -2.340060    0.266588   -0.031920
    6          1             0        3.124384   -0.003454   -0.476928
    7          1             0        1.743497    0.393231   -1.501994
    8          1             0        2.100901    1.385435   -0.081847
    9          1             0        1.671499   -0.609139    1.395727
   10          1             0        1.174360   -1.534005   -0.045798
   11          1             0       -0.604559    0.637572   -1.262322
   12          1             0       -0.908903   -1.088421   -0.933524
   13          1             0       -2.665708   -0.446185    0.720325
   14          1             0       -2.346549    1.259738    0.407671
   15          1             0       -3.023070    0.240199   -0.875116
 --------------------------------------------------------------------
     1 basis functions        1 primitive gaussians
     1 alpha electrons        1 beta electrons
 
 Harmonic frequencies (cm**-1), IR intensities (km*mol⁻¹),
 Raman scattering activities (A**4/amu), Raman depolarization ratios,
 reduced masses (AMU), force constants (mDyne/A) and normal coordinates:
                      1                      2                      3
                        a                      a                      a 
 Frequencies --    58.5188               114.0835               201.4058
 Red. masses --     7.2432                 7.9433                 2.1693
 Frc consts  --     0.0000                 0.0000                 0.0000
 IR Inten    --     0.1918                 5.5786                 0.2279
 Raman Activ --     0.0000                 0.0000                 0.0000
 Depolar     --     0.0000                 0.0000                 0.0000
 Atom AN      X      Y      Z        X      Y      Z        X      Y      Z
   1   6     0.04  -0.29  -0.11    -0.35   0.06  -0.25    -0.05  -0.01   0.03
   2   6    -0.06   0.02   0.11     0.08   0.02   0.15    -0.02  -0.11  -0.05
   3   8     0.01   0.24   0.04    -0.05  -0.39   0.26    -0.00  -0.12   0.03
   4   6     0.10   0.45  -0.05     0.17   0.07   0.05     0.06   0.25  -0.04
   5   6    -0.08  -0.38   0.02     0.13   0.17  -0.16     0.01  -0.02   0.03
   6   1    -0.00  -0.12  -0.01    -0.03   0.20   0.04     0.04   0.14   0.17
   7   1     0.00  -0.14  -0.03    -0.05  -0.22  -0.09     0.11  -0.15  -0.04
   8   1     0.05  -0.06  -0.10    -0.30   0.08  -0.24    -0.20   0.03  -0.08
   9   1    -0.02   0.05   0.04     0.07   0.13   0.03    -0.00  -0.06  -0.02
  10   1    -0.05  -0.02   0.09     0.10  -0.03   0.13    -0.01  -0.02  -0.04
  11   1    -0.04   0.29   0.10     0.12   0.07   0.09     0.02   0.14   0.05
  12   1     0.16   0.20  -0.17     0.04   0.05  -0.07     0.03   0.11  -0.09
  13   1     0.03  -0.28  -0.13    -0.07  -0.02  -0.16     0.25   0.23   0.34
  14   1    -0.15  -0.19   0.19     0.07  -0.01   0.08    -0.17   0.17  -0.39
  15   1     0.00  -0.03  -0.02     0.10   0.20  -0.10    -0.09  -0.50   0.10
                      4                      5                      6
                        a                      a                      a 
 Frequencies --   204.9972               294.2191               356.9317
 Red. masses --     4.0331                 8.0777                 9.5898
 Frc consts  --     0.0000                 0.0000                 0.0000
 IR Inten    --     1.3328                 4.4089                 5.1995
 Raman Activ --     0.0000                 0.0000                 0.0000
 Depolar     --     0.0000                 0.0000                 0.0000
 Atom AN      X      Y      Z        X      Y      Z        X      Y      Z
   1   6     0.19  -0.02   0.13     0.06   0.01  -0.05    -0.45   0.01   0.11
   2   6    -0.01  -0.00  -0.04    -0.04  -0.16  -0.29    -0.20  -0.26   0.01
   3   8    -0.02   0.08  -0.28     0.20   0.26   0.30     0.09   0.40  -0.09
   4   6    -0.15  -0.07  -0.13     0.01  -0.01   0.38     0.24  -0.06  -0.13
   5   6    -0.02   0.01   0.24    -0.20  -0.05  -0.25     0.36  -0.08   0.06
   6   1     0.14   0.23   0.43     0.06   0.11   0.14    -0.09   0.13  -0.04
   7   1     0.35  -0.31  -0.07     0.16  -0.06  -0.06    -0.18   0.03   0.05
   8   1    -0.30   0.08  -0.18    -0.14   0.01  -0.04    -0.24  -0.02   0.10
   9   1    -0.06   0.01   0.02     0.06  -0.24  -0.13    -0.04  -0.17  -0.01
  10   1     0.02  -0.01  -0.00    -0.15   0.03  -0.23    -0.16  -0.04  -0.06
  11   1    -0.07  -0.04  -0.07     0.02  -0.06   0.06     0.04  -0.07  -0.10
  12   1    -0.07  -0.03  -0.01     0.03  -0.03   0.18     0.10  -0.05   0.05
  13   1    -0.02  -0.09  -0.02    -0.20  -0.03  -0.15     0.15  -0.04   0.02
  14   1     0.10  -0.06   0.22    -0.15  -0.02  -0.07     0.16  -0.04   0.06
  15   1    -0.05   0.19   0.10     0.10  -0.01  -0.20     0.04   0.03   0.07
                      7                      8                      9
                        a                      a                      a 
 Frequencies --   497.3720               817.3756               838.9934
 Red. masses --     9.7338                 2.9263                 2.1125
 Frc consts  --     0.0000                 0.0000                 0.0000
 IR Inten    --     4.5639                11.7116                 2.8375
 Raman Activ --     0.0000                 0.0000                 0.0000
 Depolar     --     0.0000                 0.0000                 0.0000
 Atom AN      X      Y      Z        X      Y      Z        X      Y      Z
   1   6    -0.14  -0.01   0.10     0.09   0.07   0.06    -0.02  -0.02   0.01
   2   6     0.37  -0.29   0.21     0.18   0.05   0.24    -0.05   0.02  -0.04
   3   8     0.39   0.07  -0.31    -0.04   0.03   0.10     0.05   0.08  -0.05
   4   6    -0.17   0.09   0.03    -0.07  -0.06  -0.17    -0.03  -0.23   0.09
   5   6    -0.32   0.07  -0.03    -0.09  -0.01  -0.03    -0.01  -0.13   0.03
   6   1     0.02   0.18  -0.14     0.02   0.01  -0.19    -0.01  -0.01   0.04
   7   1    -0.20   0.01   0.09    -0.27  -0.32   0.11     0.03   0.03  -0.01
   8   1    -0.17  -0.02   0.09     0.11   0.15  -0.33    -0.02  -0.02   0.04
   9   1     0.04   0.05   0.10    -0.03  -0.48   0.05    -0.00   0.05  -0.01
  10   1     0.16  -0.12   0.16    -0.05   0.21  -0.37    -0.02  -0.01   0.04
  11   1    -0.13   0.03  -0.02    -0.04   0.03  -0.01    -0.25   0.32   0.26
  12   1    -0.09   0.03   0.00     0.04   0.00  -0.07     0.34   0.10  -0.32
  13   1    -0.15   0.02  -0.03     0.00   0.03   0.04    -0.35   0.27   0.13
  14   1    -0.16   0.03  -0.03     0.10   0.00  -0.01     0.39   0.07  -0.20
  15   1    -0.02  -0.01  -0.07    -0.11   0.05   0.06     0.06   0.14  -0.05
                     10                     11                     12
                        a                      a                      a 
 Frequencies --   872.2949               952.1070              1066.2892
 Red. masses --     7.7255                 8.3002                 9.4759
 Frc consts  --     0.0000                 0.0000                 0.0000
 IR Inten    --    10.5141                15.1101                25.7725
 Raman Activ --     0.0000                 0.0000                 0.0000
 Depolar     --     0.0000                 0.0000                 0.0000
 Atom AN      X      Y      Z        X      Y      Z        X      Y      Z
   1   6    -0.18  -0.01   0.17     0.37   0.06  -0.16     0.16   0.28  -0.18
   2   6    -0.17   0.22  -0.02     0.00  -0.21   0.10    -0.42  -0.22   0.21
   3   8     0.14  -0.16  -0.42    -0.47   0.06  -0.13     0.16  -0.08  -0.16
   4   6     0.12   0.05   0.31    -0.01   0.04   0.20     0.40  -0.06   0.06
   5   6     0.17   0.01   0.14     0.25  -0.03   0.09    -0.33   0.07   0.04
   6   1    -0.12  -0.20   0.08     0.21   0.32  -0.28     0.02   0.02  -0.06
   7   1    -0.08  -0.18   0.05    -0.12   0.04   0.03     0.06   0.04  -0.06
   8   1     0.13   0.08  -0.17    -0.13  -0.00   0.02     0.12   0.10  -0.12
   9   1    -0.17  -0.04   0.04    -0.13  -0.04   0.08    -0.21  -0.01   0.11
  10   1     0.08   0.10  -0.15    -0.09  -0.06   0.06    -0.04  -0.08   0.08
  11   1    -0.07   0.00   0.01    -0.07   0.02   0.02     0.18  -0.04   0.02
  12   1    -0.09   0.01   0.04    -0.06   0.02   0.01     0.18  -0.02   0.03
  13   1    -0.15  -0.01  -0.06    -0.07  -0.00  -0.04    -0.04   0.03   0.05
  14   1    -0.19   0.03  -0.04    -0.06   0.02  -0.05    -0.04   0.00   0.05
  15   1     0.34  -0.11  -0.20     0.27  -0.07  -0.14    -0.19   0.05   0.10
                     13                     14                     15
                        a                      a                      a 
 Frequencies --  1076.9373              1096.2186              1106.5626
 Red. masses --     7.0399                 7.4134                10.3857
 Frc consts  --     0.0000                 0.0000                 0.0000
 IR Inten    --    22.7479                 8.4518               155.8578
 Raman Activ --     0.0000                 0.0000                 0.0000
 Depolar     --     0.0000                 0.0000                 0.0000
 Atom AN      X      Y      Z        X      Y      Z        X      Y      Z
   1   6    -0.08   0.31  -0.22     0.05   0.17   0.05     0.18  -0.10  -0.03
   2   6    -0.03  -0.32   0.31    -0.14  -0.20  -0.08    -0.44   0.27   0.09
   3   8     0.07   0.08   0.13     0.14   0.00  -0.01     0.49  -0.15   0.16
   4   6    -0.24   0.00  -0.24    -0.38   0.15   0.31    -0.27  -0.09  -0.20
   5   6     0.18  -0.02   0.11     0.24  -0.12  -0.35     0.12   0.04   0.00
   6   1    -0.11  -0.20   0.20    -0.02  -0.06  -0.04     0.13   0.21  -0.15
   7   1     0.26   0.11  -0.15    -0.06  -0.11   0.03    -0.11   0.04   0.05
   8   1     0.23   0.09  -0.09     0.12   0.11  -0.16    -0.16  -0.05   0.08
   9   1     0.16  -0.13   0.01    -0.20   0.13   0.07    -0.06  -0.02   0.00
  10   1    -0.03  -0.06   0.03     0.17  -0.10   0.07    -0.22   0.04   0.05
  11   1    -0.13   0.02  -0.06    -0.08   0.03   0.08    -0.04   0.05   0.04
  12   1    -0.15   0.01  -0.07    -0.08   0.03   0.11    -0.13   0.02  -0.12
  13   1    -0.10  -0.01  -0.04     0.28  -0.03   0.01     0.03  -0.05  -0.05
  14   1    -0.08   0.03  -0.06     0.30  -0.07   0.00    -0.09   0.01  -0.00
  15   1     0.24  -0.07  -0.13    -0.16   0.06   0.10     0.08  -0.06  -0.04
                     16                     17                     18
                        a                      a                      a 
 Frequencies --  1146.1934              1173.5262              1252.6058
 Red. masses --     5.4151                 7.2309                 2.2390
 Frc consts  --     0.0000                 0.0000                 0.0000
 IR Inten    --    28.1998                38.9143                 1.0644
 Raman Activ --     0.0000                 0.0000                 0.0000
 Depolar     --     0.0000                 0.0000                 0.0000
 Atom AN      X      Y      Z        X      Y      Z        X      Y      Z
   1   6    -0.05   0.01  -0.03    -0.08  -0.12  -0.27     0.00  -0.03  -0.06
   2   6     0.09  -0.02   0.05     0.08   0.20   0.39    -0.01  -0.01   0.02
   3   8    -0.05   0.17  -0.14     0.02  -0.15  -0.27    -0.01  -0.07   0.06
   4   6    -0.05  -0.43   0.21    -0.02   0.16   0.28    -0.06  -0.10  -0.00
   5   6     0.04   0.26  -0.11     0.01  -0.10  -0.18     0.06   0.27  -0.04
   6   1    -0.03  -0.04   0.05     0.01   0.04   0.13     0.00   0.00   0.04
   7   1     0.05   0.02  -0.03     0.19   0.25  -0.13     0.02   0.05  -0.02
   8   1     0.02  -0.01   0.01    -0.09  -0.14   0.22    -0.02  -0.03   0.03
   9   1     0.04  -0.05   0.00     0.05  -0.27   0.06    -0.10  -0.02   0.05
  10   1    -0.04   0.02  -0.02    -0.19   0.16  -0.14     0.15   0.01  -0.06
  11   1     0.18   0.18   0.39    -0.08  -0.03  -0.04    -0.55   0.06  -0.16
  12   1    -0.10   0.08  -0.38    -0.05   0.01   0.10     0.59  -0.07   0.15
  13   1     0.30  -0.15  -0.10     0.10   0.02   0.04     0.19  -0.12  -0.10
  14   1    -0.23  -0.02   0.15     0.19  -0.04  -0.00    -0.22   0.01   0.11
  15   1    -0.08  -0.11   0.06    -0.13   0.06   0.07    -0.00  -0.09   0.01
                     19                     20                     21
                        a                      a                      a 
 Frequencies --  1269.2853              1332.3646              1339.6180
 Red. masses --     2.4990                 3.2608                 3.6053
 Frc consts  --     0.0000                 0.0000                 0.0000
 IR Inten    --    10.1453                25.2053                 9.9144
 Raman Activ --     0.0000                 0.0000                 0.0000
 Depolar     --     0.0000                 0.0000                 0.0000
 Atom AN      X      Y      Z        X      Y      Z        X      Y      Z
   1   6    -0.07  -0.12  -0.17     0.04  -0.15   0.06    -0.02   0.02   0.04
   2   6     0.06   0.02  -0.00    -0.35  -0.06   0.18     0.04   0.01   0.04
   3   8     0.04   0.11   0.15    -0.05   0.07  -0.08     0.00  -0.05  -0.17
   4   6    -0.10  -0.01  -0.13    -0.00   0.01   0.04    -0.40   0.09  -0.03
   5   6     0.01  -0.04   0.08     0.00  -0.01  -0.01    -0.05   0.03   0.13
   6   1     0.00   0.03   0.05     0.08   0.16  -0.12    -0.01  -0.01  -0.04
   7   1     0.09   0.13  -0.08     0.04   0.11  -0.00     0.02  -0.03  -0.00
   8   1    -0.07  -0.10   0.14    -0.00   0.00  -0.08     0.02   0.02  -0.02
   9   1    -0.58  -0.08   0.25     0.51   0.06  -0.22     0.12  -0.02  -0.04
  10   1     0.50   0.07  -0.23     0.59   0.08  -0.26    -0.15  -0.01   0.05
  11   1     0.27  -0.01   0.10     0.05   0.00   0.03     0.52  -0.10   0.15
  12   1    -0.01  -0.00  -0.01    -0.00   0.01   0.01     0.55  -0.05   0.17
  13   1    -0.08   0.01   0.00     0.00   0.00   0.01     0.09  -0.09  -0.02
  14   1     0.00   0.02  -0.04     0.01  -0.00  -0.00     0.12   0.04  -0.05
  15   1     0.06  -0.00  -0.03    -0.01   0.01   0.00     0.19  -0.06  -0.13
                     22                     23                     24
                        a                      a                      a 
 Frequencies --  1393.3492              1395.8371              1456.4716
 Red. masses --     3.1804                 3.3766                 1.8668
 Frc consts  --     0.0000                 0.0000                 0.0000
 IR Inten    --     7.9856                11.8451                 1.1575
 Raman Activ --     0.0000                 0.0000                 0.0000
 Depolar     --     0.0000                 0.0000                 0.0000
 Atom AN      X      Y      Z        X      Y      Z        X      Y      Z
   1   6    -0.27  -0.22   0.22    -0.06  -0.06   0.05     0.04   0.02  -0.01
   2   6     0.09   0.00  -0.04     0.00  -0.01  -0.02     0.05  -0.22   0.14
   3   8     0.02  -0.02   0.01     0.02   0.01   0.07     0.04  -0.02   0.02
   4   6    -0.03   0.00  -0.00     0.13  -0.03   0.01    -0.02  -0.00  -0.01
   5   6     0.11  -0.02  -0.02    -0.41   0.10   0.08     0.01  -0.01   0.01
   6   1     0.12   0.40  -0.25     0.03   0.10  -0.05    -0.02  -0.06   0.00
   7   1     0.36   0.26  -0.11     0.08   0.08  -0.02    -0.03  -0.04   0.01
   8   1     0.38   0.12  -0.33     0.09   0.03  -0.09    -0.06  -0.02   0.05
   9   1    -0.12   0.06   0.05    -0.07   0.04   0.03    -0.03   0.66   0.08
  10   1    -0.17   0.01  -0.00    -0.00   0.01  -0.02    -0.28   0.26  -0.56
  11   1    -0.00  -0.01  -0.00    -0.15  -0.02  -0.09     0.01  -0.02  -0.02
  12   1     0.04  -0.00   0.00    -0.14   0.03  -0.11     0.02   0.01  -0.03
  13   1    -0.11   0.04  -0.01     0.42  -0.18   0.03     0.00  -0.01  -0.00
  14   1    -0.12  -0.00   0.00     0.47   0.02   0.00    -0.03   0.01  -0.03
  15   1    -0.09   0.03   0.08     0.35  -0.14  -0.32    -0.00   0.03   0.00
                     25                     26                     27
                        a                      a                      a 
 Frequencies --  1466.4970              1478.9001              1487.0535
 Red. masses --     1.5279                 1.6240                 1.7240
 Frc consts  --     0.0000                 0.0000                 0.0000
 IR Inten    --     2.2399                 0.4071                 5.1694
 Raman Activ --     0.0000                 0.0000                 0.0000
 Depolar     --     0.0000                 0.0000                 0.0000
 Atom AN      X      Y      Z        X      Y      Z        X      Y      Z
   1   6     0.00  -0.00   0.00     0.07   0.04   0.16    -0.03   0.09   0.10
   2   6    -0.00   0.01  -0.01     0.02   0.03   0.01     0.00   0.02   0.03
   3   8     0.00   0.00   0.00     0.01   0.01   0.03    -0.01  -0.01  -0.04
   4   6    -0.01  -0.04   0.01    -0.05   0.03   0.13     0.08  -0.05  -0.17
   5   6    -0.04  -0.20   0.04     0.02  -0.00  -0.01    -0.03   0.00  -0.04
   6   1    -0.00  -0.00   0.00    -0.13  -0.36  -0.41    -0.06  -0.16  -0.41
   7   1    -0.00   0.01   0.00     0.30   0.12  -0.09     0.34  -0.19  -0.12
   8   1    -0.00   0.00  -0.01    -0.46   0.07  -0.16    -0.17  -0.03   0.11
   9   1    -0.00  -0.03  -0.00    -0.03  -0.05   0.02     0.00   0.00   0.00
  10   1     0.01  -0.01   0.02     0.03  -0.01   0.02    -0.01   0.02  -0.02
  11   1    -0.02  -0.00  -0.00     0.02  -0.27  -0.25    -0.08   0.37   0.32
  12   1     0.03   0.00  -0.03     0.09   0.15  -0.34    -0.13  -0.19   0.44
  13   1     0.40   0.06   0.25    -0.03   0.02   0.00     0.05   0.07   0.08
  14   1    -0.36   0.10  -0.26    -0.02  -0.01   0.02     0.00  -0.04   0.09
  15   1     0.14   0.69  -0.13    -0.01  -0.01   0.01     0.05  -0.01  -0.05
                     28                     29                     30
                        a                      a                      a 
 Frequencies --  1490.0711              1493.3162              2840.8136
 Red. masses --     1.5442                 1.6069                 1.9172
 Frc consts  --     0.0000                 0.0000                 0.0000
 IR Inten    --     3.1135                 2.8492               137.7417
 Raman Activ --     0.0000                 0.0000                 0.0000
 Depolar     --     0.0000                 0.0000                 0.0000
 Atom AN      X      Y      Z        X      Y      Z        X      Y      Z
   1   6    -0.01   0.02   0.02     0.14  -0.14   0.04    -0.00   0.00  -0.00
   2   6    -0.00   0.01   0.00     0.05  -0.02  -0.00    -0.00  -0.02  -0.01
   3   8    -0.01  -0.00  -0.01    -0.01  -0.00  -0.02    -0.00  -0.01  -0.01
   4   6     0.05  -0.01   0.02     0.03  -0.02  -0.09    -0.03  -0.28   0.00
   5   6     0.02   0.03   0.21    -0.01   0.00   0.01     0.00   0.00   0.00
   6   1    -0.01  -0.02  -0.09    -0.05  -0.18   0.21     0.00   0.00  -0.00
   7   1     0.08  -0.06  -0.03    -0.22   0.57   0.10     0.00  -0.00   0.00
   8   1    -0.02  -0.01   0.04    -0.29   0.17  -0.47     0.00  -0.00  -0.00
   9   1     0.00  -0.02  -0.00    -0.02   0.01   0.02    -0.00  -0.00  -0.00
  10   1     0.01  -0.00   0.01    -0.05  -0.00   0.00    -0.00   0.09   0.04
  11   1    -0.05   0.06   0.04    -0.00   0.19   0.18     0.14   0.26  -0.32
  12   1    -0.06  -0.02   0.05    -0.07  -0.10   0.24    -0.02   0.77   0.34
  13   1    -0.02  -0.47  -0.44     0.00  -0.03  -0.02    -0.01  -0.01   0.02
  14   1     0.11   0.27  -0.58     0.02   0.01  -0.03     0.00  -0.02  -0.01
  15   1    -0.19   0.08   0.17    -0.00  -0.00   0.00    -0.00   0.00  -0.00
                     31                     32                     33
                        a                      a                      a 
 Frequencies --  2853.1397              2882.3073              2964.1633
 Red. masses --     1.7206                 1.4648                 1.6957
 Frc consts  --     0.0000                 0.0000                 0.0000
 IR Inten    --    86.5595                83.3596                47.8856
 Raman Activ --     0.0000                 0.0000                 0.0000
 Depolar     --     0.0000                 0.0000                 0.0000
 Atom AN      X      Y      Z        X      Y      Z        X      Y      Z
   1   6     0.00   0.00  -0.00     0.00   0.00   0.00     0.01   0.00   0.01
   2   6     0.03   0.22   0.11     0.00  -0.01  -0.00    -0.09   0.02  -0.23
   3   8    -0.01   0.01   0.01    -0.01  -0.00  -0.02    -0.01   0.00  -0.00
   4   6     0.00  -0.03  -0.01     0.08   0.04  -0.18     0.00  -0.00  -0.00
   5   6     0.00  -0.00  -0.00     0.00  -0.00   0.00     0.00   0.00   0.00
   6   1    -0.01   0.00  -0.00     0.00  -0.00   0.00    -0.02   0.01   0.00
   7   1     0.00  -0.00   0.01    -0.01  -0.00  -0.01    -0.02   0.00  -0.07
   8   1     0.00   0.03   0.01     0.00  -0.00  -0.00     0.00  -0.01  -0.00
   9   1    -0.02   0.04  -0.03    -0.01  -0.00  -0.01     0.39  -0.06   0.88
  10   1    -0.06  -0.87  -0.40     0.00   0.04   0.02    -0.02  -0.04  -0.05
  11   1     0.00  -0.00  -0.00    -0.26  -0.59   0.57    -0.00  -0.01   0.01
  12   1    -0.01   0.10   0.04     0.01   0.44   0.14     0.00   0.01   0.01
  13   1    -0.00  -0.00   0.00     0.01   0.02  -0.02     0.00   0.00  -0.00
  14   1     0.00  -0.00  -0.00     0.00  -0.01  -0.00     0.00  -0.00  -0.00
  15   1     0.00   0.00   0.00    -0.01  -0.00  -0.01    -0.00   0.00  -0.00
                     34                     35                     36
                        a                      a                      a 
 Frequencies --  3039.1474              3044.8577              3047.8703
 Red. masses --     1.9131                 1.6298                 1.9203
 Frc consts  --     0.0000                 0.0000                 0.0000
 IR Inten    --    59.0888                31.0246                48.6047
 Raman Activ --     0.0000                 0.0000                 0.0000
 Depolar     --     0.0000                 0.0000                 0.0000
 Atom AN      X      Y      Z        X      Y      Z        X      Y      Z
   1   6    -0.11  -0.07  -0.25     0.06  -0.23  -0.01    -0.00   0.01  -0.00
   2   6    -0.01  -0.00  -0.03     0.00  -0.01   0.00    -0.00   0.00  -0.00
   3   8    -0.00  -0.00  -0.00    -0.00   0.00   0.00    -0.00  -0.00   0.00
   4   6     0.00   0.00  -0.00    -0.00  -0.00   0.00     0.00   0.02  -0.01
   5   6     0.00  -0.00   0.00     0.00   0.02  -0.00     0.07   0.26  -0.09
   6   1     0.11  -0.06  -0.04    -0.09   0.01  -0.00    -0.00   0.00  -0.00
   7   1     0.31  -0.02   0.83    -0.11  -0.03  -0.32     0.01   0.00   0.03
   8   1    -0.02   0.31   0.10    -0.00   0.83   0.35    -0.00  -0.05  -0.02
   9   1     0.03  -0.00   0.06    -0.01  -0.00  -0.01     0.00   0.00   0.00
  10   1    -0.00   0.01   0.01     0.00   0.02   0.01     0.00  -0.00  -0.00
  11   1    -0.00  -0.01   0.01     0.00   0.00  -0.00    -0.01  -0.02   0.02
  12   1     0.00   0.00   0.00     0.00  -0.00  -0.00    -0.00  -0.02  -0.01
  13   1     0.00   0.00  -0.00    -0.01  -0.02   0.03    -0.24  -0.53   0.58
  14   1     0.00   0.01   0.00    -0.00  -0.05  -0.02     0.00  -0.44  -0.22
  15   1    -0.00  -0.00  -0.01     0.00   0.00  -0.00    -0.02   0.04  -0.05
                     37                     38                     39
                        a                      a                      a 
 Frequencies --  3052.5008              3053.6208              3054.2549
 Red. masses --     1.4191                 1.6156                 1.8202
 Frc consts  --     0.0000                 0.0000                 0.0000
 IR Inten    --    27.3461                29.6023                41.8533
 Raman Activ --     0.0000                 0.0000                 0.0000
 Depolar     --     0.0000                 0.0000                 0.0000
 Atom AN      X      Y      Z        X      Y      Z        X      Y      Z
   1   6    -0.01   0.00  -0.00    -0.22   0.08   0.03     0.01  -0.01  -0.00
   2   6     0.00  -0.00  -0.00    -0.01   0.00  -0.00    -0.00  -0.00  -0.00
   3   8    -0.00   0.00   0.00    -0.00  -0.00   0.00     0.00  -0.00   0.00
   4   6    -0.00   0.00  -0.00     0.00  -0.00   0.00     0.00  -0.01  -0.01
   5   6    -0.16   0.05  -0.10     0.00  -0.00  -0.01    -0.04  -0.10  -0.25
   6   1     0.02  -0.01  -0.00     0.89  -0.34   0.01    -0.05   0.02  -0.00
   7   1     0.00   0.00   0.01    -0.09   0.01  -0.15     0.00  -0.00  -0.00
   8   1    -0.00  -0.01  -0.00    -0.03   0.06   0.02     0.00   0.02   0.01
   9   1     0.00   0.00   0.00     0.01  -0.00   0.01    -0.00   0.00   0.00
  10   1     0.00   0.00   0.00    -0.00  -0.01  -0.00    -0.00   0.00   0.00
  11   1    -0.00  -0.00   0.01     0.00   0.00  -0.00    -0.00  -0.01   0.01
  12   1    -0.00   0.00   0.00    -0.00   0.00   0.00     0.00   0.02   0.01
  13   1     0.04   0.14  -0.15    -0.01  -0.03   0.03    -0.14  -0.33   0.30
  14   1    -0.02  -0.36  -0.18     0.00   0.04   0.01    -0.00   0.67   0.27
  15   1     0.53   0.03   0.68     0.01  -0.00   0.01     0.27  -0.00   0.32
