      -----------------------------------------------------------      
     |                   =====================                   |     
     |                           x T B                           |     
     |                   =====================                   |     
     |                         S. Grimme                         |     
     |          Mulliken Center for Theoretical Chemistry        |     
     |                    University of Bonn                     |     
      -----------------------------------------------------------      

   * xtb version 6.7.1 (edcfbbe) compiled by 'albert@albert-system' on 2024-07-22

   xtb is free software: you can redistribute it and/or modify it under
   the terms of the GNU Lesser General Public License as published by
   the Free Software Foundation, either version 3 of the License, or
   (at your option) any later version.
   
   xtb is distributed in the hope that it will be useful,
   but WITHOUT ANY WARRANTY; without even the implied warranty of
   MERCHANTABILITY or FITNESS FOR A PARTICULAR PURPOSE.  See the
   GNU Lesser General Public License for more details.
   
   Cite this work as:
   * C. Bannwarth, E. Caldeweyher, S. Ehlert, A. Hansen, P. Pracht,
     J. Seibert, S. Spicher, S. Grimme, WIREs Comput. Mol. Sci., 2020, 11,
     e01493. DOI: 10.1002/wcms.1493
   
   for GFN2-xTB:
   * C. Bannwarth, S. Ehlert and S. Grimme., J. Chem. Theory Comput., 2019,
     15, 1652-1671. DOI: 10.1021/acs.jctc.8b01176
   for GFN1-xTB:
   * S. Grimme, C. Bannwarth, P. Shushkov, J. Chem. Theory Comput., 2017,
     13, 1989-2009. DOI: 10.1021/acs.jctc.7b00118
   for GFN0-xTB:
   * P. Pracht, E. Caldeweyher, S. Ehlert, S. Grimme, ChemRxiv, 2019, preprint.
     DOI: 10.26434/chemrxiv.8326202.v1
   for GFN-FF:
   * S. Spicher and S. Grimme, Angew. Chem. Int. Ed., 2020, 59, 15665-15673.
     DOI: 10.1002/anie.202004239
   
   for ALPB and GBSA implicit solvation:
   * S. Ehlert, M. Stahn, S. Spicher, S. Grimme, J. Chem. Theory Comput.,
     2021, 17, 4250-4261. DOI: 10.1021/acs.jctc.1c00471
   
   for ddCOSMO and CPCM-X implicit solvation:
   * M. Stahn, S. Ehlert, S. Grimme, J. Phys. Chem. A,
     2023, XX, XXXX-XXXX. DOI: 10.1021/acs.jpca.3c04382
   
   for DFT-D4:
   * E. Caldeweyher, C. Bannwarth and S. Grimme, J. Chem. Phys., 2017,
     147, 034112. DOI: 10.1063/1.4993215
   * E. Caldeweyher, S. Ehlert, A. Hansen, H. Neugebauer, S. Spicher,
     C. Bannwarth and S. Grimme, J. Chem. Phys., 2019, 150, 154122.
     DOI: 10.1063/1.5090222
   * E. Caldeweyher, J.-M. Mewes, S. Ehlert and S. Grimme, Phys. Chem. Chem. Phys.
     2020, 22, 8499-8512. DOI: 10.1039/D0CP00502A
   
   for sTDA-xTB:
   * S. Grimme and C. Bannwarth, J. Chem. Phys., 2016, 145, 054103.
     DOI: 10.1063/1.4959605
   
   in the mass-spec context:
   * V. Asgeirsson, C. Bauer and S. Grimme, Chem. Sci., 2017, 8, 4879.
     DOI: 10.1039/c7sc00601b
   * J. Koopman and S. Grimme, ACS Omega 2019, 4, 12, 15120-15133.
     DOI: 10.1021/acsomega.9b02011
   
   for metadynamics refer to:
   * S. Grimme, J. Chem. Theory Comput., 2019, 155, 2847-2862
     DOI: 10.1021/acs.jctc.9b00143
   
   for SPH calculations refer to:
   * S. Spicher and S. Grimme, J. Chem. Theory Comput., 2021, 17, 1701-1714
     DOI: 10.1021/acs.jctc.0c01306
   
   for ONIOM refer to:
   * C. Plett, A. Katbashev, S. Ehlert, S. Grimme, M. Bursch,
     Phys. Chem. Chem. Phys., 2023, 25, 17860-17868. DOI: 10.1039/D3CP02178E
   
   for DIPRO refer to:
   * J. Kohn, N. Gildemeister, S. Grimme, D. Fazzi, A. Hansen,
     J. Chem. Phys., 2023, just accepted.
   
   for PTB refer to:
   * S. Grimme, M. Mueller, A. Hansen, J. Chem. Phys., 2023, 158, 124111.
     DOI: 10.1063/5.0137838
   
   with help from (in alphabetical order)
   P. Atkinson, C. Bannwarth, F. Bohle, G. Brandenburg, E. Caldeweyher
   M. Checinski, S. Dohm, S. Ehlert, S. Ehrlich, I. Gerasimov, C. Hölzer
   A. Katbashev, J. Kohn, J. Koopman, C. Lavigne, S. Lehtola, F. März, M. Müller,
   F. Musil, H. Neugebauer, J. Pisarek, C. Plett, P. Pracht, F. Pultar,
   J. Seibert, P. Shushkov, S. Spicher, M. Stahn, M. Steiner, T. Strunk,
   J. Stückrath, T. Rose, and J. Unsleber
   
 * started run on 2025/04/07 at 02:45:59.798     
   ID    Z sym.   atoms
    1    6 C      1, 2, 4, 5
    2    8 O      3
    3    1 H      6-15

           -------------------------------------------------
          |                Calculation Setup                |
           -------------------------------------------------

          program call               : /srv/scratch/z5358697/.xtb/bin/xtb xtb_rrho.coord --gfn2 --bhess vtight --chrg 0 --enso --norestart -I rrho-xcontrol-inp --parallel 1 --alpb water
          hostname                   : k140
          coordinate file            : xtb_rrho.coord
          omp threads                :                     1


           -------------------------------------------------
          |                 G F N 2 - x T B                 |
           -------------------------------------------------

        Reference                      10.1021/acs.jctc.8b01176
      * Hamiltonian:
        H0-scaling (s, p, d)           1.850000    2.230000    2.230000
        zeta-weighting                 0.500000
      * Dispersion:
        s8                             2.700000
        a1                             0.520000
        a2                             5.000000
        s9                             5.000000
      * Repulsion:
        kExp                           1.500000    1.000000
        rExp                           1.000000
      * Coulomb:
        alpha                          2.000000
        third order                    shell-resolved
        anisotropic                    true
        a3                             3.000000
        a5                             4.000000
        cn-shift                       1.200000
        cn-exp                         4.000000
        max-rad                        5.000000

      * Solvation model:               ALPB
        Solvent                        water
        Parameter file                 internal GFN2-xTB/ALPB
        Dielectric constant                8.0200E+01
        Reference state                gsolv [1 M gas/solution]
        Free energy shift                  1.0808E-03 Eh       6.7819E-01 kcal/mol
        Temperature                        2.9815E+02 K
        Density                            1.0000E+00 kg/L
        Solvent mass                       1.8000E+01 g/mol
        Interaction kernel             P16
        Born radius scaling (c1)           1.4744E+00
        Born radii integrator          GBOBC
        Born offset                        0.0000E+00 a0       0.0000E+00 AA
        H-bond correction              true
        Ion screening                  false
        Surface tension                    1.0000E-05 Eh       1.5569E+01 dyn/cm
        Grid points                               974 per atom

          ...................................................
          :                      SETUP                      :
          :.................................................:
          :  # basis functions                  30          :
          :  # atomic orbitals                  30          :
          :  # shells                           20          :
          :  # electrons                        32          :
          :  max. iterations                   250          :
          :  Hamiltonian                  GFN2-xTB          :
          :  restarted?                      false          :
          :  GBSA solvation                   true          :
          :  PC potential                    false          :
          :  electronic temp.          300.0000000     K    :
          :  accuracy                    1.0000000          :
          :  -> integral cutoff          0.2500000E+02      :
          :  -> integral neglect         0.1000000E-07      :
          :  -> SCF convergence          0.1000000E-05 Eh   :
          :  -> wf. convergence          0.1000000E-03 e    :
          :  Broyden damping             0.4000000          :
          :  net charge                          0          :
          :  unpaired electrons                  0          :
          ...................................................

 iter      E             dE          RMSdq      gap      omega  full diag
   1    -17.8834866 -0.178835E+02  0.380E+00   11.30       0.0  T
   2    -17.9232800 -0.397934E-01  0.189E+00   10.85       1.0  T
   3    -17.9240486 -0.768517E-03  0.746E-01   10.91       1.0  T
   4    -17.9242489 -0.200330E-03  0.129E-01   10.94       1.0  T
   5    -17.9242716 -0.227003E-04  0.703E-02   10.96       1.0  T
   6    -17.9242735 -0.190715E-05  0.873E-03   10.97       3.0  T
   7    -17.9242737 -0.168259E-06  0.329E-03   10.97       7.8  T
   8    -17.9242737 -0.140650E-07  0.145E-03   10.97      17.8  T
   9    -17.9242737 -0.788666E-08  0.191E-04   10.97     135.0  T
  10    -17.9242737 -0.376446E-10  0.110E-04   10.97     234.7  T

   *** convergence criteria satisfied after 10 iterations ***

         #    Occupation            Energy/Eh            Energy/eV
      -------------------------------------------------------------
         1        2.0000           -0.6936880             -18.8762
       ...           ...                  ...                  ...
        10        2.0000           -0.4799253             -13.0594
        11        2.0000           -0.4715944             -12.8327
        12        2.0000           -0.4598624             -12.5135
        13        2.0000           -0.4539886             -12.3537
        14        2.0000           -0.4464759             -12.1492
        15        2.0000           -0.4342365             -11.8162
        16        2.0000           -0.3999549             -10.8833 (HOMO)
        17                          0.0032013               0.0871 (LUMO)
        18                          0.0808907               2.2011
        19                          0.1131542               3.0791
        20                          0.1170108               3.1840
        21                          0.1439433               3.9169
       ...                                ...                  ...
        30                          0.2828483               7.6967
      -------------------------------------------------------------
                  HL-Gap            0.4031563 Eh           10.9704 eV
             Fermi-level           -0.1983768 Eh           -5.3981 eV

 SCC (total)                   0 d,  0 h,  0 min,  0.030 sec
 SCC setup                      ...        0 min,  0.001 sec (  2.232%)
 Dispersion                     ...        0 min,  0.000 sec (  0.177%)
 classical contributions        ...        0 min,  0.000 sec (  0.040%)
 integral evaluation            ...        0 min,  0.001 sec (  2.302%)
 iterations                     ...        0 min,  0.026 sec ( 88.141%)
 molecular gradient             ...        0 min,  0.002 sec (  6.752%)
 printout                       ...        0 min,  0.000 sec (  0.317%)

         :::::::::::::::::::::::::::::::::::::::::::::::::::::
         ::                     SUMMARY                     ::
         :::::::::::::::::::::::::::::::::::::::::::::::::::::
         :: total energy             -17.722106614646 Eh    ::
         :: total w/o Gsasa/hb       -17.722235012700 Eh    ::
         :: gradient norm              0.028320409518 Eh/a0 ::
         :: HOMO-LUMO gap             10.970440689709 eV    ::
         ::.................................................::
         :: SCC energy               -17.924266594642 Eh    ::
         :: -> isotropic ES            0.026887436909 Eh    ::
         :: -> anisotropic ES          0.003938052106 Eh    ::
         :: -> anisotropic XC          0.006582437036 Eh    ::
         :: -> dispersion             -0.006808954138 Eh    ::
         :: -> Gsolv                  -0.003564645392 Eh    ::
         ::    -> Gelec               -0.003693043446 Eh    ::
         ::    -> Gsasa                0.000025531782 Eh    ::
         ::    -> Ghb                 -0.000977893426 Eh    ::
         ::    -> Gshift               0.001080759698 Eh    ::
         :: repulsion energy           0.202159979996 Eh    ::
         :: add. restraining           0.000000000000 Eh    ::
         :: total charge               0.000000000000 e     ::
         :::::::::::::::::::::::::::::::::::::::::::::::::::::

metadynamics with 1 initial structures loaded
           -------------------------------------------------
          |           Optimal kpush determination           |
           -------------------------------------------------
      ----------------------------------------------------------- 
     |                   =====================                   |
     |                        A N C O P T                        |
     |                   =====================                   |
     |               Approximate Normal Coordinate               |
     |                Rational Function Optimizer                |
      ----------------------------------------------------------- 
target rmsd / Å         0.100000
unbiased initial rmsd   0.032022
 
iter. min.        max.        rmsd       kpush
final kpush:  0.000000
           -------------------------------------------------
          |            Biased Numerical Hessian             |
           -------------------------------------------------
kpush                :   0.00000
alpha                :   1.00000
step length          :   0.00500
SCC accuracy         :   0.30000
Hessian scale factor :   1.00000
frozen atoms in %    :   0.00000    0
RMS gradient         :   0.00005
estimated CPU  time      0.01 min
estimated wall time      0.01 min

writing file <hessian>.

 projected vibrational frequencies (cm⁻¹)
eigval :       -0.00    -0.00    -0.00     0.00     0.00     0.00
eigval :       58.52   114.08   201.41   205.00   294.22   356.93
eigval :      497.37   817.38   838.99   872.29   952.11  1066.29
eigval :     1076.94  1096.22  1106.56  1146.19  1173.53  1252.61
eigval :     1269.29  1332.36  1339.62  1393.35  1395.84  1456.47
eigval :     1466.50  1478.90  1487.05  1490.07  1493.32  2840.81
eigval :     2853.14  2882.31  2964.16  3039.15  3044.86  3047.87
eigval :     3052.50  3053.62  3054.25
           -------------------------------------------------
          |                Property Printout                |
           -------------------------------------------------

    * Orbital Energies and Occupations

         #    Occupation            Energy/Eh            Energy/eV
      -------------------------------------------------------------
         1        2.0000           -0.6979731             -18.9928
       ...           ...                  ...                  ...
         4        2.0000           -0.5883174             -16.0089
         5        2.0000           -0.5808988             -15.8071
         6        2.0000           -0.5503850             -14.9767
         7        2.0000           -0.5330399             -14.5048
         8        2.0000           -0.5298219             -14.4172
         9        2.0000           -0.4977530             -13.5445
        10        2.0000           -0.4799113             -13.0591
        11        2.0000           -0.4724004             -12.8547
        12        2.0000           -0.4606347             -12.5345
        13        2.0000           -0.4542007             -12.3594
        14        2.0000           -0.4459362             -12.1345
        15        2.0000           -0.4340324             -11.8106
        16        2.0000           -0.3985912             -10.8462 (HOMO)
        17                          0.0206866               0.5629 (LUMO)
        18                          0.0970588               2.6411
        19                          0.1146052               3.1186
        20                          0.1191514               3.2423
        21                          0.1493883               4.0651
        22                          0.1550238               4.2184
        23                          0.1683040               4.5798
        24                          0.1834546               4.9921
        25                          0.1862289               5.0675
        26                          0.2053925               5.5890
        27                          0.2480888               6.7508
       ...                                ...                  ...
        30                          0.2937498               7.9933
      -------------------------------------------------------------
                  HL-Gap            0.4192778 Eh           11.4091 eV
             Fermi-level           -0.1889523 Eh           -5.1417 eV

     #   Z          covCN         q      C6AA      α(0)
     1   6 C        3.750    -0.127    23.005     6.840
     2   6 C        3.691     0.078    19.459     6.313
     3   8 O        1.700    -0.364    20.155     6.061
     4   6 C        3.690     0.087    19.312     6.289
     5   6 C        3.751    -0.126    22.979     6.836
     6   1 H        0.925     0.055     2.259     2.351
     7   1 H        0.925     0.046     2.369     2.407
     8   1 H        0.925     0.054     2.269     2.355
     9   1 H        0.924     0.054     2.268     2.355
    10   1 H        0.923     0.022     2.700     2.570
    11   1 H        0.923     0.026     2.647     2.544
    12   1 H        0.923     0.020     2.728     2.583
    13   1 H        0.925     0.057     2.232     2.336
    14   1 H        0.925     0.059     2.214     2.327
    15   1 H        0.925     0.059     2.211     2.325

 Mol. C6AA /au·bohr⁶  :       1462.723598
 Mol. C8AA /au·bohr⁸  :      29742.464253
 Mol. α(0) /au        :         56.493781


Wiberg/Mayer (AO) data.
largest (>0.10) Wiberg bond orders for each atom

 ---------------------------------------------------------------------------
     #   Z sym  total        # sym  WBO       # sym  WBO       # sym  WBO
 ---------------------------------------------------------------------------
     1   6 C    3.994 --     2 C    1.010     8 H    0.986     7 H    0.986
                             6 H    0.984
     2   6 C    3.948 --     1 C    1.010     3 O    0.976     9 H    0.971
                            10 H    0.968
     3   8 O    2.047 --     2 C    0.976     4 C    0.971
     4   6 C    3.950 --     5 C    1.016     3 O    0.971    11 H    0.970
                            12 H    0.969
     5   6 C    3.991 --     4 C    1.016    13 H    0.986    14 H    0.986
                            15 H    0.984
     6   1 H    0.997 --     1 C    0.984
     7   1 H    0.998 --     1 C    0.986
     8   1 H    0.997 --     1 C    0.986
     9   1 H    0.997 --     2 C    0.971
    10   1 H    1.000 --     2 C    0.968
    11   1 H    0.999 --     4 C    0.970
    12   1 H    1.000 --     4 C    0.969
    13   1 H    0.997 --     5 C    0.986
    14   1 H    0.997 --     5 C    0.986
    15   1 H    0.996 --     5 C    0.984
 ---------------------------------------------------------------------------

Topologies differ in total number of bonds
Writing topology from bond orders to xtbtopo.mol

molecular dipole:
                 x           y           z       tot (Debye)
 q only:        0.088      -0.066      -0.451
   full:        0.155      -0.148      -0.585       1.583
molecular quadrupole (traceless):
                xx          xy          yy          xz          yz          zz
 q only:        3.775      -0.595      -1.638       0.818      -0.326      -2.137
  q+dip:        1.719      -0.194       0.031       1.058      -0.161      -1.750
   full:        2.564      -0.444      -0.647       1.087      -0.221      -1.917

           -------------------------------------------------
          |                Geometry Summary                 |
           -------------------------------------------------

      molecular mass/u    :       74.1217560
   center of mass at/Å    :        0.0001783       0.0020147       0.0000769
  moments of inertia/u·Å² :        0.3633212E+02   0.2038207E+03   0.2182454E+03
rotational constants/cm⁻¹ :        0.4639870E+00   0.8270813E-01   0.7724164E-01

 * 14 selected distances

     #   Z          #   Z                                           value/Å
     1   6 C        2   6 C                                       1.5272092 (max)
     2   6 C        3   8 O                                       1.4148790
     3   8 O        4   6 C                                       1.4183622
     4   6 C        5   6 C                                       1.5206348
     1   6 C        6   1 H                                       1.0855740
     1   6 C        7   1 H                                       1.0869550
     1   6 C        8   1 H                                       1.0869661
     2   6 C        9   1 H                                       1.0926579
     2   6 C       10   1 H                                       1.1004818
     4   6 C       11   1 H                                       1.0985868
     4   6 C       12   1 H                                       1.1007731
     5   6 C       13   1 H                                       1.0862627
     5   6 C       14   1 H                                       1.0861067
     5   6 C       15   1 H                                       1.0854400 (min)

 * 3 distinct bonds (by element types)

   Z      Z             #   av. dist./Å        max./Å        min./Å
   1 H    6 C          10     1.0909804     1.1007731     1.0854400
   6 C    6 C           2     1.5239220     1.5272092     1.5206348
   6 C    8 O           2     1.4166206     1.4183622     1.4148790

           -------------------------------------------------
          |               Frequency Printout                |
           -------------------------------------------------
 projected vibrational frequencies (cm⁻¹)
eigval :       -0.00    -0.00    -0.00     0.00     0.00     0.00
eigval :       58.52   114.08   201.41   205.00   294.22   356.93
eigval :      497.37   817.38   838.99   872.29   952.11  1066.29
eigval :     1076.94  1096.22  1106.56  1146.19  1173.53  1252.61
eigval :     1269.29  1332.36  1339.62  1393.35  1395.84  1456.47
eigval :     1466.50  1478.90  1487.05  1490.07  1493.32  2840.81
eigval :     2853.14  2882.31  2964.16  3039.15  3044.86  3047.87
eigval :     3052.50  3053.62  3054.25
 reduced masses (amu)
   1:  9.23   2:  9.91   3:  9.37   4: 10.43   5: 11.29   6: 10.14   7:  7.24   8:  7.94
   9:  2.17  10:  4.03  11:  8.08  12:  9.59  13:  9.73  14:  2.93  15:  2.11  16:  7.73
  17:  8.30  18:  9.48  19:  7.04  20:  7.41  21: 10.39  22:  5.42  23:  7.23  24:  2.24
  25:  2.50  26:  3.26  27:  3.61  28:  3.18  29:  3.38  30:  1.87  31:  1.53  32:  1.62
  33:  1.72  34:  1.54  35:  1.61  36:  1.92  37:  1.72  38:  1.46  39:  1.70  40:  1.91
  41:  1.63  42:  1.92  43:  1.42  44:  1.62  45:  1.82
 IR intensities (km·mol⁻¹)
   1:  1.09   2:  0.25   3:  1.11   4:  0.48   5:  0.29   6:  0.05   7:  0.19   8:  5.58
   9:  0.23  10:  1.33  11:  4.41  12:  5.20  13:  4.56  14: 11.71  15:  2.84  16: 10.51
  17: 15.11  18: 25.77  19: 22.75  20:  8.45  21:155.86  22: 28.20  23: 38.91  24:  1.06
  25: 10.15  26: 25.21  27:  9.91  28:  7.99  29: 11.85  30:  1.16  31:  2.24  32:  0.41
  33:  5.17  34:  3.11  35:  2.85  36:137.74  37: 86.56  38: 83.36  39: 47.89  40: 59.09
  41: 31.02  42: 48.60  43: 27.35  44: 29.60  45: 41.85
 Raman intensities (Ä⁴*amu⁻¹)
   1:  0.00   2:  0.00   3:  0.00   4:  0.00   5:  0.00   6:  0.00   7:  0.00   8:  0.00
   9:  0.00  10:  0.00  11:  0.00  12:  0.00  13:  0.00  14:  0.00  15:  0.00  16:  0.00
  17:  0.00  18:  0.00  19:  0.00  20:  0.00  21:  0.00  22:  0.00  23:  0.00  24:  0.00
  25:  0.00  26:  0.00  27:  0.00  28:  0.00  29:  0.00  30:  0.00  31:  0.00  32:  0.00
  33:  0.00  34:  0.00  35:  0.00  36:  0.00  37:  0.00  38:  0.00  39:  0.00  40:  0.00
  41:  0.00  42:  0.00  43:  0.00  44:  0.00  45:  0.00
 output can be read by thermo (or use thermo option).
 writing <g98.out> molden fake output.
 recommended (thermochemical) frequency scaling factor: 1.0
           -------------------------------------------------
          |             Thermodynamic Functions             |
           -------------------------------------------------

Molecule has no symmetry elements
It seems to be the C1 point group
c1  symmetry found (for desy threshold:  0.10E+00) used in thermo

          ...................................................
          :                      SETUP                      :
          :.................................................:
          :  # frequencies                          39      :
          :  # imaginary freq.                       0      :
          :  linear?                             false      :
          :  only rotor calc.                    false      :
          :  symmetry                               c1      :
          :  rotational number                       1      :
          :  scaling factor                  1.0000000      :
          :  rotor cutoff                    0.0000000 cm⁻¹ :
          :  imag. cutoff                 -100.0000000 cm⁻¹ :
          :.................................................:

    mode    ω/cm⁻¹     T·S(HO)/kcal·mol⁻¹    T·S(FR)/kcal·mol⁻¹   T·S(vib)
   ------------------------------------------------------------------------
       1     58.52    -1.34362 (100.00%)    -1.00939 (  0.00%)    -1.34362
       2    114.08    -0.95355 (100.00%)    -0.81189 (  0.00%)    -0.95355
       3    201.41    -0.63214 (100.00%)    -0.64363 (  0.00%)    -0.63214
       4    205.00    -0.62247 (100.00%)    -0.63840 (  0.00%)    -0.62247
       5    294.22    -0.43219 (100.00%)    -0.53141 (  0.00%)    -0.43219
   ------------------------------------------------------------------------

   temp. (K)  partition function   enthalpy   heat capacity  entropy
                                   cal/mol     cal/K/mol   cal/K/mol   J/K/mol
 298.15  VIB   48.3                 2589.990     17.203     16.391
         ROT  0.971E+05              888.752      2.981     25.802
         INT  0.469E+07             3478.742     20.184     42.193
         TR   0.617E+27             1481.254      4.968     38.808
         TOT                        4959.9962    25.1517    81.0006   338.9067

       T/K    H(0)-H(T)+PV         H(T)/Eh          T*S/Eh         G(T)/Eh
   ------------------------------------------------------------------------
    298.15    0.790426E-02    0.141318E+00    0.384860E-01    0.102832E+00
   ------------------------------------------------------------------------

         :::::::::::::::::::::::::::::::::::::::::::::::::::::
         ::                  THERMODYNAMIC                  ::
         :::::::::::::::::::::::::::::::::::::::::::::::::::::
         :: total free energy         -17.620273405284 Eh   ::
         ::.................................................::
         :: total energy              -17.723105863452 Eh   ::
         :: zero point energy           0.133414216797 Eh   ::
         :: G(RRHO) w/o ZPVE           -0.030581758629 Eh   ::
         :: G(RRHO) contrib.            0.102832458168 Eh   ::
         :::::::::::::::::::::::::::::::::::::::::::::::::::::

optimized geometry written to: xtbopt.coord


           -------------------------------------------------
          | TOTAL ENERGY              -17.723105863452 Eh   |
          | TOTAL ENTHALPY            -17.581787389546 Eh   |
          | TOTAL FREE ENERGY         -17.620273405284 Eh   |
          | GRADIENT NORM               0.000046612226 Eh/α |
          | HOMO-LUMO GAP              11.409128576740 eV   |
           -------------------------------------------------

------------------------------------------------------------------------
 * finished run on 2025/04/07 at 02:46:00.358     
------------------------------------------------------------------------
 total:
 * wall-time:     0 d,  0 h,  0 min,  0.559 sec
 *  cpu-time:     0 d,  0 h,  0 min,  0.449 sec
 * ratio c/w:     0.803 speedup
 SCF:
 * wall-time:     0 d,  0 h,  0 min,  0.030 sec
 *  cpu-time:     0 d,  0 h,  0 min,  0.007 sec
 * ratio c/w:     0.244 speedup
 analytical hessian:
 * wall-time:     0 d,  0 h,  0 min,  0.388 sec
 *  cpu-time:     0 d,  0 h,  0 min,  0.378 sec
 * ratio c/w:     0.976 speedup

