! r2scan-3c def2/J RI DEFGRID2 scfconv6 printgap
%output
    printlevel normal
end
* xyz 0 1
C -2.391045414 -1.1598430172 -0.3111699512
C -1.0693024002 -0.6233476264 0.2484204194
H -1.1112799034 -0.6116299974 1.3498645017
C -0.7770081939 0.804737494 -0.2361022379
H -0.8317605493 0.8222785778 -1.3375794973
C 0.6392481386 1.2455039308 0.1726885312
H 0.6617620899 1.3880202331 1.2643681514
C 1.6826252197 0.1877162275 -0.188922682
H 1.796697674 0.1653598972 -1.281674518
C 1.2184807752 -1.2026426443 0.2815315623
H 1.2110123903 -1.205052546 1.3928957791
O -0.0696943957 -1.5199973819 -0.19023183
O 2.1034750132 -2.1361902241 -0.2175364048
O 2.8905751054 0.5270695694 0.4379404203
O 0.9852881943 2.4411452171 -0.4779999118
O -1.6633694798 1.746485285 0.3153538951
O -3.4509775011 -0.3619843346 0.1610050937
H -2.4965496659 -2.200036158 0.0159522643
H -2.3332921888 -1.1380274009 -1.4062054418
H 1.7477023765 -3.0297415796 -0.0893078254
H 3.5742944864 -0.1012869274 0.1602147422
H 0.319129731 3.1088934973 -0.253836915
H -2.5644244257 1.3783773177 0.2888566842
H -4.2917603992 -0.7215124083 -0.1565905731
*
