      -----------------------------------------------------------      
     |                   =====================                   |     
     |                           x T B                           |     
     |                   =====================                   |     
     |                         S. Grimme                         |     
     |          Mulliken Center for Theoretical Chemistry        |     
     |                    University of Bonn                     |     
      -----------------------------------------------------------      

   * xtb version 6.7.1 (edcfbbe) compiled by 'albert@albert-system' on 2024-07-22

   xtb is free software: you can redistribute it and/or modify it under
   the terms of the GNU Lesser General Public License as published by
   the Free Software Foundation, either version 3 of the License, or
   (at your option) any later version.
   
   xtb is distributed in the hope that it will be useful,
   but WITHOUT ANY WARRANTY; without even the implied warranty of
   MERCHANTABILITY or FITNESS FOR A PARTICULAR PURPOSE.  See the
   GNU Lesser General Public License for more details.
   
   Cite this work as:
   * C. Bannwarth, E. Caldeweyher, S. Ehlert, A. Hansen, P. Pracht,
     J. Seibert, S. Spicher, S. Grimme, WIREs Comput. Mol. Sci., 2020, 11,
     e01493. DOI: 10.1002/wcms.1493
   
   for GFN2-xTB:
   * C. Bannwarth, S. Ehlert and S. Grimme., J. Chem. Theory Comput., 2019,
     15, 1652-1671. DOI: 10.1021/acs.jctc.8b01176
   for GFN1-xTB:
   * S. Grimme, C. Bannwarth, P. Shushkov, J. Chem. Theory Comput., 2017,
     13, 1989-2009. DOI: 10.1021/acs.jctc.7b00118
   for GFN0-xTB:
   * P. Pracht, E. Caldeweyher, S. Ehlert, S. Grimme, ChemRxiv, 2019, preprint.
     DOI: 10.26434/chemrxiv.8326202.v1
   for GFN-FF:
   * S. Spicher and S. Grimme, Angew. Chem. Int. Ed., 2020, 59, 15665-15673.
     DOI: 10.1002/anie.202004239
   
   for ALPB and GBSA implicit solvation:
   * S. Ehlert, M. Stahn, S. Spicher, S. Grimme, J. Chem. Theory Comput.,
     2021, 17, 4250-4261. DOI: 10.1021/acs.jctc.1c00471
   
   for ddCOSMO and CPCM-X implicit solvation:
   * M. Stahn, S. Ehlert, S. Grimme, J. Phys. Chem. A,
     2023, XX, XXXX-XXXX. DOI: 10.1021/acs.jpca.3c04382
   
   for DFT-D4:
   * E. Caldeweyher, C. Bannwarth and S. Grimme, J. Chem. Phys., 2017,
     147, 034112. DOI: 10.1063/1.4993215
   * E. Caldeweyher, S. Ehlert, A. Hansen, H. Neugebauer, S. Spicher,
     C. Bannwarth and S. Grimme, J. Chem. Phys., 2019, 150, 154122.
     DOI: 10.1063/1.5090222
   * E. Caldeweyher, J.-M. Mewes, S. Ehlert and S. Grimme, Phys. Chem. Chem. Phys.
     2020, 22, 8499-8512. DOI: 10.1039/D0CP00502A
   
   for sTDA-xTB:
   * S. Grimme and C. Bannwarth, J. Chem. Phys., 2016, 145, 054103.
     DOI: 10.1063/1.4959605
   
   in the mass-spec context:
   * V. Asgeirsson, C. Bauer and S. Grimme, Chem. Sci., 2017, 8, 4879.
     DOI: 10.1039/c7sc00601b
   * J. Koopman and S. Grimme, ACS Omega 2019, 4, 12, 15120-15133.
     DOI: 10.1021/acsomega.9b02011
   
   for metadynamics refer to:
   * S. Grimme, J. Chem. Theory Comput., 2019, 155, 2847-2862
     DOI: 10.1021/acs.jctc.9b00143
   
   for SPH calculations refer to:
   * S. Spicher and S. Grimme, J. Chem. Theory Comput., 2021, 17, 1701-1714
     DOI: 10.1021/acs.jctc.0c01306
   
   for ONIOM refer to:
   * C. Plett, A. Katbashev, S. Ehlert, S. Grimme, M. Bursch,
     Phys. Chem. Chem. Phys., 2023, 25, 17860-17868. DOI: 10.1039/D3CP02178E
   
   for DIPRO refer to:
   * J. Kohn, N. Gildemeister, S. Grimme, D. Fazzi, A. Hansen,
     J. Chem. Phys., 2023, just accepted.
   
   for PTB refer to:
   * S. Grimme, M. Mueller, A. Hansen, J. Chem. Phys., 2023, 158, 124111.
     DOI: 10.1063/5.0137838
   
   with help from (in alphabetical order)
   P. Atkinson, C. Bannwarth, F. Bohle, G. Brandenburg, E. Caldeweyher
   M. Checinski, S. Dohm, S. Ehlert, S. Ehrlich, I. Gerasimov, C. Hölzer
   A. Katbashev, J. Kohn, J. Koopman, C. Lavigne, S. Lehtola, F. März, M. Müller,
   F. Musil, H. Neugebauer, J. Pisarek, C. Plett, P. Pracht, F. Pultar,
   J. Seibert, P. Shushkov, S. Spicher, M. Stahn, M. Steiner, T. Strunk,
   J. Stückrath, T. Rose, and J. Unsleber
   
 * started run on 2025/04/07 at 02:42:52.378     
   ID    Z sym.   atoms
    1    6 C      1, 2, 4, 5
    2    8 O      3
    3    1 H      6-15

           -------------------------------------------------
          |                Calculation Setup                |
           -------------------------------------------------

          program call               : /srv/scratch/z5358697/.xtb/bin/xtb gas.coord --gfn2 --sp --chrg 0 --norestart --parallel 1
          hostname                   : k140
          coordinate file            : gas.coord
          omp threads                :                     1


           -------------------------------------------------
          |                 G F N 2 - x T B                 |
           -------------------------------------------------

        Reference                      10.1021/acs.jctc.8b01176
      * Hamiltonian:
        H0-scaling (s, p, d)           1.850000    2.230000    2.230000
        zeta-weighting                 0.500000
      * Dispersion:
        s8                             2.700000
        a1                             0.520000
        a2                             5.000000
        s9                             5.000000
      * Repulsion:
        kExp                           1.500000    1.000000
        rExp                           1.000000
      * Coulomb:
        alpha                          2.000000
        third order                    shell-resolved
        anisotropic                    true
        a3                             3.000000
        a5                             4.000000
        cn-shift                       1.200000
        cn-exp                         4.000000
        max-rad                        5.000000


          ...................................................
          :                      SETUP                      :
          :.................................................:
          :  # basis functions                  30          :
          :  # atomic orbitals                  30          :
          :  # shells                           20          :
          :  # electrons                        32          :
          :  max. iterations                   250          :
          :  Hamiltonian                  GFN2-xTB          :
          :  restarted?                      false          :
          :  GBSA solvation                  false          :
          :  PC potential                    false          :
          :  electronic temp.          300.0000000     K    :
          :  accuracy                    1.0000000          :
          :  -> integral cutoff          0.2500000E+02      :
          :  -> integral neglect         0.1000000E-07      :
          :  -> SCF convergence          0.1000000E-05 Eh   :
          :  -> wf. convergence          0.1000000E-03 e    :
          :  Broyden damping             0.4000000          :
          :  net charge                          0          :
          :  unpaired electrons                  0          :
          ...................................................

 iter      E             dE          RMSdq      gap      omega  full diag
   1    -17.8747832 -0.178748E+02  0.381E+00   11.60       0.0  T
   2    -17.9247419 -0.499587E-01  0.198E+00   11.06       1.0  T
   3    -17.9253990 -0.657039E-03  0.883E-01   11.18       1.0  T
   4    -17.9256410 -0.242028E-03  0.133E-01   11.24       1.0  T
   5    -17.9256891 -0.481240E-04  0.727E-02   11.26       1.0  T
   6    -17.9256902 -0.106272E-05  0.458E-03   11.26       5.6  T
   7    -17.9256902 -0.206887E-07  0.219E-03   11.26      11.8  T
   8    -17.9256902 -0.197975E-08  0.651E-04   11.26      39.6  T
   9    -17.9256902 -0.811216E-09  0.148E-04   11.26     174.3  T

   *** convergence criteria satisfied after 9 iterations ***

         #    Occupation            Energy/Eh            Energy/eV
      -------------------------------------------------------------
         1        2.0000           -0.6889846             -18.7482
       ...           ...                  ...                  ...
        10        2.0000           -0.4753195             -12.9341
        11        2.0000           -0.4649203             -12.6511
        12        2.0000           -0.4592382             -12.4965
        13        2.0000           -0.4534711             -12.3396
        14        2.0000           -0.4452534             -12.1160
        15        2.0000           -0.4411273             -12.0037
        16        2.0000           -0.3914581             -10.6521 (HOMO)
        17                          0.0225199               0.6128 (LUMO)
        18                          0.0977110               2.6589
        19                          0.1091510               2.9701
        20                          0.1334485               3.6313
        21                          0.1487951               4.0489
       ...                                ...                  ...
        30                          0.2914390               7.9305
      -------------------------------------------------------------
                  HL-Gap            0.4139780 Eh           11.2649 eV
             Fermi-level           -0.1844691 Eh           -5.0197 eV

 SCC (total)                   0 d,  0 h,  0 min,  0.008 sec
 SCC setup                      ...        0 min,  0.000 sec (  1.282%)
 Dispersion                     ...        0 min,  0.000 sec (  0.575%)
 classical contributions        ...        0 min,  0.000 sec (  0.140%)
 integral evaluation            ...        0 min,  0.001 sec (  7.920%)
 iterations                     ...        0 min,  0.006 sec ( 68.204%)
 molecular gradient             ...        0 min,  0.002 sec ( 20.630%)
 printout                       ...        0 min,  0.000 sec (  1.131%)

         :::::::::::::::::::::::::::::::::::::::::::::::::::::
         ::                     SUMMARY                     ::
         :::::::::::::::::::::::::::::::::::::::::::::::::::::
         :: total energy             -17.717244777525 Eh    ::
         :: gradient norm              0.007442203356 Eh/a0 ::
         :: HOMO-LUMO gap             11.264916003080 eV    ::
         ::.................................................::
         :: SCC energy               -17.925684636399 Eh    ::
         :: -> isotropic ES            0.020682226210 Eh    ::
         :: -> anisotropic ES          0.003605904468 Eh    ::
         :: -> anisotropic XC          0.005529786264 Eh    ::
         :: -> dispersion             -0.006621948562 Eh    ::
         :: repulsion energy           0.208439858874 Eh    ::
         :: add. restraining           0.000000000000 Eh    ::
         :: total charge              -0.000000000000 e     ::
         :::::::::::::::::::::::::::::::::::::::::::::::::::::

           -------------------------------------------------
          |                Property Printout                |
           -------------------------------------------------

    * Orbital Energies and Occupations

         #    Occupation            Energy/Eh            Energy/eV
      -------------------------------------------------------------
         1        2.0000           -0.6889846             -18.7482
       ...           ...                  ...                  ...
         4        2.0000           -0.5888254             -16.0228
         5        2.0000           -0.5775651             -15.7163
         6        2.0000           -0.5471894             -14.8898
         7        2.0000           -0.5443686             -14.8130
         8        2.0000           -0.5110200             -13.9056
         9        2.0000           -0.5054785             -13.7548
        10        2.0000           -0.4753195             -12.9341
        11        2.0000           -0.4649203             -12.6511
        12        2.0000           -0.4592382             -12.4965
        13        2.0000           -0.4534711             -12.3396
        14        2.0000           -0.4452534             -12.1160
        15        2.0000           -0.4411273             -12.0037
        16        2.0000           -0.3914581             -10.6521 (HOMO)
        17                          0.0225199               0.6128 (LUMO)
        18                          0.0977110               2.6589
        19                          0.1091510               2.9701
        20                          0.1334485               3.6313
        21                          0.1487951               4.0489
        22                          0.1532119               4.1691
        23                          0.1634864               4.4487
        24                          0.1740829               4.7370
        25                          0.1842634               5.0141
        26                          0.1894105               5.1541
        27                          0.2492831               6.7833
       ...                                ...                  ...
        30                          0.2914390               7.9305
      -------------------------------------------------------------
                  HL-Gap            0.4139780 Eh           11.2649 eV
             Fermi-level           -0.1844691 Eh           -5.0197 eV

     #   Z          covCN         q      C6AA      α(0)
     1   6 C        3.750    -0.114    22.747     6.802
     2   6 C        3.695     0.091    19.237     6.275
     3   8 O        1.700    -0.326    19.448     5.954
     4   6 C        3.696     0.092    19.222     6.272
     5   6 C        3.751    -0.111    22.684     6.792
     6   1 H        0.925     0.044     2.391     2.418
     7   1 H        0.925     0.044     2.390     2.418
     8   1 H        0.925     0.068     2.108     2.270
     9   1 H        0.923     0.015     2.807     2.620
    10   1 H        0.923     0.015     2.807     2.620
    11   1 H        0.923     0.014     2.822     2.627
    12   1 H        0.923     0.014     2.822     2.627
    13   1 H        0.925     0.043     2.411     2.428
    14   1 H        0.925     0.055     2.262     2.352
    15   1 H        0.925     0.055     2.262     2.352

 Mol. C6AA /au·bohr⁶  :       1477.820422
 Mol. C8AA /au·bohr⁸  :      29889.462062
 Mol. α(0) /au        :         56.827109


Wiberg/Mayer (AO) data.
largest (>0.10) Wiberg bond orders for each atom

 ---------------------------------------------------------------------------
     #   Z sym  total        # sym  WBO       # sym  WBO       # sym  WBO
 ---------------------------------------------------------------------------
     1   6 C    3.992 --     2 C    1.010     7 H    0.990     6 H    0.990
                             8 H    0.982
     2   6 C    3.956 --     1 C    1.010     3 O    0.981    10 H    0.971
                             9 H    0.971
     3   8 O    2.061 --     4 C    0.982     2 C    0.981
     4   6 C    3.958 --     5 C    1.016     3 O    0.982    12 H    0.969
                            11 H    0.969
     5   6 C    3.994 --     4 C    1.016    14 H    0.986    15 H    0.986
                            13 H    0.986
     6   1 H    0.998 --     1 C    0.990
     7   1 H    0.998 --     1 C    0.990
     8   1 H    0.995 --     1 C    0.982
     9   1 H    1.000 --     2 C    0.971
    10   1 H    1.000 --     2 C    0.971
    11   1 H    1.000 --     4 C    0.969
    12   1 H    1.000 --     4 C    0.969
    13   1 H    0.998 --     5 C    0.986
    14   1 H    0.997 --     5 C    0.986
    15   1 H    0.997 --     5 C    0.986
 ---------------------------------------------------------------------------

Topologies differ in total number of bonds
Writing topology from bond orders to xtbtopo.mol

molecular dipole:
                 x           y           z       tot (Debye)
 q only:       -0.005      -0.208       0.000
   full:       -0.009      -0.449       0.000       1.142
molecular quadrupole (traceless):
                xx          xy          yy          xz          yz          zz
 q only:        3.338       0.088      -1.288       0.002       0.002      -2.050
  q+dip:        1.043       0.090      -1.172       0.001       0.002       0.129
   full:        2.049       0.118      -1.165       0.002       0.001      -0.885


           -------------------------------------------------
          | TOTAL ENERGY              -17.717244777525 Eh   |
          | GRADIENT NORM               0.007442203356 Eh/α |
          | HOMO-LUMO GAP              11.264916003080 eV   |
           -------------------------------------------------

------------------------------------------------------------------------
 * finished run on 2025/04/07 at 02:42:52.413     
------------------------------------------------------------------------
 total:
 * wall-time:     0 d,  0 h,  0 min,  0.034 sec
 *  cpu-time:     0 d,  0 h,  0 min,  0.014 sec
 * ratio c/w:     0.420 speedup
 SCF:
 * wall-time:     0 d,  0 h,  0 min,  0.009 sec
 *  cpu-time:     0 d,  0 h,  0 min,  0.008 sec
 * ratio c/w:     0.880 speedup

