      -----------------------------------------------------------      
     |                   =====================                   |     
     |                           x T B                           |     
     |                   =====================                   |     
     |                         S. Grimme                         |     
     |          Mulliken Center for Theoretical Chemistry        |     
     |                    University of Bonn                     |     
      -----------------------------------------------------------      

   * xtb version 6.7.1 (edcfbbe) compiled by 'albert@albert-system' on 2024-07-22

   xtb is free software: you can redistribute it and/or modify it under
   the terms of the GNU Lesser General Public License as published by
   the Free Software Foundation, either version 3 of the License, or
   (at your option) any later version.
   
   xtb is distributed in the hope that it will be useful,
   but WITHOUT ANY WARRANTY; without even the implied warranty of
   MERCHANTABILITY or FITNESS FOR A PARTICULAR PURPOSE.  See the
   GNU Lesser General Public License for more details.
   
   Cite this work as:
   * C. Bannwarth, E. Caldeweyher, S. Ehlert, A. Hansen, P. Pracht,
     J. Seibert, S. Spicher, S. Grimme, WIREs Comput. Mol. Sci., 2020, 11,
     e01493. DOI: 10.1002/wcms.1493
   
   for GFN2-xTB:
   * C. Bannwarth, S. Ehlert and S. Grimme., J. Chem. Theory Comput., 2019,
     15, 1652-1671. DOI: 10.1021/acs.jctc.8b01176
   for GFN1-xTB:
   * S. Grimme, C. Bannwarth, P. Shushkov, J. Chem. Theory Comput., 2017,
     13, 1989-2009. DOI: 10.1021/acs.jctc.7b00118
   for GFN0-xTB:
   * P. Pracht, E. Caldeweyher, S. Ehlert, S. Grimme, ChemRxiv, 2019, preprint.
     DOI: 10.26434/chemrxiv.8326202.v1
   for GFN-FF:
   * S. Spicher and S. Grimme, Angew. Chem. Int. Ed., 2020, 59, 15665-15673.
     DOI: 10.1002/anie.202004239
   
   for ALPB and GBSA implicit solvation:
   * S. Ehlert, M. Stahn, S. Spicher, S. Grimme, J. Chem. Theory Comput.,
     2021, 17, 4250-4261. DOI: 10.1021/acs.jctc.1c00471
   
   for ddCOSMO and CPCM-X implicit solvation:
   * M. Stahn, S. Ehlert, S. Grimme, J. Phys. Chem. A,
     2023, XX, XXXX-XXXX. DOI: 10.1021/acs.jpca.3c04382
   
   for DFT-D4:
   * E. Caldeweyher, C. Bannwarth and S. Grimme, J. Chem. Phys., 2017,
     147, 034112. DOI: 10.1063/1.4993215
   * E. Caldeweyher, S. Ehlert, A. Hansen, H. Neugebauer, S. Spicher,
     C. Bannwarth and S. Grimme, J. Chem. Phys., 2019, 150, 154122.
     DOI: 10.1063/1.5090222
   * E. Caldeweyher, J.-M. Mewes, S. Ehlert and S. Grimme, Phys. Chem. Chem. Phys.
     2020, 22, 8499-8512. DOI: 10.1039/D0CP00502A
   
   for sTDA-xTB:
   * S. Grimme and C. Bannwarth, J. Chem. Phys., 2016, 145, 054103.
     DOI: 10.1063/1.4959605
   
   in the mass-spec context:
   * V. Asgeirsson, C. Bauer and S. Grimme, Chem. Sci., 2017, 8, 4879.
     DOI: 10.1039/c7sc00601b
   * J. Koopman and S. Grimme, ACS Omega 2019, 4, 12, 15120-15133.
     DOI: 10.1021/acsomega.9b02011
   
   for metadynamics refer to:
   * S. Grimme, J. Chem. Theory Comput., 2019, 155, 2847-2862
     DOI: 10.1021/acs.jctc.9b00143
   
   for SPH calculations refer to:
   * S. Spicher and S. Grimme, J. Chem. Theory Comput., 2021, 17, 1701-1714
     DOI: 10.1021/acs.jctc.0c01306
   
   for ONIOM refer to:
   * C. Plett, A. Katbashev, S. Ehlert, S. Grimme, M. Bursch,
     Phys. Chem. Chem. Phys., 2023, 25, 17860-17868. DOI: 10.1039/D3CP02178E
   
   for DIPRO refer to:
   * J. Kohn, N. Gildemeister, S. Grimme, D. Fazzi, A. Hansen,
     J. Chem. Phys., 2023, just accepted.
   
   for PTB refer to:
   * S. Grimme, M. Mueller, A. Hansen, J. Chem. Phys., 2023, 158, 124111.
     DOI: 10.1063/5.0137838
   
   with help from (in alphabetical order)
   P. Atkinson, C. Bannwarth, F. Bohle, G. Brandenburg, E. Caldeweyher
   M. Checinski, S. Dohm, S. Ehlert, S. Ehrlich, I. Gerasimov, C. Hölzer
   A. Katbashev, J. Kohn, J. Koopman, C. Lavigne, S. Lehtola, F. März, M. Müller,
   F. Musil, H. Neugebauer, J. Pisarek, C. Plett, P. Pracht, F. Pultar,
   J. Seibert, P. Shushkov, S. Spicher, M. Stahn, M. Steiner, T. Strunk,
   J. Stückrath, T. Rose, and J. Unsleber
   
 * started run on 2025/04/07 at 02:42:52.452     
   ID    Z sym.   atoms
    1    6 C      1, 2, 4, 5
    2    8 O      3
    3    1 H      6-15

           -------------------------------------------------
          |                Calculation Setup                |
           -------------------------------------------------

          program call               : /srv/scratch/z5358697/.xtb/bin/xtb solv.coord --gfn2 --sp --chrg 0 --norestart --parallel 1 --alpb water reference -I xtb_sp-xcontrol-inp
          hostname                   : k140
          coordinate file            : solv.coord
          omp threads                :                     1


           -------------------------------------------------
          |                 G F N 2 - x T B                 |
           -------------------------------------------------

        Reference                      10.1021/acs.jctc.8b01176
      * Hamiltonian:
        H0-scaling (s, p, d)           1.850000    2.230000    2.230000
        zeta-weighting                 0.500000
      * Dispersion:
        s8                             2.700000
        a1                             0.520000
        a2                             5.000000
        s9                             5.000000
      * Repulsion:
        kExp                           1.500000    1.000000
        rExp                           1.000000
      * Coulomb:
        alpha                          2.000000
        third order                    shell-resolved
        anisotropic                    true
        a3                             3.000000
        a5                             4.000000
        cn-shift                       1.200000
        cn-exp                         4.000000
        max-rad                        5.000000

      * Solvation model:               ALPB
        Solvent                        water
        Parameter file                 internal GFN2-xTB/ALPB
        Dielectric constant                8.0200E+01
        Reference state                gsolv=reference [X=1]
        Free energy shift                  2.8945E-03 Eh       1.8164E+00 kcal/mol
        Temperature                        2.9815E+02 K
        Density                            1.0000E+00 kg/L
        Solvent mass                       1.8000E+01 g/mol
        Interaction kernel             P16
        Born radius scaling (c1)           1.4744E+00
        Born radii integrator          GBOBC
        Born offset                        0.0000E+00 a0       0.0000E+00 AA
        H-bond correction              true
        Ion screening                  false
        Surface tension                    1.0000E-05 Eh       1.5569E+01 dyn/cm
        Grid points                               974 per atom

          ...................................................
          :                      SETUP                      :
          :.................................................:
          :  # basis functions                  30          :
          :  # atomic orbitals                  30          :
          :  # shells                           20          :
          :  # electrons                        32          :
          :  max. iterations                   250          :
          :  Hamiltonian                  GFN2-xTB          :
          :  restarted?                      false          :
          :  GBSA solvation                   true          :
          :  PC potential                    false          :
          :  electronic temp.          300.0000000     K    :
          :  accuracy                    1.0000000          :
          :  -> integral cutoff          0.2500000E+02      :
          :  -> integral neglect         0.1000000E-07      :
          :  -> SCF convergence          0.1000000E-05 Eh   :
          :  -> wf. convergence          0.1000000E-03 e    :
          :  Broyden damping             0.4000000          :
          :  net charge                          0          :
          :  unpaired electrons                  0          :
          ...................................................

 iter      E             dE          RMSdq      gap      omega  full diag
   1    -17.8878328 -0.178878E+02  0.389E+00   11.62       0.0  T
   2    -17.9254497 -0.376169E-01  0.200E+00   11.16       1.0  T
   3    -17.9263559 -0.906186E-03  0.747E-01   11.22       1.0  T
   4    -17.9266048 -0.248903E-03  0.142E-01   11.27       1.0  T
   5    -17.9266347 -0.299100E-04  0.791E-02   11.30       1.0  T
   6    -17.9266379 -0.325256E-05  0.105E-02   11.31       2.5  T
   7    -17.9266381 -0.195992E-06  0.439E-03   11.31       5.9  T
   8    -17.9266382 -0.308884E-07  0.170E-03   11.31      15.2  T
   9    -17.9266382 -0.157190E-07  0.254E-04   11.31     101.5  T
  10    -17.9266382 -0.237492E-09  0.148E-04   11.31     174.9  T

   *** convergence criteria satisfied after 10 iterations ***

         #    Occupation            Energy/Eh            Energy/eV
      -------------------------------------------------------------
         1        2.0000           -0.6991829             -19.0257
       ...           ...                  ...                  ...
        10        2.0000           -0.4740857             -12.9005
        11        2.0000           -0.4642924             -12.6340
        12        2.0000           -0.4601602             -12.5216
        13        2.0000           -0.4532365             -12.3332
        14        2.0000           -0.4489848             -12.2175
        15        2.0000           -0.4411153             -12.0034
        16        2.0000           -0.3984388             -10.8421 (HOMO)
        17                          0.0173274               0.4715 (LUMO)
        18                          0.0952348               2.5915
        19                          0.1056331               2.8744
        20                          0.1327201               3.6115
        21                          0.1456444               3.9632
       ...                                ...                  ...
        30                          0.2918118               7.9406
      -------------------------------------------------------------
                  HL-Gap            0.4157662 Eh           11.3136 eV
             Fermi-level           -0.1905557 Eh           -5.1853 eV

 SCC (total)                   0 d,  0 h,  0 min,  0.027 sec
 SCC setup                      ...        0 min,  0.001 sec (  2.459%)
 Dispersion                     ...        0 min,  0.000 sec (  0.201%)
 classical contributions        ...        0 min,  0.000 sec (  0.047%)
 integral evaluation            ...        0 min,  0.001 sec (  3.435%)
 iterations                     ...        0 min,  0.024 sec ( 85.953%)
 molecular gradient             ...        0 min,  0.002 sec (  7.512%)
 printout                       ...        0 min,  0.000 sec (  0.349%)

         :::::::::::::::::::::::::::::::::::::::::::::::::::::
         ::                     SUMMARY                     ::
         :::::::::::::::::::::::::::::::::::::::::::::::::::::
         :: total energy             -17.718192749123 Eh    ::
         :: total w/o Gsasa/hb       -17.719845336847 Eh    ::
         :: gradient norm              0.000262054860 Eh/a0 ::
         :: HOMO-LUMO gap             11.313574431856 eV    ::
         ::.................................................::
         :: SCC energy               -17.926632607997 Eh    ::
         :: -> isotropic ES            0.025165806064 Eh    ::
         :: -> anisotropic ES          0.003015127351 Eh    ::
         :: -> anisotropic XC          0.005921905378 Eh    ::
         :: -> dispersion             -0.006570169431 Eh    ::
         :: -> Gsolv                  -0.001542888592 Eh    ::
         ::    -> Gelec               -0.003195476315 Eh    ::
         ::    -> Gsasa               -0.000262933433 Eh    ::
         ::    -> Ghb                 -0.000979028004 Eh    ::
         ::    -> Gshift               0.002894549160 Eh    ::
         :: repulsion energy           0.208439858874 Eh    ::
         :: add. restraining           0.000000000000 Eh    ::
         :: total charge               0.000000000000 e     ::
         :::::::::::::::::::::::::::::::::::::::::::::::::::::

           -------------------------------------------------
          |                Property Printout                |
           -------------------------------------------------

    * Orbital Energies and Occupations

         #    Occupation            Energy/Eh            Energy/eV
      -------------------------------------------------------------
         1        2.0000           -0.6991829             -19.0257
       ...           ...                  ...                  ...
         4        2.0000           -0.5917777             -16.1031
         5        2.0000           -0.5778435             -15.7239
         6        2.0000           -0.5522107             -15.0264
         7        2.0000           -0.5481903             -14.9170
         8        2.0000           -0.5143560             -13.9963
         9        2.0000           -0.5064137             -13.7802
        10        2.0000           -0.4740857             -12.9005
        11        2.0000           -0.4642924             -12.6340
        12        2.0000           -0.4601602             -12.5216
        13        2.0000           -0.4532365             -12.3332
        14        2.0000           -0.4489848             -12.2175
        15        2.0000           -0.4411153             -12.0034
        16        2.0000           -0.3984388             -10.8421 (HOMO)
        17                          0.0173274               0.4715 (LUMO)
        18                          0.0952348               2.5915
        19                          0.1056331               2.8744
        20                          0.1327201               3.6115
        21                          0.1456444               3.9632
        22                          0.1519779               4.1355
        23                          0.1610822               4.3833
        24                          0.1741641               4.7392
        25                          0.1850336               5.0350
        26                          0.1903321               5.1792
        27                          0.2512082               6.8357
       ...                                ...                  ...
        30                          0.2918118               7.9406
      -------------------------------------------------------------
                  HL-Gap            0.4157662 Eh           11.3136 eV
             Fermi-level           -0.1905557 Eh           -5.1853 eV

     #   Z          covCN         q      C6AA      α(0)
     1   6 C        3.750    -0.129    23.040     6.845
     2   6 C        3.695     0.088    19.291     6.283
     3   8 O        1.700    -0.360    20.076     6.049
     4   6 C        3.696     0.088    19.278     6.281
     5   6 C        3.751    -0.126    22.980     6.836
     6   1 H        0.925     0.057     2.229     2.335
     7   1 H        0.925     0.057     2.230     2.335
     8   1 H        0.925     0.069     2.093     2.262
     9   1 H        0.923     0.019     2.745     2.591
    10   1 H        0.923     0.019     2.745     2.591
    11   1 H        0.923     0.018     2.758     2.597
    12   1 H        0.923     0.018     2.758     2.597
    13   1 H        0.925     0.060     2.199     2.319
    14   1 H        0.925     0.060     2.200     2.319
    15   1 H        0.925     0.060     2.199     2.319

 Mol. C6AA /au·bohr⁶  :       1466.042371
 Mol. C8AA /au·bohr⁸  :      29778.826741
 Mol. α(0) /au        :         56.561335


Wiberg/Mayer (AO) data.
largest (>0.10) Wiberg bond orders for each atom

 ---------------------------------------------------------------------------
     #   Z sym  total        # sym  WBO       # sym  WBO       # sym  WBO
 ---------------------------------------------------------------------------
     1   6 C    3.989 --     2 C    1.010     7 H    0.988     6 H    0.988
                             8 H    0.982
     2   6 C    3.949 --     1 C    1.010     3 O    0.973    10 H    0.971
                             9 H    0.971
     3   8 O    2.044 --     4 C    0.974     2 C    0.973
     4   6 C    3.950 --     5 C    1.016     3 O    0.974    12 H    0.969
                            11 H    0.969
     5   6 C    3.991 --     4 C    1.016    14 H    0.985    15 H    0.985
                            13 H    0.984
     6   1 H    0.997 --     1 C    0.988
     7   1 H    0.997 --     1 C    0.988
     8   1 H    0.995 --     1 C    0.982
     9   1 H    1.000 --     2 C    0.971
    10   1 H    1.000 --     2 C    0.971
    11   1 H    1.000 --     4 C    0.969
    12   1 H    1.000 --     4 C    0.969
    13   1 H    0.996 --     5 C    0.984
    14   1 H    0.996 --     5 C    0.985
    15   1 H    0.996 --     5 C    0.985
 ---------------------------------------------------------------------------

Topologies differ in total number of bonds
Writing topology from bond orders to xtbtopo.mol

molecular dipole:
                 x           y           z       tot (Debye)
 q only:       -0.005      -0.244       0.000
   full:       -0.009      -0.469       0.000       1.192
molecular quadrupole (traceless):
                xx          xy          yy          xz          yz          zz
 q only:        4.374       0.135      -1.835       0.002       0.001      -2.539
  q+dip:        1.665       0.134      -1.525       0.002       0.001      -0.139
   full:        2.696       0.159      -1.518       0.002       0.001      -1.177


           -------------------------------------------------
          | TOTAL ENERGY              -17.718192749123 Eh   |
          | GRADIENT NORM               0.000262054860 Eh/α |
          | HOMO-LUMO GAP              11.313574431856 eV   |
           -------------------------------------------------

------------------------------------------------------------------------
 * finished run on 2025/04/07 at 02:42:52.522     
------------------------------------------------------------------------
 total:
 * wall-time:     0 d,  0 h,  0 min,  0.070 sec
 *  cpu-time:     0 d,  0 h,  0 min,  0.014 sec
 * ratio c/w:     0.197 speedup
 SCF:
 * wall-time:     0 d,  0 h,  0 min,  0.028 sec
 *  cpu-time:     0 d,  0 h,  0 min,  0.007 sec
 * ratio c/w:     0.268 speedup

