! wb97x-v def2-tzvp def2/J RIJCOSX DEFGRID2 scfconv7 GCP(DFT/TZ) printgap
%output
    printlevel normal
end
* xyz 0 1
C 1.5814457164509326 1.3008581544540803 -6.8422337760015e-05
C 0.19614000428750572 1.3604651832129382 -2.7072691746591246e-05
C -0.5232295568052967 0.16362608750722404 1.0764843622549565e-05
C 0.1838349417869561 -1.0443196873412708 -1.7554760630704057e-05
N 1.515443577458584 -1.114017133952356 -6.5001301657001e-05
C 2.189813287241103 0.050779604941066085 -9.813615892888738e-05
C -1.989874400858071 0.19277576629305573 0.0001504084759589905
O -2.7015103567313665 -0.8034614440439738 -1.0346088635073121e-05
H 2.1852146011855966 2.201394783914616 -8.746241875655777e-05
H -0.3284174154313929 2.3120603263741795 -1.4408663796931584e-05
H -0.359400002023937 -1.986340534759119 4.744331958594218e-06
H 3.2745616025349245 -0.02537148598690417 -0.0001033372114028901
H -2.437520966898277 1.2061572905706204 -9.473815954501143e-05
*
