! wb97x-v def2-tzvp def2/J RIJCOSX DEFGRID2 scfconv7 GCP(DFT/TZ) printgap
%output
    printlevel normal
end
%cpcm
    smd true
    smdsolvent "water"
end
* xyz 0 1
C -2.464128555105366 1.1407709424310484 0.4179250870818131
C -1.7254656986015755 -0.09756876286404215 -0.01009128595318008
C -2.389015456164401 -1.1969195129303705 -0.3968095843870071
C -0.24435233012289473 -0.04671617993781613 -0.003449702180563667
C 0.5213920459987301 -1.2061936376064972 0.1999896290493783
C 1.9098979913326037 -1.1586663970692261 0.18979419137616402
C 2.5715125015626215 0.05113002621740292 -0.016457536610663768
C 1.8271260995585064 1.2123810790417038 -0.20302733892566488
C 0.43586111388669113 1.1664287290839543 -0.1887737199482248
H -2.3107271165785805 1.9609833050686414 -0.2918065652069676
H -3.536717670173614 0.9466566002771825 0.47832440999633724
H -2.1110689617371743 1.4940084572432848 1.3926946025630382
H -1.8778515183209084 -2.084768426525121 -0.7553701544090523
H -3.4746565192167647 -1.222569385552276 -0.383880889934714
H 0.022256112336082844 -2.1507225556679535 0.3908591494206409
H 2.478817445698803 -2.0681554788845764 0.35663570011812273
H 3.656194032599328 0.08829828205358835 -0.020859728602931723
H 2.3300633374828226 2.161796316472171 -0.3594143509101828
H -0.12260474665843872 2.083755148294967 -0.3404533165457248
*
