! wb97x-v def2-tzvp def2/J RIJCOSX DEFGRID2 scfconv7 GCP(DFT/TZ) printgap
%output
    printlevel normal
end
* xyz 0 1
C -2.431101164668935 -1.0585816839293374 -0.7204273362790695
C -1.7299743493109716 0.019527819744953576 0.05916300988209787
C -2.424977951804358 0.9111301335699737 0.7810176370293543
C -0.24834914861583385 0.042895421462351466 0.014294892890839087
C 0.48408825988880305 -1.1322373498031308 -0.2136483819207377
C 1.875998307659315 -1.1155991766225528 -0.2375256971876515
C 2.5688602948673283 0.0772435372623034 -0.05117365946642732
C 1.8545602187897308 1.2569449054408692 0.1553210541255705
C 0.46557357305662866 1.2404752116427693 0.18462757159625567
H -2.0748814627569647 -1.094324529442126 -1.7551232579233274
H -2.246775647830266 -2.047704374935809 -0.28703434150850704
H -3.5095291939886306 -0.8915350619355914 -0.7237249737539128
H -1.9375389848706832 1.6657674917427967 1.3902003232103155
H -3.5106405906425406 0.8899967483922595 0.7923294620308482
H -0.033473891207925544 -2.0743536914652236 -0.35876499435072756
H 2.419853237877162 -2.0403553579299105 -0.40479326812885874
H 3.6538994786476597 0.09121216102041269 -0.07696127064958948
H 2.382602905692309 2.197266889072457 0.28164842551568864
H -0.0751807189350574 2.1718651081617177 0.3182480742141653
*
