! pbe def2-sv(p) def2/J RI DEFGRID1 loosescf d4 GCP(DFT/SV(P)) printgap
%output
    printlevel normal
end
* xyz 0 1
C -1.760958242 -1.4536275164 0.1564606655
C -1.6406515661 -0.0098896286 -0.3218772596
C -2.9471509 0.748856672 -0.0868518002
C -0.5240690061 0.7214619967 0.4085858759
Br 1.2565748473 0.0021888733 -0.0356466084
H -1.9995148155 -1.4832673916 1.2177025332
H -2.5488612355 -1.9654881751 -0.3889416099
H -0.8299116077 -1.9931209069 -0.0044055744
H -1.4174592057 -0.0080153975 -1.3944819153
H -2.8772018402 1.767892914 -0.4592235482
H -3.1808260064 0.7817405605 0.9747416529
H -3.7611714407 0.2488206007 -0.6035664942
H -0.6186264764 0.6231399308 1.4889738972
H -0.4827669857 1.7737293295 0.1323546706
*
