15
 xtb: 6.7.1 (edcfbbe)
C            2.08199681988571        0.37466353870369       -0.47887310151115
C            1.25129683443396       -0.53649719381137        0.40806920019444
O           -0.07227798948869       -0.03996396490989        0.66773117970316
C           -0.92970855920547       -0.08168454284073       -0.48344804537206
C           -2.33205036600076        0.27108322472615       -0.04175736218117
H            3.10950187841523       -0.00164120213641       -0.52017888972404
H            1.70015177256032        0.41396803505702       -1.50277292668023
H            2.10717377476528        1.39102906646290       -0.07243046184384
H            1.71905469197351       -0.62946533096569        1.39342460016425
H            1.18103280730350       -1.54349590543792       -0.03128643021422
H           -0.58020269813256        0.62826260740089       -1.24613390475002
H           -0.89929380105601       -1.09141650471190       -0.92189073036104
H           -2.69922815510979       -0.44218169901041        0.70253654855493
H           -2.36276660315757        1.27584862121808        0.39098102801321
H           -3.00754599360133        0.24924849622081       -0.90224058285752
