 Entering Gaussian System
 *********************************************
 Gaussian 98:
 frequency output generated by the xtb code
 *********************************************
                         Standard orientation:
 --------------------------------------------------------------------
  Center     Atomic     Atomic              Coordinates (Angstroms)
  Number     Number      Type              X           Y           Z
 --------------------------------------------------------------------
    1          6             0        1.626282   -0.847117    0.372855
    2          6             0        1.315396    0.591382   -0.022506
    3          6             0        0.009703    0.727175   -0.807614
    4          6             0       -1.249707    0.531798    0.036526
    5          8             0       -1.458757   -0.842817    0.301207
    6          1             0        1.749439   -1.463872   -0.514550
    7          1             0        2.543361   -0.891590    0.955707
    8          1             0        0.814600   -1.264203    0.961530
    9          1             0        1.258906    1.212872    0.874236
   10          1             0        2.131124    0.974583   -0.639866
   11          1             0       -0.039302    1.726569   -1.243375
   12          1             0       -0.006982   -0.003193   -1.618119
   13          1             0       -1.150814    1.088090    0.979121
   14          1             0       -2.110508    0.934569   -0.515386
   15          1             0       -2.282455   -0.952035    0.793578
 --------------------------------------------------------------------
     1 basis functions        1 primitive gaussians
     1 alpha electrons        1 beta electrons
 
 Harmonic frequencies (cm**-1), IR intensities (km*mol⁻¹),
 Raman scattering activities (A**4/amu), Raman depolarization ratios,
 reduced masses (AMU), force constants (mDyne/A) and normal coordinates:
                      1                      2                      3
                        a                      a                      a 
 Frequencies --    62.5727               137.5477               209.2362
 Red. masses --     7.6612                 9.5352                 3.4447
 Frc consts  --     0.0000                 0.0000                 0.0000
 IR Inten    --     4.3086                 5.7621                 1.2917
 Raman Activ --     0.0000                 0.0000                 0.0000
 Depolar     --     0.0000                 0.0000                 0.0000
 Atom AN      X      Y      Z        X      Y      Z        X      Y      Z
   1   6    -0.12   0.13   0.28    -0.44  -0.10   0.07    -0.29   0.00   0.04
   2   6     0.14   0.03  -0.29    -0.05  -0.04  -0.02    -0.02   0.02  -0.13
   3   6    -0.05   0.03   0.03    -0.01   0.27  -0.03    -0.02   0.05  -0.10
   4   6     0.15  -0.04   0.32    -0.03  -0.04  -0.14     0.14  -0.01   0.14
   5   8    -0.14  -0.15  -0.39     0.56  -0.07   0.14     0.21  -0.05   0.01
   6   1    -0.20  -0.10   0.16    -0.35  -0.09   0.03     0.38   0.06   0.03
   7   1     0.03   0.04  -0.03    -0.03  -0.11  -0.13    -0.36   0.02   0.44
   8   1     0.01   0.19   0.24    -0.07   0.10   0.18    -0.33  -0.09  -0.40
   9   1     0.16   0.13  -0.16     0.04   0.01  -0.02    -0.00   0.03  -0.06
  10   1     0.02  -0.13  -0.20     0.01  -0.09  -0.02     0.02  -0.04  -0.03
  11   1    -0.04   0.01   0.01     0.00   0.13   0.10    -0.02   0.02  -0.02
  12   1    -0.07   0.01   0.01     0.01   0.16  -0.09    -0.03   0.01  -0.03
  13   1     0.17  -0.16   0.17    -0.10   0.06  -0.07     0.11  -0.04   0.05
  14   1     0.03   0.13   0.23    -0.03  -0.14  -0.09     0.01   0.02   0.11
  15   1    -0.01  -0.05  -0.05     0.11  -0.09  -0.04     0.07  -0.03   0.03
                      4                      5                      6
                        a                      a                      a 
 Frequencies --   281.6523               330.0037               341.8257
 Red. masses --     2.6459                 6.1864                10.0150
 Frc consts  --     0.0000                 0.0000                 0.0000
 IR Inten    --   199.1515                11.9933                17.4607
 Raman Activ --     0.0000                 0.0000                 0.0000
 Depolar     --     0.0000                 0.0000                 0.0000
 Atom AN      X      Y      Z        X      Y      Z        X      Y      Z
   1   6     0.05   0.02  -0.02     0.30  -0.11   0.18    -0.21   0.12  -0.14
   2   6     0.14   0.01  -0.12     0.12  -0.23  -0.22     0.32   0.24  -0.01
   3   6     0.02   0.05   0.08    -0.11   0.28   0.16     0.26   0.08   0.07
   4   6    -0.04  -0.05   0.01    -0.28   0.00  -0.13     0.11  -0.28  -0.15
   5   8    -0.04  -0.02   0.27    -0.09  -0.01  -0.02    -0.44  -0.22   0.21
   6   1     0.06  -0.01   0.01     0.25  -0.09   0.11    -0.12   0.06  -0.06
   7   1    -0.02   0.00   0.05     0.02   0.11   0.16    -0.09  -0.12  -0.01
   8   1    -0.03   0.02  -0.05     0.06  -0.06  -0.01    -0.13   0.11  -0.09
   9   1     0.10   0.03  -0.05     0.18   0.00  -0.10     0.13   0.08  -0.01
  10   1     0.02  -0.03  -0.09    -0.02  -0.15  -0.19     0.09   0.02  -0.03
  11   1    -0.01   0.03   0.07     0.01   0.18   0.26    -0.01   0.06   0.10
  12   1     0.00   0.05  -0.01    -0.07   0.25  -0.11     0.16   0.10  -0.05
  13   1    -0.07   0.02  -0.00    -0.20   0.05  -0.05    -0.03  -0.03  -0.07
  14   1     0.02  -0.04  -0.06    -0.06  -0.08  -0.14     0.08  -0.09  -0.12
  15   1    -0.49  -0.07  -0.76     0.10   0.00   0.20    -0.01   0.12   0.26
                      7                      8                      9
                        a                      a                      a 
 Frequencies --   467.0178               811.4537               845.1690
 Red. masses --     6.7370                 3.2243                 7.9877
 Frc consts  --     0.0000                 0.0000                 0.0000
 IR Inten    --     8.7952                11.1676                 5.7478
 Raman Activ --     0.0000                 0.0000                 0.0000
 Depolar     --     0.0000                 0.0000                 0.0000
 Atom AN      X      Y      Z        X      Y      Z        X      Y      Z
   1   6     0.09  -0.03   0.11     0.09  -0.04  -0.04    -0.08   0.23  -0.11
   2   6    -0.27  -0.12   0.01     0.29   0.00  -0.20    -0.16  -0.13  -0.13
   3   6     0.02   0.23  -0.39     0.00   0.03  -0.10     0.02  -0.44   0.34
   4   6     0.31  -0.14  -0.04    -0.17   0.07   0.12     0.22  -0.15   0.02
   5   8    -0.17  -0.08   0.18    -0.02  -0.04   0.00     0.08   0.27  -0.12
   6   1     0.05  -0.04   0.06    -0.05  -0.30   0.19    -0.02  -0.02   0.03
   7   1     0.06   0.13  -0.01    -0.07  -0.07   0.13    -0.05   0.10   0.01
   8   1     0.10  -0.06   0.10    -0.14   0.36   0.04    -0.05   0.14  -0.01
   9   1    -0.24  -0.10   0.04    -0.27  -0.32   0.15    -0.15  -0.07  -0.02
  10   1     0.00   0.06   0.16     0.13   0.40   0.27    -0.11   0.11  -0.03
  11   1    -0.00   0.18   0.16    -0.01   0.00  -0.03    -0.01   0.03   0.43
  12   1     0.02   0.27  -0.29    -0.11   0.00  -0.02    -0.06   0.15  -0.14
  13   1     0.28  -0.08  -0.00    -0.11   0.02   0.04    -0.05   0.07  -0.04
  14   1     0.03   0.05   0.15    -0.04  -0.02  -0.00     0.17  -0.02  -0.18
  15   1    -0.10   0.12  -0.02     0.02  -0.10   0.02     0.03   0.08  -0.01
                     10                     11                     12
                        a                      a                      a 
 Frequencies --   883.3987               968.8720               983.5443
 Red. masses --     5.5086                 4.4609                 6.9179
 Frc consts  --     0.0000                 0.0000                 0.0000
 IR Inten    --    11.9211                 1.5761                 1.7697
 Raman Activ --     0.0000                 0.0000                 0.0000
 Depolar     --     0.0000                 0.0000                 0.0000
 Atom AN      X      Y      Z        X      Y      Z        X      Y      Z
   1   6     0.13   0.00   0.11    -0.03   0.13   0.13    -0.19   0.30  -0.19
   2   6     0.23   0.08   0.15     0.06  -0.10  -0.07    -0.03  -0.25   0.02
   3   6    -0.13  -0.30  -0.17     0.18  -0.08  -0.21     0.33  -0.09   0.03
   4   6    -0.32  -0.05  -0.10    -0.01   0.22   0.30    -0.30   0.21  -0.07
   5   8     0.08   0.18   0.01    -0.08  -0.16  -0.01    -0.02  -0.15   0.10
   6   1    -0.12   0.16  -0.11    -0.05   0.30  -0.17     0.07  -0.03   0.04
   7   1     0.01  -0.35   0.03     0.06  -0.11  -0.08    -0.03   0.37  -0.05
   8   1    -0.09   0.05  -0.10     0.03  -0.17  -0.06     0.04   0.05   0.05
   9   1     0.01   0.14  -0.05    -0.27   0.16  -0.16     0.07  -0.12   0.04
  10   1     0.01   0.02  -0.03     0.18  -0.11   0.15     0.02  -0.11   0.01
  11   1    -0.02   0.06   0.26     0.18   0.04   0.07     0.29   0.01   0.06
  12   1     0.05   0.17  -0.27    -0.29   0.07  -0.13     0.19   0.03  -0.04
  13   1     0.26  -0.05  -0.03    -0.31   0.12   0.06     0.14  -0.06   0.03
  14   1    -0.19   0.14   0.24     0.09  -0.10  -0.19    -0.13   0.17   0.17
  15   1     0.03  -0.14  -0.01     0.01  -0.16   0.02     0.02  -0.25   0.02
                     13                     14                     15
                        a                      a                      a 
 Frequencies --  1039.9054              1105.4585              1131.7763
 Red. masses --     7.8217                 6.3728                 8.1088
 Frc consts  --     0.0000                 0.0000                 0.0000
 IR Inten    --    98.1635                 4.1214                68.7254
 Raman Activ --     0.0000                 0.0000                 0.0000
 Depolar     --     0.0000                 0.0000                 0.0000
 Atom AN      X      Y      Z        X      Y      Z        X      Y      Z
   1   6     0.20   0.11   0.02     0.08  -0.34  -0.01     0.20   0.21  -0.04
   2   6    -0.17  -0.13   0.05    -0.29   0.35  -0.06    -0.24  -0.29   0.10
   3   6    -0.10   0.02   0.14     0.24  -0.10  -0.04     0.17   0.20  -0.20
   4   6     0.18   0.40  -0.23     0.03   0.22   0.16    -0.05  -0.35   0.25
   5   8    -0.00  -0.42   0.07    -0.09  -0.08   0.01    -0.04   0.28  -0.04
   6   1    -0.13   0.03  -0.02     0.02  -0.20   0.08    -0.12   0.03  -0.02
   7   1    -0.02  -0.30   0.09    -0.01  -0.06   0.05    -0.03  -0.22   0.09
   8   1    -0.15   0.25  -0.11    -0.00  -0.01   0.03    -0.13   0.28  -0.10
   9   1     0.01   0.01  -0.02    -0.00   0.16  -0.06     0.10  -0.04   0.01
  10   1    -0.24   0.09  -0.17    -0.21   0.13  -0.17    -0.17  -0.09  -0.13
  11   1     0.26   0.01   0.01    -0.04   0.02   0.09     0.16   0.00  -0.16
  12   1    -0.16  -0.01   0.05     0.32   0.07  -0.09     0.18  -0.05   0.03
  13   1     0.08  -0.01  -0.01    -0.02   0.19  -0.04    -0.15  -0.00   0.04
  14   1     0.01   0.07   0.01     0.08   0.01  -0.10     0.00  -0.14  -0.02
  15   1    -0.04   0.16   0.01     0.04  -0.41   0.02     0.02  -0.12   0.00
                     16                     17                     18
                        a                      a                      a 
 Frequencies --  1144.4506              1194.0024              1225.1234
 Red. masses --     6.6042                 4.1061                 3.7009
 Frc consts  --     0.0000                 0.0000                 0.0000
 IR Inten    --     7.5887                69.5033                31.2844
 Raman Activ --     0.0000                 0.0000                 0.0000
 Depolar     --     0.0000                 0.0000                 0.0000
 Atom AN      X      Y      Z        X      Y      Z        X      Y      Z
   1   6     0.02  -0.14   0.14     0.01   0.13   0.15     0.03  -0.08  -0.20
   2   6    -0.16   0.09  -0.36     0.02  -0.19  -0.16     0.01   0.12   0.29
   3   6     0.30   0.12   0.27    -0.12   0.16   0.17    -0.05   0.00  -0.09
   4   6    -0.20  -0.20  -0.15     0.18  -0.01  -0.21     0.08  -0.13  -0.16
   5   8     0.07   0.12   0.07    -0.12   0.07   0.08    -0.03   0.12   0.11
   6   1    -0.03   0.08  -0.05    -0.05   0.20  -0.09     0.04  -0.21   0.10
   7   1     0.03  -0.13  -0.02     0.04  -0.10  -0.04    -0.05   0.11   0.06
   8   1     0.01  -0.12  -0.03    -0.02  -0.06  -0.06    -0.00   0.14   0.05
   9   1    -0.35   0.12  -0.17    -0.03  -0.18   0.05     0.03   0.22  -0.06
  10   1    -0.02   0.15   0.02     0.05   0.02   0.07     0.01  -0.13  -0.02
  11   1     0.21  -0.02  -0.05    -0.28  -0.03  -0.07     0.17   0.02  -0.00
  12   1     0.03  -0.05   0.14     0.00  -0.06   0.13    -0.49  -0.00  -0.01
  13   1    -0.01  -0.34   0.14     0.20   0.07  -0.11    -0.09  -0.28   0.12
  14   1    -0.01   0.21   0.09     0.15   0.17  -0.09     0.20   0.26  -0.11
  15   1     0.00   0.10   0.01     0.07  -0.62   0.03     0.04  -0.31   0.03
                     19                     20                     21
                        a                      a                      a 
 Frequencies --  1266.2942              1271.4404              1339.7757
 Red. masses --     2.3986                 2.3849                 3.8701
 Frc consts  --     0.0000                 0.0000                 0.0000
 IR Inten    --    20.4768                 1.6714                10.7592
 Raman Activ --     0.0000                 0.0000                 0.0000
 Depolar     --     0.0000                 0.0000                 0.0000
 Atom AN      X      Y      Z        X      Y      Z        X      Y      Z
   1   6    -0.12  -0.08   0.07    -0.13   0.02   0.19     0.06   0.04   0.01
   2   6     0.11   0.09  -0.02     0.08   0.05  -0.04    -0.15   0.24  -0.18
   3   6    -0.02   0.05   0.05    -0.01  -0.08  -0.21    -0.34  -0.05   0.04
   4   6     0.07  -0.19   0.01    -0.02   0.02   0.04    -0.05  -0.10   0.10
   5   8    -0.09   0.10  -0.05     0.04   0.01   0.05     0.03  -0.03  -0.00
   6   1     0.05   0.04  -0.02     0.02   0.16  -0.06    -0.01  -0.07   0.05
   7   1     0.02   0.08  -0.05     0.04  -0.00  -0.07    -0.00  -0.15   0.02
   8   1     0.05  -0.14   0.04     0.05  -0.21   0.01     0.03  -0.05  -0.02
   9   1     0.04  -0.04   0.04     0.32  -0.34   0.25     0.16  -0.15   0.12
  10   1    -0.18   0.27  -0.13    -0.28   0.32  -0.21     0.31  -0.24   0.23
  11   1     0.52   0.02  -0.03     0.06   0.01  -0.00     0.51   0.01   0.00
  12   1    -0.31  -0.03   0.05    -0.01   0.05  -0.12     0.22   0.02  -0.02
  13   1     0.22   0.28  -0.20    -0.24  -0.27   0.19     0.10   0.09  -0.06
  14   1    -0.20  -0.31   0.14     0.18   0.21  -0.14     0.22   0.18  -0.18
  15   1     0.01  -0.17  -0.01     0.01   0.02   0.01     0.00   0.03   0.00
                     22                     23                     24
                        a                      a                      a 
 Frequencies --  1353.4035              1370.2972              1413.7121
 Red. masses --     5.0597                 4.2411                 3.2106
 Frc consts  --     0.0000                 0.0000                 0.0000
 IR Inten    --     3.4042                14.0431                 1.9331
 Raman Activ --     0.0000                 0.0000                 0.0000
 Depolar     --     0.0000                 0.0000                 0.0000
 Atom AN      X      Y      Z        X      Y      Z        X      Y      Z
   1   6     0.10   0.05   0.05    -0.00   0.04  -0.00     0.12  -0.39   0.13
   2   6    -0.33   0.25  -0.14     0.02   0.05  -0.06    -0.08   0.06  -0.06
   3   6     0.39  -0.09   0.01    -0.22  -0.09   0.04    -0.03  -0.04   0.02
   4   6    -0.04   0.02  -0.07     0.35   0.17  -0.19     0.02   0.01  -0.01
   5   8    -0.01   0.03  -0.01    -0.09   0.15   0.03    -0.00   0.01  -0.00
   6   1    -0.06  -0.04   0.03     0.01  -0.04   0.03    -0.13   0.37  -0.29
   7   1    -0.00  -0.16   0.04     0.01  -0.05  -0.01     0.07   0.49  -0.04
   8   1     0.00  -0.05  -0.05     0.02  -0.04  -0.01    -0.29   0.42  -0.08
   9   1     0.31  -0.27   0.22    -0.03  -0.03   0.01     0.13  -0.03   0.03
  10   1     0.15  -0.23   0.09     0.10  -0.08   0.06     0.09  -0.02   0.10
  11   1    -0.20   0.01   0.10     0.15   0.01   0.07     0.06  -0.02  -0.02
  12   1    -0.42  -0.02   0.01     0.25  -0.01  -0.01     0.01   0.04  -0.04
  13   1     0.04  -0.03  -0.00    -0.33  -0.34   0.23    -0.01  -0.03   0.02
  14   1    -0.17  -0.15   0.13    -0.28  -0.38   0.22    -0.01  -0.03   0.00
  15   1    -0.00   0.01  -0.01     0.02  -0.22   0.01     0.00  -0.00   0.00
                     25                     26                     27
                        a                      a                      a 
 Frequencies --  1458.0245              1475.6486              1492.5020
 Red. masses --     1.9534                 1.8208                 1.8837
 Frc consts  --     0.0000                 0.0000                 0.0000
 IR Inten    --     0.5390                 1.8829                 1.2826
 Raman Activ --     0.0000                 0.0000                 0.0000
 Depolar     --     0.0000                 0.0000                 0.0000
 Atom AN      X      Y      Z        X      Y      Z        X      Y      Z
   1   6    -0.02  -0.04   0.02     0.00   0.02   0.00     0.01   0.05  -0.00
   2   6    -0.01  -0.02  -0.02    -0.04  -0.10  -0.00    -0.15  -0.20  -0.06
   3   6    -0.02   0.06  -0.28    -0.01   0.01  -0.02    -0.00  -0.03   0.03
   4   6    -0.00  -0.02  -0.01    -0.15   0.16   0.08     0.08  -0.05  -0.05
   5   8     0.01  -0.02   0.00    -0.01   0.06  -0.00     0.00  -0.02   0.00
   6   1     0.07   0.04  -0.02    -0.03  -0.05   0.03    -0.10  -0.08   0.04
   7   1     0.03   0.00  -0.04     0.01   0.01  -0.02    -0.02   0.01   0.02
   8   1    -0.02   0.06   0.02    -0.01  -0.05  -0.05     0.01  -0.11  -0.06
   9   1     0.05   0.03  -0.02     0.18   0.15  -0.09     0.48   0.32  -0.20
  10   1     0.01   0.06   0.04     0.03   0.20   0.16     0.11   0.43   0.41
  11   1     0.02   0.28   0.60    -0.02   0.02   0.04    -0.01  -0.03  -0.06
  12   1     0.05  -0.50   0.44    -0.00  -0.04   0.03    -0.01   0.06  -0.05
  13   1    -0.05   0.04  -0.02     0.48  -0.37   0.16    -0.22   0.13  -0.06
  14   1     0.01   0.08   0.03     0.09  -0.43  -0.44    -0.05   0.16   0.19
  15   1    -0.00   0.02   0.00     0.00  -0.01  -0.00    -0.00  -0.00  -0.00
                     28                     29                     30
                        a                      a                      a 
 Frequencies --  1494.8891              1504.7786              2853.4176
 Red. masses --     1.5151                 1.6259                 1.9777
 Frc consts  --     0.0000                 0.0000                 0.0000
 IR Inten    --     0.7986                 1.9602               127.8695
 Raman Activ --     0.0000                 0.0000                 0.0000
 Depolar     --     0.0000                 0.0000                 0.0000
 Atom AN      X      Y      Z        X      Y      Z        X      Y      Z
   1   6    -0.09   0.05   0.18     0.18   0.07   0.07    -0.00   0.00   0.00
   2   6    -0.02   0.01   0.05     0.09   0.03   0.04    -0.00   0.00   0.01
   3   6     0.01  -0.00   0.01    -0.02   0.01  -0.04    -0.00  -0.00  -0.00
   4   6     0.00  -0.01   0.00    -0.00  -0.01   0.00    -0.17  -0.02  -0.24
   5   8     0.00  -0.00  -0.00     0.00  -0.00   0.00    -0.00   0.00  -0.01
   6   1     0.33  -0.22   0.21    -0.60  -0.25   0.09    -0.00  -0.00  -0.00
   7   1     0.38  -0.06  -0.59    -0.01   0.33   0.06    -0.00  -0.00   0.00
   8   1    -0.33   0.09  -0.37    -0.13  -0.37  -0.46     0.00  -0.00  -0.00
   9   1    -0.01   0.03  -0.01    -0.11  -0.04   0.03     0.00  -0.01  -0.01
  10   1     0.00  -0.03   0.00    -0.04  -0.05  -0.09     0.01   0.01  -0.01
  11   1    -0.01  -0.02  -0.03     0.02   0.03   0.06    -0.00   0.02  -0.01
  12   1    -0.02   0.03  -0.02     0.01  -0.05   0.04     0.00  -0.02  -0.02
  13   1    -0.01   0.02  -0.01    -0.01   0.02  -0.01     0.04   0.33   0.54
  14   1     0.00   0.02   0.01     0.01   0.03   0.00     0.56  -0.27   0.34
  15   1    -0.00   0.01  -0.00    -0.00   0.00  -0.00     0.00   0.00   0.01
                     31                     32                     33
                        a                      a                      a 
 Frequencies --  2887.8599              2956.2060              2970.6623
 Red. masses --     1.4194                 1.9613                 1.5758
 Frc consts  --     0.0000                 0.0000                 0.0000
 IR Inten    --    93.1147                78.8435                29.7012
 Raman Activ --     0.0000                 0.0000                 0.0000
 Depolar     --     0.0000                 0.0000                 0.0000
 Atom AN      X      Y      Z        X      Y      Z        X      Y      Z
   1   6     0.00   0.00   0.00     0.01  -0.00  -0.01     0.01  -0.00   0.01
   2   6     0.00   0.00  -0.00    -0.15   0.03   0.25    -0.09  -0.13  -0.06
   3   6     0.00   0.01  -0.00    -0.00   0.01  -0.02    -0.01   0.15  -0.02
   4   6     0.11  -0.13  -0.08     0.00   0.00   0.00    -0.00   0.01  -0.00
   5   8    -0.00  -0.02   0.00    -0.00  -0.00  -0.00     0.00  -0.00  -0.00
   6   1    -0.00  -0.00  -0.00    -0.00   0.03   0.04     0.00  -0.01  -0.01
   7   1    -0.00   0.00  -0.00     0.01  -0.00  -0.00    -0.03   0.00  -0.02
   8   1     0.00   0.00  -0.00    -0.03  -0.02   0.02    -0.01  -0.01   0.01
   9   1     0.00  -0.00  -0.00     0.02  -0.37  -0.52    -0.06   0.34   0.53
  10   1    -0.01  -0.00   0.01     0.53   0.25  -0.39     0.39   0.16  -0.32
  11   1     0.00  -0.04   0.02     0.00  -0.08   0.03     0.02  -0.45   0.19
  12   1     0.00  -0.01  -0.02     0.00   0.06   0.06    -0.00  -0.09  -0.12
  13   1     0.10   0.34   0.63     0.00  -0.00  -0.01    -0.00  -0.00  -0.01
  14   1    -0.50   0.21  -0.36    -0.01   0.00  -0.00     0.01  -0.01   0.01
  15   1    -0.00   0.00   0.00     0.00   0.00  -0.00    -0.00   0.00   0.00
                     34                     35                     36
                        a                      a                      a 
 Frequencies --  2979.7816              2992.9176              3025.4152
 Red. masses --     1.7801                 1.6090                 1.9244
 Frc consts  --     0.0000                 0.0000                 0.0000
 IR Inten    --   126.8858                64.4107               100.1782
 Raman Activ --     0.0000                 0.0000                 0.0000
 Depolar     --     0.0000                 0.0000                 0.0000
 Atom AN      X      Y      Z        X      Y      Z        X      Y      Z
   1   6     0.02   0.00   0.01     0.00   0.00   0.01    -0.16  -0.07  -0.23
   2   6    -0.07  -0.09  -0.02     0.01  -0.01  -0.03    -0.01  -0.02  -0.02
   3   6     0.00  -0.24   0.03    -0.00  -0.10  -0.21     0.00  -0.01  -0.00
   4   6     0.01  -0.01  -0.00    -0.00  -0.00  -0.01     0.00  -0.00  -0.00
   5   8    -0.00  -0.00   0.00    -0.00   0.00   0.00    -0.00  -0.00   0.00
   6   1     0.01  -0.01  -0.02     0.00  -0.02  -0.03    -0.08   0.29   0.42
   7   1    -0.06   0.00  -0.04    -0.01   0.00  -0.00     0.68  -0.03   0.41
   8   1    -0.02  -0.01   0.02     0.00   0.00  -0.00    -0.04  -0.02  -0.02
   9   1    -0.03   0.19   0.30    -0.00   0.04   0.05    -0.01   0.04   0.06
  10   1     0.28   0.12  -0.23    -0.05  -0.02   0.04     0.02   0.01  -0.02
  11   1    -0.03   0.71  -0.31     0.01  -0.28   0.08    -0.00   0.02  -0.01
  12   1     0.00   0.13   0.18     0.01   0.63   0.67     0.00   0.02   0.03
  13   1     0.00   0.01   0.02     0.00   0.01   0.02     0.00   0.00   0.00
  14   1    -0.03   0.01  -0.02     0.01  -0.01   0.01    -0.00   0.00  -0.00
  15   1    -0.00  -0.00   0.00     0.01   0.00  -0.00     0.00   0.00  -0.00
                     37                     38                     39
                        a                      a                      a 
 Frequencies --  3031.6799              3060.0780              3514.4422
 Red. masses --     1.5855                 1.6320                 1.8789
 Frc consts  --     0.0000                 0.0000                 0.0000
 IR Inten    --    66.4995                32.1960                68.4145
 Raman Activ --     0.0000                 0.0000                 0.0000
 Depolar     --     0.0000                 0.0000                 0.0000
 Atom AN      X      Y      Z        X      Y      Z        X      Y      Z
   1   6    -0.16   0.11   0.12     0.17   0.11  -0.12    -0.00  -0.00   0.00
   2   6    -0.01   0.00   0.02     0.01   0.01  -0.01    -0.00   0.00   0.00
   3   6     0.00  -0.00   0.00     0.00   0.00   0.00    -0.00   0.00  -0.00
   4   6     0.00  -0.00   0.00    -0.00  -0.00  -0.00     0.00   0.00  -0.00
   5   8    -0.00   0.00  -0.00     0.00  -0.00  -0.00     0.21   0.03  -0.12
   6   1     0.07  -0.44  -0.67     0.04  -0.06  -0.12    -0.00   0.00   0.00
   7   1     0.44   0.00   0.31     0.07   0.01   0.01     0.00   0.00  -0.00
   8   1     0.08   0.06  -0.05    -0.72  -0.35   0.52     0.00   0.00  -0.00
   9   1    -0.00  -0.01  -0.02     0.00   0.00   0.00     0.00  -0.00  -0.00
  10   1     0.04   0.02  -0.03    -0.04  -0.01   0.03    -0.00  -0.00   0.00
  11   1    -0.00   0.01  -0.01     0.00  -0.01   0.00     0.00  -0.00   0.00
  12   1    -0.00  -0.01  -0.01     0.00  -0.01  -0.01    -0.00   0.00   0.01
  13   1     0.00  -0.00  -0.00    -0.00   0.00   0.00    -0.00  -0.00  -0.00
  14   1    -0.00   0.00  -0.00     0.00   0.00   0.00    -0.00   0.00   0.00
  15   1    -0.00  -0.00   0.00    -0.00  -0.00   0.00    -0.83  -0.11   0.49
