      -----------------------------------------------------------      
     |                   =====================                   |     
     |                           x T B                           |     
     |                   =====================                   |     
     |                         S. Grimme                         |     
     |          Mulliken Center for Theoretical Chemistry        |     
     |                    University of Bonn                     |     
      -----------------------------------------------------------      

   * xtb version 6.7.1 (edcfbbe) compiled by 'albert@albert-system' on 2024-07-22

   xtb is free software: you can redistribute it and/or modify it under
   the terms of the GNU Lesser General Public License as published by
   the Free Software Foundation, either version 3 of the License, or
   (at your option) any later version.
   
   xtb is distributed in the hope that it will be useful,
   but WITHOUT ANY WARRANTY; without even the implied warranty of
   MERCHANTABILITY or FITNESS FOR A PARTICULAR PURPOSE.  See the
   GNU Lesser General Public License for more details.
   
   Cite this work as:
   * C. Bannwarth, E. Caldeweyher, S. Ehlert, A. Hansen, P. Pracht,
     J. Seibert, S. Spicher, S. Grimme, WIREs Comput. Mol. Sci., 2020, 11,
     e01493. DOI: 10.1002/wcms.1493
   
   for GFN2-xTB:
   * C. Bannwarth, S. Ehlert and S. Grimme., J. Chem. Theory Comput., 2019,
     15, 1652-1671. DOI: 10.1021/acs.jctc.8b01176
   for GFN1-xTB:
   * S. Grimme, C. Bannwarth, P. Shushkov, J. Chem. Theory Comput., 2017,
     13, 1989-2009. DOI: 10.1021/acs.jctc.7b00118
   for GFN0-xTB:
   * P. Pracht, E. Caldeweyher, S. Ehlert, S. Grimme, ChemRxiv, 2019, preprint.
     DOI: 10.26434/chemrxiv.8326202.v1
   for GFN-FF:
   * S. Spicher and S. Grimme, Angew. Chem. Int. Ed., 2020, 59, 15665-15673.
     DOI: 10.1002/anie.202004239
   
   for ALPB and GBSA implicit solvation:
   * S. Ehlert, M. Stahn, S. Spicher, S. Grimme, J. Chem. Theory Comput.,
     2021, 17, 4250-4261. DOI: 10.1021/acs.jctc.1c00471
   
   for ddCOSMO and CPCM-X implicit solvation:
   * M. Stahn, S. Ehlert, S. Grimme, J. Phys. Chem. A,
     2023, XX, XXXX-XXXX. DOI: 10.1021/acs.jpca.3c04382
   
   for DFT-D4:
   * E. Caldeweyher, C. Bannwarth and S. Grimme, J. Chem. Phys., 2017,
     147, 034112. DOI: 10.1063/1.4993215
   * E. Caldeweyher, S. Ehlert, A. Hansen, H. Neugebauer, S. Spicher,
     C. Bannwarth and S. Grimme, J. Chem. Phys., 2019, 150, 154122.
     DOI: 10.1063/1.5090222
   * E. Caldeweyher, J.-M. Mewes, S. Ehlert and S. Grimme, Phys. Chem. Chem. Phys.
     2020, 22, 8499-8512. DOI: 10.1039/D0CP00502A
   
   for sTDA-xTB:
   * S. Grimme and C. Bannwarth, J. Chem. Phys., 2016, 145, 054103.
     DOI: 10.1063/1.4959605
   
   in the mass-spec context:
   * V. Asgeirsson, C. Bauer and S. Grimme, Chem. Sci., 2017, 8, 4879.
     DOI: 10.1039/c7sc00601b
   * J. Koopman and S. Grimme, ACS Omega 2019, 4, 12, 15120-15133.
     DOI: 10.1021/acsomega.9b02011
   
   for metadynamics refer to:
   * S. Grimme, J. Chem. Theory Comput., 2019, 155, 2847-2862
     DOI: 10.1021/acs.jctc.9b00143
   
   for SPH calculations refer to:
   * S. Spicher and S. Grimme, J. Chem. Theory Comput., 2021, 17, 1701-1714
     DOI: 10.1021/acs.jctc.0c01306
   
   for ONIOM refer to:
   * C. Plett, A. Katbashev, S. Ehlert, S. Grimme, M. Bursch,
     Phys. Chem. Chem. Phys., 2023, 25, 17860-17868. DOI: 10.1039/D3CP02178E
   
   for DIPRO refer to:
   * J. Kohn, N. Gildemeister, S. Grimme, D. Fazzi, A. Hansen,
     J. Chem. Phys., 2023, just accepted.
   
   for PTB refer to:
   * S. Grimme, M. Mueller, A. Hansen, J. Chem. Phys., 2023, 158, 124111.
     DOI: 10.1063/5.0137838
   
   with help from (in alphabetical order)
   P. Atkinson, C. Bannwarth, F. Bohle, G. Brandenburg, E. Caldeweyher
   M. Checinski, S. Dohm, S. Ehlert, S. Ehrlich, I. Gerasimov, C. Hölzer
   A. Katbashev, J. Kohn, J. Koopman, C. Lavigne, S. Lehtola, F. März, M. Müller,
   F. Musil, H. Neugebauer, J. Pisarek, C. Plett, P. Pracht, F. Pultar,
   J. Seibert, P. Shushkov, S. Spicher, M. Stahn, M. Steiner, T. Strunk,
   J. Stückrath, T. Rose, and J. Unsleber
   
 * started run on 2025/04/06 at 22:34:25.830     
   ID    Z sym.   atoms
    1    6 C      1-4
    2    8 O      5
    3    1 H      6-15

           -------------------------------------------------
          |                Calculation Setup                |
           -------------------------------------------------

          program call               : /srv/scratch/z5358697/.xtb/bin/xtb xtb_rrho.coord --gfn2 --bhess vtight --chrg 0 --enso --norestart -I rrho-xcontrol-inp --parallel 1 --alpb water
          hostname                   : k159
          coordinate file            : xtb_rrho.coord
          omp threads                :                     1


           -------------------------------------------------
          |                 G F N 2 - x T B                 |
           -------------------------------------------------

        Reference                      10.1021/acs.jctc.8b01176
      * Hamiltonian:
        H0-scaling (s, p, d)           1.850000    2.230000    2.230000
        zeta-weighting                 0.500000
      * Dispersion:
        s8                             2.700000
        a1                             0.520000
        a2                             5.000000
        s9                             5.000000
      * Repulsion:
        kExp                           1.500000    1.000000
        rExp                           1.000000
      * Coulomb:
        alpha                          2.000000
        third order                    shell-resolved
        anisotropic                    true
        a3                             3.000000
        a5                             4.000000
        cn-shift                       1.200000
        cn-exp                         4.000000
        max-rad                        5.000000

      * Solvation model:               ALPB
        Solvent                        water
        Parameter file                 internal GFN2-xTB/ALPB
        Dielectric constant                8.0200E+01
        Reference state                gsolv [1 M gas/solution]
        Free energy shift                  1.0808E-03 Eh       6.7819E-01 kcal/mol
        Temperature                        2.9815E+02 K
        Density                            1.0000E+00 kg/L
        Solvent mass                       1.8000E+01 g/mol
        Interaction kernel             P16
        Born radius scaling (c1)           1.4744E+00
        Born radii integrator          GBOBC
        Born offset                        0.0000E+00 a0       0.0000E+00 AA
        H-bond correction              true
        Ion screening                  false
        Surface tension                    1.0000E-05 Eh       1.5569E+01 dyn/cm
        Grid points                               974 per atom

          ...................................................
          :                      SETUP                      :
          :.................................................:
          :  # basis functions                  30          :
          :  # atomic orbitals                  30          :
          :  # shells                           20          :
          :  # electrons                        32          :
          :  max. iterations                   250          :
          :  Hamiltonian                  GFN2-xTB          :
          :  restarted?                      false          :
          :  GBSA solvation                   true          :
          :  PC potential                    false          :
          :  electronic temp.          300.0000000     K    :
          :  accuracy                    1.0000000          :
          :  -> integral cutoff          0.2500000E+02      :
          :  -> integral neglect         0.1000000E-07      :
          :  -> SCF convergence          0.1000000E-05 Eh   :
          :  -> wf. convergence          0.1000000E-03 e    :
          :  Broyden damping             0.4000000          :
          :  net charge                          0          :
          :  unpaired electrons                  0          :
          ...................................................

 iter      E             dE          RMSdq      gap      omega  full diag
   1    -17.9039154 -0.179039E+02  0.336E+00   12.10       0.0  T
   2    -17.9295034 -0.255881E-01  0.177E+00   11.82       1.0  T
   3    -17.9302901 -0.786608E-03  0.619E-01   11.82       1.0  T
   4    -17.9304469 -0.156892E-03  0.123E-01   11.81       1.0  T
   5    -17.9304672 -0.202316E-04  0.667E-02   11.82       1.0  T
   6    -17.9304701 -0.296111E-05  0.137E-02   11.83       1.9  T
   7    -17.9304704 -0.299781E-06  0.625E-03   11.83       4.1  T
   8    -17.9304705 -0.691086E-07  0.242E-03   11.83      10.7  T
   9    -17.9304705 -0.672686E-08  0.642E-04   11.83      40.2  T
  10    -17.9304705 -0.124025E-08  0.207E-04   11.83     124.5  T

   *** convergence criteria satisfied after 10 iterations ***

         #    Occupation            Energy/Eh            Energy/eV
      -------------------------------------------------------------
         1        2.0000           -0.6811029             -18.5338
       ...           ...                  ...                  ...
        10        2.0000           -0.4821036             -13.1187
        11        2.0000           -0.4681932             -12.7402
        12        2.0000           -0.4531391             -12.3305
        13        2.0000           -0.4353115             -11.8454
        14        2.0000           -0.4308667             -11.7245
        15        2.0000           -0.4208465             -11.4518
        16        2.0000           -0.4055567             -11.0358 (HOMO)
        17                          0.0290468               0.7904 (LUMO)
        18                          0.0830542               2.2600
        19                          0.0982587               2.6738
        20                          0.1233887               3.3576
        21                          0.1392394               3.7889
       ...                                ...                  ...
        30                          0.2904496               7.9035
      -------------------------------------------------------------
                  HL-Gap            0.4346035 Eh           11.8262 eV
             Fermi-level           -0.1882550 Eh           -5.1227 eV

 SCC (total)                   0 d,  0 h,  0 min,  0.042 sec
 SCC setup                      ...        0 min,  0.001 sec (  1.636%)
 Dispersion                     ...        0 min,  0.000 sec (  0.124%)
 classical contributions        ...        0 min,  0.000 sec (  0.028%)
 integral evaluation            ...        0 min,  0.001 sec (  1.698%)
 iterations                     ...        0 min,  0.038 sec ( 91.443%)
 molecular gradient             ...        0 min,  0.002 sec (  4.824%)
 printout                       ...        0 min,  0.000 sec (  0.221%)

         :::::::::::::::::::::::::::::::::::::::::::::::::::::
         ::                     SUMMARY                     ::
         :::::::::::::::::::::::::::::::::::::::::::::::::::::
         :: total energy             -17.724520869927 Eh    ::
         :: total w/o Gsasa/hb       -17.719677004875 Eh    ::
         :: gradient norm              0.028427005325 Eh/a0 ::
         :: HOMO-LUMO gap             11.826164389177 eV    ::
         ::.................................................::
         :: SCC energy               -17.930456074733 Eh    ::
         :: -> isotropic ES            0.036282967288 Eh    ::
         :: -> anisotropic ES          0.005068841797 Eh    ::
         :: -> anisotropic XC          0.006358680881 Eh    ::
         :: -> dispersion             -0.007330768349 Eh    ::
         :: -> Gsolv                  -0.009683859271 Eh    ::
         ::    -> Gelec               -0.004839994220 Eh    ::
         ::    -> Gsasa                0.000157101746 Eh    ::
         ::    -> Ghb                 -0.006081726495 Eh    ::
         ::    -> Gshift               0.001080759698 Eh    ::
         :: repulsion energy           0.205935204806 Eh    ::
         :: add. restraining           0.000000000000 Eh    ::
         :: total charge              -0.000000000000 e     ::
         :::::::::::::::::::::::::::::::::::::::::::::::::::::

metadynamics with 1 initial structures loaded
           -------------------------------------------------
          |           Optimal kpush determination           |
           -------------------------------------------------
      ----------------------------------------------------------- 
     |                   =====================                   |
     |                        A N C O P T                        |
     |                   =====================                   |
     |               Approximate Normal Coordinate               |
     |                Rational Function Optimizer                |
      ----------------------------------------------------------- 
target rmsd / Å         0.100000
unbiased initial rmsd   0.112609
 
iter. min.        max.        rmsd       kpush
      ----------------------------------------------------------- 
     |                   =====================                   |
     |                        A N C O P T                        |
     |                   =====================                   |
     |               Approximate Normal Coordinate               |
     |                Rational Function Optimizer                |
      ----------------------------------------------------------- 
 1    0.000000    0.681818    0.012017   -0.340909
      ----------------------------------------------------------- 
     |                   =====================                   |
     |                        A N C O P T                        |
     |                   =====================                   |
     |               Approximate Normal Coordinate               |
     |                Rational Function Optimizer                |
      ----------------------------------------------------------- 
 2    0.000000    0.340909    0.016869   -0.170455
      ----------------------------------------------------------- 
     |                   =====================                   |
     |                        A N C O P T                        |
     |                   =====================                   |
     |               Approximate Normal Coordinate               |
     |                Rational Function Optimizer                |
      ----------------------------------------------------------- 
 3    0.000000    0.170455    0.024231   -0.085227
      ----------------------------------------------------------- 
     |                   =====================                   |
     |                        A N C O P T                        |
     |                   =====================                   |
     |               Approximate Normal Coordinate               |
     |                Rational Function Optimizer                |
      ----------------------------------------------------------- 
 4    0.000000    0.085227    0.034440   -0.042614
      ----------------------------------------------------------- 
     |                   =====================                   |
     |                        A N C O P T                        |
     |                   =====================                   |
     |               Approximate Normal Coordinate               |
     |                Rational Function Optimizer                |
      ----------------------------------------------------------- 
 5    0.000000    0.042614    0.047486   -0.021307
      ----------------------------------------------------------- 
     |                   =====================                   |
     |                        A N C O P T                        |
     |                   =====================                   |
     |               Approximate Normal Coordinate               |
     |                Rational Function Optimizer                |
      ----------------------------------------------------------- 
 6    0.000000    0.021307    0.061974   -0.010653
      ----------------------------------------------------------- 
     |                   =====================                   |
     |                        A N C O P T                        |
     |                   =====================                   |
     |               Approximate Normal Coordinate               |
     |                Rational Function Optimizer                |
      ----------------------------------------------------------- 
 7    0.000000    0.010653    0.076926   -0.005327
      ----------------------------------------------------------- 
     |                   =====================                   |
     |                        A N C O P T                        |
     |                   =====================                   |
     |               Approximate Normal Coordinate               |
     |                Rational Function Optimizer                |
      ----------------------------------------------------------- 
 8    0.000000    0.005327    0.089404   -0.002663
      ----------------------------------------------------------- 
     |                   =====================                   |
     |                        A N C O P T                        |
     |                   =====================                   |
     |               Approximate Normal Coordinate               |
     |                Rational Function Optimizer                |
      ----------------------------------------------------------- 
 9    0.000000    0.002663    0.098628   -0.001332
      ----------------------------------------------------------- 
     |                   =====================                   |
     |                        A N C O P T                        |
     |                   =====================                   |
     |               Approximate Normal Coordinate               |
     |                Rational Function Optimizer                |
      ----------------------------------------------------------- 
10    0.000000    0.001332    0.104736   -0.000666
final kpush: -0.000666
           -------------------------------------------------
          |            Biased Numerical Hessian             |
           -------------------------------------------------
kpush                :  -0.00067
alpha                :   1.00000
step length          :   0.00500
SCC accuracy         :   0.30000
Hessian scale factor :   1.00000
frozen atoms in %    :   0.00000    0
RMS gradient         :   0.00004
estimated CPU  time      0.01 min
estimated wall time      0.01 min

writing file <hessian>.

 projected vibrational frequencies (cm⁻¹)
eigval :       -0.00    -0.00     0.00     0.00     0.00     0.00
eigval :       62.57   137.55   209.24   281.65   330.00   341.83
eigval :      467.02   811.45   845.17   883.40   968.87   983.54
eigval :     1039.91  1105.46  1131.78  1144.45  1194.00  1225.12
eigval :     1266.29  1271.44  1339.78  1353.40  1370.30  1413.71
eigval :     1458.02  1475.65  1492.50  1494.89  1504.78  2853.42
eigval :     2887.86  2956.21  2970.66  2979.78  2992.92  3025.42
eigval :     3031.68  3060.08  3514.44
           -------------------------------------------------
          |                Property Printout                |
           -------------------------------------------------

    * Orbital Energies and Occupations

         #    Occupation            Energy/Eh            Energy/eV
      -------------------------------------------------------------
         1        2.0000           -0.6848058             -18.6345
       ...           ...                  ...                  ...
         4        2.0000           -0.5797035             -15.7745
         5        2.0000           -0.5643295             -15.3562
         6        2.0000           -0.5517628             -15.0142
         7        2.0000           -0.5277637             -14.3612
         8        2.0000           -0.5104212             -13.8893
         9        2.0000           -0.4894172             -13.3177
        10        2.0000           -0.4814493             -13.1009
        11        2.0000           -0.4672409             -12.7143
        12        2.0000           -0.4530627             -12.3285
        13        2.0000           -0.4341603             -11.8141
        14        2.0000           -0.4310000             -11.7281
        15        2.0000           -0.4205088             -11.4426
        16        2.0000           -0.4035181             -10.9803 (HOMO)
        17                          0.0501892               1.3657 (LUMO)
        18                          0.0910350               2.4772
        19                          0.1080446               2.9400
        20                          0.1309843               3.5643
        21                          0.1442652               3.9257
        22                          0.1463548               3.9825
        23                          0.1736074               4.7241
        24                          0.1965551               5.3485
        25                          0.2045643               5.5665
        26                          0.2338137               6.3624
        27                          0.2432199               6.6183
       ...                                ...                  ...
        30                          0.3027306               8.2377
      -------------------------------------------------------------
                  HL-Gap            0.4537073 Eh           12.3460 eV
             Fermi-level           -0.1766644 Eh           -4.8073 eV

     #   Z          covCN         q      C6AA      α(0)
     1   6 C        3.752    -0.110    22.667     6.790
     2   6 C        3.800    -0.057    21.592     6.616
     3   6 C        3.800    -0.070    21.836     6.653
     4   6 C        3.672     0.085    19.393     6.312
     5   8 O        1.655    -0.517    23.271     6.512
     6   1 H        0.925     0.034     2.533     2.489
     7   1 H        0.925     0.033     2.546     2.495
     8   1 H        0.925     0.049     2.332     2.388
     9   1 H        0.924     0.033     2.541     2.493
    10   1 H        0.924     0.034     2.537     2.491
    11   1 H        0.924     0.039     2.459     2.452
    12   1 H        0.924     0.052     2.299     2.371
    13   1 H        0.923     0.021     2.711     2.575
    14   1 H        0.923     0.018     2.768     2.602
    15   1 H        0.805     0.356     0.574     1.190

 Mol. C6AA /au·bohr⁶  :       1464.919704
 Mol. C8AA /au·bohr⁸  :      29952.729866
 Mol. α(0) /au        :         56.427725


Wiberg/Mayer (AO) data.
largest (>0.10) Wiberg bond orders for each atom

 ---------------------------------------------------------------------------
     #   Z sym  total        # sym  WBO       # sym  WBO       # sym  WBO
 ---------------------------------------------------------------------------
     1   6 C    3.996 --     2 C    1.021     6 H    0.988     7 H    0.987
                             8 H    0.984
     2   6 C    3.998 --     1 C    1.021     3 C    1.008    10 H    0.978
                             9 H    0.977
     3   6 C    3.996 --     2 C    1.008     4 C    1.005    11 H    0.976
                            12 H    0.975
     4   6 C    3.955 --     3 C    1.005     5 O    0.991    14 H    0.973
                            13 H    0.971
     5   8 O    1.906 --     4 C    0.991    15 H    0.860
     6   1 H    0.999 --     1 C    0.988
     7   1 H    0.999 --     1 C    0.987
     8   1 H    0.998 --     1 C    0.984
     9   1 H    0.999 --     2 C    0.977
    10   1 H    0.999 --     2 C    0.978
    11   1 H    0.998 --     3 C    0.976
    12   1 H    0.997 --     3 C    0.975
    13   1 H    1.000 --     4 C    0.971
    14   1 H    1.000 --     4 C    0.973
    15   1 H    0.873 --     5 O    0.860
 ---------------------------------------------------------------------------

Topologies differ in total number of bonds
Writing topology from bond orders to xtbtopo.mol

molecular dipole:
                 x           y           z       tot (Debye)
 q only:       -0.353       0.361       0.179
   full:       -0.524       0.485       0.246       1.920
molecular quadrupole (traceless):
                xx          xy          yy          xz          yz          zz
 q only:        2.853       0.174      -1.968      -2.195      -0.948      -0.885
  q+dip:        3.901      -0.086      -3.730      -2.731      -0.243      -0.171
   full:        3.932      -0.041      -3.229      -2.862      -0.649      -0.702

           -------------------------------------------------
          |                Geometry Summary                 |
           -------------------------------------------------

      molecular mass/u    :       74.1217560
   center of mass at/Å    :        0.0003991      -0.0008409      -0.0027133
  moments of inertia/u·Å² :        0.6726105E+02   0.1441208E+03   0.1889399E+03
rotational constants/cm⁻¹ :        0.2506299E+00   0.1169688E+00   0.8922218E-01

 * 14 selected distances

     #   Z          #   Z                                           value/Å
     1   6 C        2   6 C                                       1.5238896
     2   6 C        3   6 C                                       1.5295978 (max)
     3   6 C        4   6 C                                       1.5286784
     4   6 C        5   8 O                                       1.4153885
     1   6 C        6   1 H                                       1.0876774
     1   6 C        7   1 H                                       1.0875331
     1   6 C        8   1 H                                       1.0859688
     2   6 C        9   1 H                                       1.0925142
     2   6 C       10   1 H                                       1.0924230
     3   6 C       11   1 H                                       1.0913645
     3   6 C       12   1 H                                       1.0911621
     4   6 C       13   1 H                                       1.0989658
     4   6 C       14   1 H                                       1.0990042
     5   8 O       15   1 H                                       0.9658351 (min)

 * 4 distinct bonds (by element types)

   Z      Z             #   av. dist./Å        max./Å        min./Å
   1 H    6 C           9     1.0918459     1.0990042     1.0859688
   6 C    6 C           3     1.5273886     1.5295978     1.5238896
   1 H    8 O           1     0.9658351     0.9658351     0.9658351
   6 C    8 O           1     1.4153885     1.4153885     1.4153885

           -------------------------------------------------
          |               Frequency Printout                |
           -------------------------------------------------
 projected vibrational frequencies (cm⁻¹)
eigval :       -0.00    -0.00     0.00     0.00     0.00     0.00
eigval :       62.57   137.55   209.24   281.65   330.00   341.83
eigval :      467.02   811.45   845.17   883.40   968.87   983.54
eigval :     1039.91  1105.46  1131.78  1144.45  1194.00  1225.12
eigval :     1266.29  1271.44  1339.78  1353.40  1370.30  1413.71
eigval :     1458.02  1475.65  1492.50  1494.89  1504.78  2853.42
eigval :     2887.86  2956.21  2970.66  2979.78  2992.92  3025.42
eigval :     3031.68  3060.08  3514.44
 reduced masses (amu)
   1: 12.32   2:  9.55   3:  9.90   4:  9.43   5: 11.07   6: 11.75   7:  7.66   8:  9.54
   9:  3.44  10:  2.65  11:  6.19  12: 10.01  13:  6.74  14:  3.22  15:  7.99  16:  5.51
  17:  4.46  18:  6.92  19:  7.82  20:  6.37  21:  8.11  22:  6.60  23:  4.11  24:  3.70
  25:  2.40  26:  2.38  27:  3.87  28:  5.06  29:  4.24  30:  3.21  31:  1.95  32:  1.82
  33:  1.88  34:  1.52  35:  1.63  36:  1.98  37:  1.42  38:  1.96  39:  1.58  40:  1.78
  41:  1.61  42:  1.92  43:  1.59  44:  1.63  45:  1.88
 IR intensities (km·mol⁻¹)
   1:  0.19   2:  0.78   3:  0.30   4:  0.74   5:  0.21   6:  0.43   7:  4.31   8:  5.76
   9:  1.29  10:199.15  11: 11.99  12: 17.46  13:  8.80  14: 11.17  15:  5.75  16: 11.92
  17:  1.58  18:  1.77  19: 98.16  20:  4.12  21: 68.73  22:  7.59  23: 69.50  24: 31.28
  25: 20.48  26:  1.67  27: 10.76  28:  3.40  29: 14.04  30:  1.93  31:  0.54  32:  1.88
  33:  1.28  34:  0.80  35:  1.96  36:127.87  37: 93.11  38: 78.84  39: 29.70  40:126.89
  41: 64.41  42:100.18  43: 66.50  44: 32.20  45: 68.41
 Raman intensities (Ä⁴*amu⁻¹)
   1:  0.00   2:  0.00   3:  0.00   4:  0.00   5:  0.00   6:  0.00   7:  0.00   8:  0.00
   9:  0.00  10:  0.00  11:  0.00  12:  0.00  13:  0.00  14:  0.00  15:  0.00  16:  0.00
  17:  0.00  18:  0.00  19:  0.00  20:  0.00  21:  0.00  22:  0.00  23:  0.00  24:  0.00
  25:  0.00  26:  0.00  27:  0.00  28:  0.00  29:  0.00  30:  0.00  31:  0.00  32:  0.00
  33:  0.00  34:  0.00  35:  0.00  36:  0.00  37:  0.00  38:  0.00  39:  0.00  40:  0.00
  41:  0.00  42:  0.00  43:  0.00  44:  0.00  45:  0.00
 output can be read by thermo (or use thermo option).
 writing <g98.out> molden fake output.
 recommended (thermochemical) frequency scaling factor: 1.0
           -------------------------------------------------
          |             Thermodynamic Functions             |
           -------------------------------------------------

Molecule has no symmetry elements
It seems to be the C1 point group
c1  symmetry found (for desy threshold:  0.10E+00) used in thermo

          ...................................................
          :                      SETUP                      :
          :.................................................:
          :  # frequencies                          39      :
          :  # imaginary freq.                       0      :
          :  linear?                             false      :
          :  only rotor calc.                    false      :
          :  symmetry                               c1      :
          :  rotational number                       1      :
          :  scaling factor                  1.0000000      :
          :  rotor cutoff                    0.0000000 cm⁻¹ :
          :  imag. cutoff                 -100.0000000 cm⁻¹ :
          :.................................................:

    mode    ω/cm⁻¹     T·S(HO)/kcal·mol⁻¹    T·S(FR)/kcal·mol⁻¹   T·S(vib)
   ------------------------------------------------------------------------
       1     62.57    -1.30421 (100.00%)    -0.98950 (  0.00%)    -1.30421
       2    137.55    -0.84606 (100.00%)    -0.75650 (  0.00%)    -0.84606
       3    209.24    -0.61130 (100.00%)    -0.63232 (  0.00%)    -0.61130
       4    281.65    -0.45426 (100.00%)    -0.54432 (  0.00%)    -0.45426
   ------------------------------------------------------------------------

   temp. (K)  partition function   enthalpy   heat capacity  entropy
                                   cal/mol     cal/K/mol   cal/K/mol   J/K/mol
 298.15  VIB   32.4                 2487.920     17.199     15.257
         ROT  0.103E+06              888.752      2.981     25.926
         INT  0.335E+07             3376.672     20.180     41.183
         TR   0.617E+27             1481.254      4.968     38.808
         TOT                        4857.9262    25.1485    79.9912   334.6833

       T/K    H(0)-H(T)+PV         H(T)/Eh          T*S/Eh         G(T)/Eh
   ------------------------------------------------------------------------
    298.15    0.774160E-02    0.141872E+00    0.380064E-01    0.103865E+00
   ------------------------------------------------------------------------

         :::::::::::::::::::::::::::::::::::::::::::::::::::::
         ::                  THERMODYNAMIC                  ::
         :::::::::::::::::::::::::::::::::::::::::::::::::::::
         :: total free energy         -17.623024415571 Eh   ::
         ::.................................................::
         :: total energy              -17.726889530995 Eh   ::
         :: zero point energy           0.134129936533 Eh   ::
         :: G(RRHO) w/o ZPVE           -0.030264821109 Eh   ::
         :: G(RRHO) contrib.            0.103865115424 Eh   ::
         :::::::::::::::::::::::::::::::::::::::::::::::::::::

optimized geometry written to: xtbopt.coord


           -------------------------------------------------
          | TOTAL ENERGY              -17.726889530995 Eh   |
          | TOTAL ENTHALPY            -17.585017996213 Eh   |
          | TOTAL FREE ENERGY         -17.623024415571 Eh   |
          | GRADIENT NORM               0.000035462995 Eh/α |
          | HOMO-LUMO GAP              12.346005245810 eV   |
           -------------------------------------------------

------------------------------------------------------------------------
 * finished run on 2025/04/06 at 22:34:27.125     
------------------------------------------------------------------------
 total:
 * wall-time:     0 d,  0 h,  0 min,  1.294 sec
 *  cpu-time:     0 d,  0 h,  0 min,  1.127 sec
 * ratio c/w:     0.871 speedup
 SCF:
 * wall-time:     0 d,  0 h,  0 min,  0.042 sec
 *  cpu-time:     0 d,  0 h,  0 min,  0.007 sec
 * ratio c/w:     0.167 speedup
 analytical hessian:
 * wall-time:     0 d,  0 h,  0 min,  0.358 sec
 *  cpu-time:     0 d,  0 h,  0 min,  0.351 sec
 * ratio c/w:     0.983 speedup

