      -----------------------------------------------------------      
     |                   =====================                   |     
     |                           x T B                           |     
     |                   =====================                   |     
     |                         S. Grimme                         |     
     |          Mulliken Center for Theoretical Chemistry        |     
     |                    University of Bonn                     |     
      -----------------------------------------------------------      

   * xtb version 6.7.1 (edcfbbe) compiled by 'albert@albert-system' on 2024-07-22

   xtb is free software: you can redistribute it and/or modify it under
   the terms of the GNU Lesser General Public License as published by
   the Free Software Foundation, either version 3 of the License, or
   (at your option) any later version.
   
   xtb is distributed in the hope that it will be useful,
   but WITHOUT ANY WARRANTY; without even the implied warranty of
   MERCHANTABILITY or FITNESS FOR A PARTICULAR PURPOSE.  See the
   GNU Lesser General Public License for more details.
   
   Cite this work as:
   * C. Bannwarth, E. Caldeweyher, S. Ehlert, A. Hansen, P. Pracht,
     J. Seibert, S. Spicher, S. Grimme, WIREs Comput. Mol. Sci., 2020, 11,
     e01493. DOI: 10.1002/wcms.1493
   
   for GFN2-xTB:
   * C. Bannwarth, S. Ehlert and S. Grimme., J. Chem. Theory Comput., 2019,
     15, 1652-1671. DOI: 10.1021/acs.jctc.8b01176
   for GFN1-xTB:
   * S. Grimme, C. Bannwarth, P. Shushkov, J. Chem. Theory Comput., 2017,
     13, 1989-2009. DOI: 10.1021/acs.jctc.7b00118
   for GFN0-xTB:
   * P. Pracht, E. Caldeweyher, S. Ehlert, S. Grimme, ChemRxiv, 2019, preprint.
     DOI: 10.26434/chemrxiv.8326202.v1
   for GFN-FF:
   * S. Spicher and S. Grimme, Angew. Chem. Int. Ed., 2020, 59, 15665-15673.
     DOI: 10.1002/anie.202004239
   
   for ALPB and GBSA implicit solvation:
   * S. Ehlert, M. Stahn, S. Spicher, S. Grimme, J. Chem. Theory Comput.,
     2021, 17, 4250-4261. DOI: 10.1021/acs.jctc.1c00471
   
   for ddCOSMO and CPCM-X implicit solvation:
   * M. Stahn, S. Ehlert, S. Grimme, J. Phys. Chem. A,
     2023, XX, XXXX-XXXX. DOI: 10.1021/acs.jpca.3c04382
   
   for DFT-D4:
   * E. Caldeweyher, C. Bannwarth and S. Grimme, J. Chem. Phys., 2017,
     147, 034112. DOI: 10.1063/1.4993215
   * E. Caldeweyher, S. Ehlert, A. Hansen, H. Neugebauer, S. Spicher,
     C. Bannwarth and S. Grimme, J. Chem. Phys., 2019, 150, 154122.
     DOI: 10.1063/1.5090222
   * E. Caldeweyher, J.-M. Mewes, S. Ehlert and S. Grimme, Phys. Chem. Chem. Phys.
     2020, 22, 8499-8512. DOI: 10.1039/D0CP00502A
   
   for sTDA-xTB:
   * S. Grimme and C. Bannwarth, J. Chem. Phys., 2016, 145, 054103.
     DOI: 10.1063/1.4959605
   
   in the mass-spec context:
   * V. Asgeirsson, C. Bauer and S. Grimme, Chem. Sci., 2017, 8, 4879.
     DOI: 10.1039/c7sc00601b
   * J. Koopman and S. Grimme, ACS Omega 2019, 4, 12, 15120-15133.
     DOI: 10.1021/acsomega.9b02011
   
   for metadynamics refer to:
   * S. Grimme, J. Chem. Theory Comput., 2019, 155, 2847-2862
     DOI: 10.1021/acs.jctc.9b00143
   
   for SPH calculations refer to:
   * S. Spicher and S. Grimme, J. Chem. Theory Comput., 2021, 17, 1701-1714
     DOI: 10.1021/acs.jctc.0c01306
   
   for ONIOM refer to:
   * C. Plett, A. Katbashev, S. Ehlert, S. Grimme, M. Bursch,
     Phys. Chem. Chem. Phys., 2023, 25, 17860-17868. DOI: 10.1039/D3CP02178E
   
   for DIPRO refer to:
   * J. Kohn, N. Gildemeister, S. Grimme, D. Fazzi, A. Hansen,
     J. Chem. Phys., 2023, just accepted.
   
   for PTB refer to:
   * S. Grimme, M. Mueller, A. Hansen, J. Chem. Phys., 2023, 158, 124111.
     DOI: 10.1063/5.0137838
   
   with help from (in alphabetical order)
   P. Atkinson, C. Bannwarth, F. Bohle, G. Brandenburg, E. Caldeweyher
   M. Checinski, S. Dohm, S. Ehlert, S. Ehrlich, I. Gerasimov, C. Hölzer
   A. Katbashev, J. Kohn, J. Koopman, C. Lavigne, S. Lehtola, F. März, M. Müller,
   F. Musil, H. Neugebauer, J. Pisarek, C. Plett, P. Pracht, F. Pultar,
   J. Seibert, P. Shushkov, S. Spicher, M. Stahn, M. Steiner, T. Strunk,
   J. Stückrath, T. Rose, and J. Unsleber
   
 * started run on 2025/04/06 at 22:31:19.745     
   ID    Z sym.   atoms
    1    6 C      1-4
    2    8 O      5
    3    1 H      6-15

           -------------------------------------------------
          |                Calculation Setup                |
           -------------------------------------------------

          program call               : /srv/scratch/z5358697/.xtb/bin/xtb solv.coord --gfn2 --sp --chrg 0 --norestart --parallel 1 --alpb water reference -I xtb_sp-xcontrol-inp
          hostname                   : k159
          coordinate file            : solv.coord
          omp threads                :                     1


           -------------------------------------------------
          |                 G F N 2 - x T B                 |
           -------------------------------------------------

        Reference                      10.1021/acs.jctc.8b01176
      * Hamiltonian:
        H0-scaling (s, p, d)           1.850000    2.230000    2.230000
        zeta-weighting                 0.500000
      * Dispersion:
        s8                             2.700000
        a1                             0.520000
        a2                             5.000000
        s9                             5.000000
      * Repulsion:
        kExp                           1.500000    1.000000
        rExp                           1.000000
      * Coulomb:
        alpha                          2.000000
        third order                    shell-resolved
        anisotropic                    true
        a3                             3.000000
        a5                             4.000000
        cn-shift                       1.200000
        cn-exp                         4.000000
        max-rad                        5.000000

      * Solvation model:               ALPB
        Solvent                        water
        Parameter file                 internal GFN2-xTB/ALPB
        Dielectric constant                8.0200E+01
        Reference state                gsolv=reference [X=1]
        Free energy shift                  2.8945E-03 Eh       1.8164E+00 kcal/mol
        Temperature                        2.9815E+02 K
        Density                            1.0000E+00 kg/L
        Solvent mass                       1.8000E+01 g/mol
        Interaction kernel             P16
        Born radius scaling (c1)           1.4744E+00
        Born radii integrator          GBOBC
        Born offset                        0.0000E+00 a0       0.0000E+00 AA
        H-bond correction              true
        Ion screening                  false
        Surface tension                    1.0000E-05 Eh       1.5569E+01 dyn/cm
        Grid points                               974 per atom

          ...................................................
          :                      SETUP                      :
          :.................................................:
          :  # basis functions                  30          :
          :  # atomic orbitals                  30          :
          :  # shells                           20          :
          :  # electrons                        32          :
          :  max. iterations                   250          :
          :  Hamiltonian                  GFN2-xTB          :
          :  restarted?                      false          :
          :  GBSA solvation                   true          :
          :  PC potential                    false          :
          :  electronic temp.          300.0000000     K    :
          :  accuracy                    1.0000000          :
          :  -> integral cutoff          0.2500000E+02      :
          :  -> integral neglect         0.1000000E-07      :
          :  -> SCF convergence          0.1000000E-05 Eh   :
          :  -> wf. convergence          0.1000000E-03 e    :
          :  Broyden damping             0.4000000          :
          :  net charge                          0          :
          :  unpaired electrons                  0          :
          ...................................................

 iter      E             dE          RMSdq      gap      omega  full diag
   1    -17.9137992 -0.179138E+02  0.332E+00   12.67       0.0  T
   2    -17.9390257 -0.252265E-01  0.177E+00   12.46       1.0  T
   3    -17.9398900 -0.864332E-03  0.613E-01   12.44       1.0  T
   4    -17.9400565 -0.166452E-03  0.120E-01   12.44       1.0  T
   5    -17.9400757 -0.192051E-04  0.672E-02   12.46       1.0  T
   6    -17.9400789 -0.325815E-05  0.136E-02   12.47       1.9  T
   7    -17.9400793 -0.326504E-06  0.639E-03   12.47       4.0  T
   8    -17.9400793 -0.750601E-07  0.241E-03   12.47      10.7  T
   9    -17.9400794 -0.784451E-08  0.686E-04   12.47      37.6  T
  10    -17.9400794 -0.129030E-08  0.187E-04   12.47     137.9  T

   *** convergence criteria satisfied after 10 iterations ***

         #    Occupation            Energy/Eh            Energy/eV
      -------------------------------------------------------------
         1        2.0000           -0.6856191             -18.6566
       ...           ...                  ...                  ...
        10        2.0000           -0.4756416             -12.9429
        11        2.0000           -0.4674518             -12.7200
        12        2.0000           -0.4544172             -12.3653
        13        2.0000           -0.4357678             -11.8578
        14        2.0000           -0.4321873             -11.7604
        15        2.0000           -0.4209276             -11.4540
        16        2.0000           -0.4064694             -11.0606 (HOMO)
        17                          0.0516872               1.4065 (LUMO)
        18                          0.0819529               2.2301
        19                          0.1209079               3.2901
        20                          0.1324233               3.6034
        21                          0.1425786               3.8798
       ...                                ...                  ...
        30                          0.3130959               8.5198
      -------------------------------------------------------------
                  HL-Gap            0.4581566 Eh           12.4671 eV
             Fermi-level           -0.1773911 Eh           -4.8271 eV

 SCC (total)                   0 d,  0 h,  0 min,  0.009 sec
 SCC setup                      ...        0 min,  0.001 sec (  7.731%)
 Dispersion                     ...        0 min,  0.000 sec (  0.609%)
 classical contributions        ...        0 min,  0.000 sec (  0.128%)
 integral evaluation            ...        0 min,  0.001 sec (  7.944%)
 iterations                     ...        0 min,  0.005 sec ( 59.466%)
 molecular gradient             ...        0 min,  0.002 sec ( 22.845%)
 printout                       ...        0 min,  0.000 sec (  1.148%)

         :::::::::::::::::::::::::::::::::::::::::::::::::::::
         ::                     SUMMARY                     ::
         :::::::::::::::::::::::::::::::::::::::::::::::::::::
         :: total energy             -17.726096095770 Eh    ::
         :: total w/o Gsasa/hb       -17.722851401239 Eh    ::
         :: gradient norm              0.000122784021 Eh/a0 ::
         :: HOMO-LUMO gap             12.467076386192 eV    ::
         ::.................................................::
         :: SCC energy               -17.940072901186 Eh    ::
         :: -> isotropic ES            0.035870289508 Eh    ::
         :: -> anisotropic ES          0.003817319231 Eh    ::
         :: -> anisotropic XC          0.005923339686 Eh    ::
         :: -> dispersion             -0.007026949797 Eh    ::
         :: -> Gsolv                  -0.007859676983 Eh    ::
         ::    -> Gelec               -0.004614982453 Eh    ::
         ::    -> Gsasa                0.000344731605 Eh    ::
         ::    -> Ghb                 -0.006483975296 Eh    ::
         ::    -> Gshift               0.002894549160 Eh    ::
         :: repulsion energy           0.213976805416 Eh    ::
         :: add. restraining           0.000000000000 Eh    ::
         :: total charge               0.000000000000 e     ::
         :::::::::::::::::::::::::::::::::::::::::::::::::::::

           -------------------------------------------------
          |                Property Printout                |
           -------------------------------------------------

    * Orbital Energies and Occupations

         #    Occupation            Energy/Eh            Energy/eV
      -------------------------------------------------------------
         1        2.0000           -0.6856191             -18.6566
       ...           ...                  ...                  ...
         4        2.0000           -0.5781146             -15.7313
         5        2.0000           -0.5638482             -15.3431
         6        2.0000           -0.5564453             -15.1416
         7        2.0000           -0.5234038             -14.2425
         8        2.0000           -0.5109848             -13.9046
         9        2.0000           -0.5005290             -13.6201
        10        2.0000           -0.4756416             -12.9429
        11        2.0000           -0.4674518             -12.7200
        12        2.0000           -0.4544172             -12.3653
        13        2.0000           -0.4357678             -11.8578
        14        2.0000           -0.4321873             -11.7604
        15        2.0000           -0.4209276             -11.4540
        16        2.0000           -0.4064694             -11.0606 (HOMO)
        17                          0.0516872               1.4065 (LUMO)
        18                          0.0819529               2.2301
        19                          0.1209079               3.2901
        20                          0.1324233               3.6034
        21                          0.1425786               3.8798
        22                          0.1626945               4.4271
        23                          0.1676136               4.5610
        24                          0.1896799               5.1615
        25                          0.2135119               5.8100
        26                          0.2244502               6.1076
        27                          0.2488083               6.7704
       ...                                ...                  ...
        30                          0.3130959               8.5198
      -------------------------------------------------------------
                  HL-Gap            0.4581566 Eh           12.4671 eV
             Fermi-level           -0.1773911 Eh           -4.8271 eV

     #   Z          covCN         q      C6AA      α(0)
     1   6 C        3.752    -0.113    22.722     6.798
     2   6 C        3.801    -0.058    21.609     6.618
     3   6 C        3.802    -0.068    21.806     6.648
     4   6 C        3.674     0.084    19.411     6.314
     5   8 O        1.655    -0.522    23.368     6.526
     6   1 H        0.925     0.038     2.470     2.458
     7   1 H        0.925     0.038     2.482     2.464
     8   1 H        0.925     0.040     2.451     2.448
     9   1 H        0.924     0.032     2.554     2.499
    10   1 H        0.924     0.042     2.426     2.436
    11   1 H        0.924     0.048     2.351     2.398
    12   1 H        0.924     0.040     2.453     2.449
    13   1 H        0.923     0.020     2.734     2.586
    14   1 H        0.923     0.021     2.723     2.581
    15   1 H        0.805     0.359     0.567     1.183

 Mol. C6AA /au·bohr⁶  :       1463.991245
 Mol. C8AA /au·bohr⁸  :      29945.828596
 Mol. α(0) /au        :         56.404237


Wiberg/Mayer (AO) data.
largest (>0.10) Wiberg bond orders for each atom

 ---------------------------------------------------------------------------
     #   Z sym  total        # sym  WBO       # sym  WBO       # sym  WBO
 ---------------------------------------------------------------------------
     1   6 C    3.996 --     2 C    1.020     7 H    0.988     6 H    0.988
                             8 H    0.987
     2   6 C    3.997 --     1 C    1.020     3 C    1.009     9 H    0.978
                            10 H    0.978
     3   6 C    3.996 --     2 C    1.009     4 C    1.005    12 H    0.976
                            11 H    0.976
     4   6 C    3.955 --     3 C    1.005     5 O    0.991    13 H    0.972
                            14 H    0.972
     5   8 O    1.900 --     4 C    0.991    15 H    0.858
     6   1 H    0.999 --     1 C    0.988
     7   1 H    0.999 --     1 C    0.988
     8   1 H    0.998 --     1 C    0.987
     9   1 H    0.999 --     2 C    0.978
    10   1 H    0.998 --     2 C    0.978
    11   1 H    0.998 --     3 C    0.976
    12   1 H    0.998 --     3 C    0.976
    13   1 H    0.999 --     4 C    0.972
    14   1 H    1.000 --     4 C    0.972
    15   1 H    0.871 --     5 O    0.858
 ---------------------------------------------------------------------------

Topologies differ in total number of bonds
Writing topology from bond orders to xtbtopo.mol

molecular dipole:
                 x           y           z       tot (Debye)
 q only:       -0.241       0.371       0.260
   full:       -0.397       0.503       0.352       1.858
molecular quadrupole (traceless):
                xx          xy          yy          xz          yz          zz
 q only:        4.067      -2.341      -2.256       0.219      -0.562      -1.811
  q+dip:        4.173      -2.768      -1.667      -0.334      -1.009      -2.506
   full:        4.707      -2.989      -2.231      -0.098      -0.820      -2.476


           -------------------------------------------------
          | TOTAL ENERGY              -17.726096095770 Eh   |
          | GRADIENT NORM               0.000122784021 Eh/α |
          | HOMO-LUMO GAP              12.467076386192 eV   |
           -------------------------------------------------

------------------------------------------------------------------------
 * finished run on 2025/04/06 at 22:31:19.783     
------------------------------------------------------------------------
 total:
 * wall-time:     0 d,  0 h,  0 min,  0.037 sec
 *  cpu-time:     0 d,  0 h,  0 min,  0.012 sec
 * ratio c/w:     0.323 speedup
 SCF:
 * wall-time:     0 d,  0 h,  0 min,  0.009 sec
 *  cpu-time:     0 d,  0 h,  0 min,  0.007 sec
 * ratio c/w:     0.753 speedup

