! r2scan-3c def2/J RI DEFGRID2 scfconv6 printgap
%output
    printlevel normal
end
* xyz 0 1
C -1.7945016022 -0.0001257028 0.1539403225
C -0.9452520573 -1.2520048125 0.3531206214
C 0.2350746209 -1.2614296861 -0.6164753791
C 1.0993816655 9.80987e-05 -0.4874187697
C 0.2348761141 1.2615329576 -0.6163904243
C -0.9454003729 1.2518542346 0.353240557
O 1.8736622737 0.0001632632 0.6984665443
H -2.6290542663 -0.0002300412 0.8574740456
H -2.2062371913 -8.18018e-05 -0.8575265734
H -0.5826949188 -1.2880273738 1.3831107583
H -1.5511355961 -2.1449632571 0.1895869456
H 0.8628595492 -2.1363781243 -0.4364675763
H -0.1370345584 -1.3148047997 -1.6407250306
H 1.8511621859 0.0002038917 -1.2864786827
H 0.8625169057 2.1365373257 -0.4362141193
H -0.1371673372 1.3149485723 -1.6406548584
H -0.5826598333 1.2877796866 1.3831638644
H -1.55143757 2.1447539875 0.1899113043
H 1.2723197177 -0.0014370072 1.4556603346
*
