! r2scan-3c def2/J RI DEFGRID2 scfconv6 printgap
%output
    printlevel normal
end
%cpcm
    smd true
    smdsolvent "water"
end
* xyz 0 1
C 0.1685017746 -0.6520164869 0.5215953466
H 0.202894333 -0.747949804 1.6139617804
C 1.3303129026 0.2128223935 0.0190737919
F 1.285080442 1.4288741773 0.5637153834
F 1.3282979623 0.3584557868 -1.3025592315
F 2.5067608199 -0.3277123535 0.3590146615
F 0.2574720104 -1.8782618298 -0.0311201649
Br -1.5064716457 0.1749923363 -0.00392011
*
