      -----------------------------------------------------------      
     |                   =====================                   |     
     |                           x T B                           |     
     |                   =====================                   |     
     |                         S. Grimme                         |     
     |          Mulliken Center for Theoretical Chemistry        |     
     |                    University of Bonn                     |     
      -----------------------------------------------------------      

   * xtb version 6.7.1 (edcfbbe) compiled by 'albert@albert-system' on 2024-07-22

   xtb is free software: you can redistribute it and/or modify it under
   the terms of the GNU Lesser General Public License as published by
   the Free Software Foundation, either version 3 of the License, or
   (at your option) any later version.
   
   xtb is distributed in the hope that it will be useful,
   but WITHOUT ANY WARRANTY; without even the implied warranty of
   MERCHANTABILITY or FITNESS FOR A PARTICULAR PURPOSE.  See the
   GNU Lesser General Public License for more details.
   
   Cite this work as:
   * C. Bannwarth, E. Caldeweyher, S. Ehlert, A. Hansen, P. Pracht,
     J. Seibert, S. Spicher, S. Grimme, WIREs Comput. Mol. Sci., 2020, 11,
     e01493. DOI: 10.1002/wcms.1493
   
   for GFN2-xTB:
   * C. Bannwarth, S. Ehlert and S. Grimme., J. Chem. Theory Comput., 2019,
     15, 1652-1671. DOI: 10.1021/acs.jctc.8b01176
   for GFN1-xTB:
   * S. Grimme, C. Bannwarth, P. Shushkov, J. Chem. Theory Comput., 2017,
     13, 1989-2009. DOI: 10.1021/acs.jctc.7b00118
   for GFN0-xTB:
   * P. Pracht, E. Caldeweyher, S. Ehlert, S. Grimme, ChemRxiv, 2019, preprint.
     DOI: 10.26434/chemrxiv.8326202.v1
   for GFN-FF:
   * S. Spicher and S. Grimme, Angew. Chem. Int. Ed., 2020, 59, 15665-15673.
     DOI: 10.1002/anie.202004239
   
   for ALPB and GBSA implicit solvation:
   * S. Ehlert, M. Stahn, S. Spicher, S. Grimme, J. Chem. Theory Comput.,
     2021, 17, 4250-4261. DOI: 10.1021/acs.jctc.1c00471
   
   for ddCOSMO and CPCM-X implicit solvation:
   * M. Stahn, S. Ehlert, S. Grimme, J. Phys. Chem. A,
     2023, XX, XXXX-XXXX. DOI: 10.1021/acs.jpca.3c04382
   
   for DFT-D4:
   * E. Caldeweyher, C. Bannwarth and S. Grimme, J. Chem. Phys., 2017,
     147, 034112. DOI: 10.1063/1.4993215
   * E. Caldeweyher, S. Ehlert, A. Hansen, H. Neugebauer, S. Spicher,
     C. Bannwarth and S. Grimme, J. Chem. Phys., 2019, 150, 154122.
     DOI: 10.1063/1.5090222
   * E. Caldeweyher, J.-M. Mewes, S. Ehlert and S. Grimme, Phys. Chem. Chem. Phys.
     2020, 22, 8499-8512. DOI: 10.1039/D0CP00502A
   
   for sTDA-xTB:
   * S. Grimme and C. Bannwarth, J. Chem. Phys., 2016, 145, 054103.
     DOI: 10.1063/1.4959605
   
   in the mass-spec context:
   * V. Asgeirsson, C. Bauer and S. Grimme, Chem. Sci., 2017, 8, 4879.
     DOI: 10.1039/c7sc00601b
   * J. Koopman and S. Grimme, ACS Omega 2019, 4, 12, 15120-15133.
     DOI: 10.1021/acsomega.9b02011
   
   for metadynamics refer to:
   * S. Grimme, J. Chem. Theory Comput., 2019, 155, 2847-2862
     DOI: 10.1021/acs.jctc.9b00143
   
   for SPH calculations refer to:
   * S. Spicher and S. Grimme, J. Chem. Theory Comput., 2021, 17, 1701-1714
     DOI: 10.1021/acs.jctc.0c01306
   
   for ONIOM refer to:
   * C. Plett, A. Katbashev, S. Ehlert, S. Grimme, M. Bursch,
     Phys. Chem. Chem. Phys., 2023, 25, 17860-17868. DOI: 10.1039/D3CP02178E
   
   for DIPRO refer to:
   * J. Kohn, N. Gildemeister, S. Grimme, D. Fazzi, A. Hansen,
     J. Chem. Phys., 2023, just accepted.
   
   for PTB refer to:
   * S. Grimme, M. Mueller, A. Hansen, J. Chem. Phys., 2023, 158, 124111.
     DOI: 10.1063/5.0137838
   
   with help from (in alphabetical order)
   P. Atkinson, C. Bannwarth, F. Bohle, G. Brandenburg, E. Caldeweyher
   M. Checinski, S. Dohm, S. Ehlert, S. Ehrlich, I. Gerasimov, C. Hölzer
   A. Katbashev, J. Kohn, J. Koopman, C. Lavigne, S. Lehtola, F. März, M. Müller,
   F. Musil, H. Neugebauer, J. Pisarek, C. Plett, P. Pracht, F. Pultar,
   J. Seibert, P. Shushkov, S. Spicher, M. Stahn, M. Steiner, T. Strunk,
   J. Stückrath, T. Rose, and J. Unsleber
   
 * started run on 2025/04/07 at 02:42:52.334     
   ID    Z sym.   atoms
    1    6 C      1, 2, 4, 5
    2    8 O      3
    3    1 H      6-15

           -------------------------------------------------
          |                Calculation Setup                |
           -------------------------------------------------

          program call               : /srv/scratch/z5358697/.xtb/bin/xtb gas.coord --gfn2 --sp --chrg 0 --norestart --parallel 1
          hostname                   : k140
          coordinate file            : gas.coord
          omp threads                :                     1


           -------------------------------------------------
          |                 G F N 2 - x T B                 |
           -------------------------------------------------

        Reference                      10.1021/acs.jctc.8b01176
      * Hamiltonian:
        H0-scaling (s, p, d)           1.850000    2.230000    2.230000
        zeta-weighting                 0.500000
      * Dispersion:
        s8                             2.700000
        a1                             0.520000
        a2                             5.000000
        s9                             5.000000
      * Repulsion:
        kExp                           1.500000    1.000000
        rExp                           1.000000
      * Coulomb:
        alpha                          2.000000
        third order                    shell-resolved
        anisotropic                    true
        a3                             3.000000
        a5                             4.000000
        cn-shift                       1.200000
        cn-exp                         4.000000
        max-rad                        5.000000


          ...................................................
          :                      SETUP                      :
          :.................................................:
          :  # basis functions                  30          :
          :  # atomic orbitals                  30          :
          :  # shells                           20          :
          :  # electrons                        32          :
          :  max. iterations                   250          :
          :  Hamiltonian                  GFN2-xTB          :
          :  restarted?                      false          :
          :  GBSA solvation                  false          :
          :  PC potential                    false          :
          :  electronic temp.          300.0000000     K    :
          :  accuracy                    1.0000000          :
          :  -> integral cutoff          0.2500000E+02      :
          :  -> integral neglect         0.1000000E-07      :
          :  -> SCF convergence          0.1000000E-05 Eh   :
          :  -> wf. convergence          0.1000000E-03 e    :
          :  Broyden damping             0.4000000          :
          :  net charge                          0          :
          :  unpaired electrons                  0          :
          ...................................................

 iter      E             dE          RMSdq      gap      omega  full diag
   1    -17.8811847 -0.178812E+02  0.348E+00   11.77       0.0  T
   2    -17.9289176 -0.477329E-01  0.171E+00   11.31       1.0  T
   3    -17.9294808 -0.563251E-03  0.817E-01   11.43       1.0  T
   4    -17.9296685 -0.187694E-03  0.111E-01   11.45       1.0  T
   5    -17.9296948 -0.262999E-04  0.615E-02   11.47       1.0  T
   6    -17.9296955 -0.718994E-06  0.544E-03   11.47       4.7  T
   7    -17.9296956 -0.245957E-07  0.229E-03   11.47      11.3  T
   8    -17.9296956 -0.430419E-08  0.544E-04   11.47      47.4  T
   9    -17.9296956 -0.236309E-09  0.588E-05   11.47     438.9  T

   *** convergence criteria satisfied after 9 iterations ***

         #    Occupation            Energy/Eh            Energy/eV
      -------------------------------------------------------------
         1        2.0000           -0.6874034             -18.7052
       ...           ...                  ...                  ...
        10        2.0000           -0.4937367             -13.4353
        11        2.0000           -0.4709946             -12.8164
        12        2.0000           -0.4630547             -12.6004
        13        2.0000           -0.4623425             -12.5810
        14        2.0000           -0.4446149             -12.0986
        15        2.0000           -0.4252698             -11.5722
        16        2.0000           -0.3934970             -10.7076 (HOMO)
        17                          0.0280938               0.7645 (LUMO)
        18                          0.0882818               2.4023
        19                          0.1183116               3.2194
        20                          0.1227901               3.3413
        21                          0.1229470               3.3456
       ...                                ...                  ...
        30                          0.2999562               8.1622
      -------------------------------------------------------------
                  HL-Gap            0.4215908 Eh           11.4721 eV
             Fermi-level           -0.1827016 Eh           -4.9716 eV

 SCC (total)                   0 d,  0 h,  0 min,  0.019 sec
 SCC setup                      ...        0 min,  0.000 sec (  0.665%)
 Dispersion                     ...        0 min,  0.000 sec (  0.263%)
 classical contributions        ...        0 min,  0.000 sec (  0.061%)
 integral evaluation            ...        0 min,  0.001 sec (  3.438%)
 iterations                     ...        0 min,  0.017 sec ( 86.019%)
 molecular gradient             ...        0 min,  0.002 sec (  9.032%)
 printout                       ...        0 min,  0.000 sec (  0.463%)

         :::::::::::::::::::::::::::::::::::::::::::::::::::::
         ::                     SUMMARY                     ::
         :::::::::::::::::::::::::::::::::::::::::::::::::::::
         :: total energy             -17.720067669346 Eh    ::
         :: gradient norm              0.009041692432 Eh/a0 ::
         :: HOMO-LUMO gap             11.472070222482 eV    ::
         ::.................................................::
         :: SCC energy               -17.929683843277 Eh    ::
         :: -> isotropic ES            0.021385141875 Eh    ::
         :: -> anisotropic ES          0.004000294215 Eh    ::
         :: -> anisotropic XC          0.005899869817 Eh    ::
         :: -> dispersion             -0.007252074539 Eh    ::
         :: repulsion energy           0.209616173931 Eh    ::
         :: add. restraining           0.000000000000 Eh    ::
         :: total charge               0.000000000000 e     ::
         :::::::::::::::::::::::::::::::::::::::::::::::::::::

           -------------------------------------------------
          |                Property Printout                |
           -------------------------------------------------

    * Orbital Energies and Occupations

         #    Occupation            Energy/Eh            Energy/eV
      -------------------------------------------------------------
         1        2.0000           -0.6874034             -18.7052
       ...           ...                  ...                  ...
         4        2.0000           -0.5970923             -16.2477
         5        2.0000           -0.5645229             -15.3614
         6        2.0000           -0.5464557             -14.8698
         7        2.0000           -0.5434396             -14.7877
         8        2.0000           -0.5148741             -14.0104
         9        2.0000           -0.4973917             -13.5347
        10        2.0000           -0.4937367             -13.4353
        11        2.0000           -0.4709946             -12.8164
        12        2.0000           -0.4630547             -12.6004
        13        2.0000           -0.4623425             -12.5810
        14        2.0000           -0.4446149             -12.0986
        15        2.0000           -0.4252698             -11.5722
        16        2.0000           -0.3934970             -10.7076 (HOMO)
        17                          0.0280938               0.7645 (LUMO)
        18                          0.0882818               2.4023
        19                          0.1183116               3.2194
        20                          0.1227901               3.3413
        21                          0.1229470               3.3456
        22                          0.1486184               4.0441
        23                          0.1664013               4.5280
        24                          0.1927094               5.2439
        25                          0.1971822               5.3656
        26                          0.2086797               5.6785
        27                          0.2441671               6.6441
       ...                                ...                  ...
        30                          0.2999562               8.1622
      -------------------------------------------------------------
                  HL-Gap            0.4215908 Eh           11.4721 eV
             Fermi-level           -0.1827016 Eh           -4.9716 eV

     #   Z          covCN         q      C6AA      α(0)
     1   6 C        3.750    -0.114    22.737     6.801
     2   6 C        3.685     0.081    19.417     6.309
     3   8 O        1.698    -0.330    19.532     5.967
     4   6 C        3.685     0.081    19.416     6.309
     5   6 C        3.750    -0.114    22.738     6.801
     6   1 H        0.925     0.039     2.456     2.451
     7   1 H        0.925     0.049     2.336     2.390
     8   1 H        0.925     0.039     2.462     2.454
     9   1 H        0.924     0.047     2.356     2.400
    10   1 H        0.924     0.023     2.689     2.564
    11   1 H        0.924     0.047     2.356     2.400
    12   1 H        0.924     0.023     2.689     2.565
    13   1 H        0.925     0.039     2.456     2.451
    14   1 H        0.925     0.049     2.336     2.390
    15   1 H        0.925     0.039     2.461     2.453

 Mol. C6AA /au·bohr⁶  :       1471.635401
 Mol. C8AA /au·bohr⁸  :      29827.090687
 Mol. α(0) /au        :         56.702834


Wiberg/Mayer (AO) data.
largest (>0.10) Wiberg bond orders for each atom

 ---------------------------------------------------------------------------
     #   Z sym  total        # sym  WBO       # sym  WBO       # sym  WBO
 ---------------------------------------------------------------------------
     1   6 C    3.996 --     2 C    1.010     7 H    0.987     6 H    0.986
                             8 H    0.986
     2   6 C    3.957 --     1 C    1.010     3 O    0.983     9 H    0.972
                            10 H    0.969
     3   8 O    2.068 --     4 C    0.983     2 C    0.983
     4   6 C    3.957 --     5 C    1.010     3 O    0.983    11 H    0.972
                            12 H    0.969
     5   6 C    3.996 --     4 C    1.010    14 H    0.987    13 H    0.986
                            15 H    0.986
     6   1 H    0.998 --     1 C    0.986
     7   1 H    0.998 --     1 C    0.987
     8   1 H    0.998 --     1 C    0.986
     9   1 H    0.998 --     2 C    0.972
    10   1 H    0.999 --     2 C    0.969
    11   1 H    0.998 --     4 C    0.972
    12   1 H    0.999 --     4 C    0.969
    13   1 H    0.998 --     5 C    0.986
    14   1 H    0.998 --     5 C    0.987
    15   1 H    0.998 --     5 C    0.986
 ---------------------------------------------------------------------------

Topologies differ in total number of bonds
Writing topology from bond orders to xtbtopo.mol

molecular dipole:
                 x           y           z       tot (Debye)
 q only:       -0.000       0.494      -0.000
   full:       -0.000       0.666      -0.001       1.694
molecular quadrupole (traceless):
                xx          xy          yy          xz          yz          zz
 q only:        2.315      -0.000      -2.356      -0.956       0.002       0.041
  q+dip:        1.822      -0.001      -2.403      -0.699       0.005       0.580
   full:        2.227      -0.001      -2.641      -1.017       0.004       0.414


           -------------------------------------------------
          | TOTAL ENERGY              -17.720067669346 Eh   |
          | GRADIENT NORM               0.009041692432 Eh/α |
          | HOMO-LUMO GAP              11.472070222482 eV   |
           -------------------------------------------------

------------------------------------------------------------------------
 * finished run on 2025/04/07 at 02:42:52.415     
------------------------------------------------------------------------
 total:
 * wall-time:     0 d,  0 h,  0 min,  0.080 sec
 *  cpu-time:     0 d,  0 h,  0 min,  0.023 sec
 * ratio c/w:     0.294 speedup
 SCF:
 * wall-time:     0 d,  0 h,  0 min,  0.020 sec
 *  cpu-time:     0 d,  0 h,  0 min,  0.006 sec
 * ratio c/w:     0.310 speedup

