      -----------------------------------------------------------      
     |                   =====================                   |     
     |                           x T B                           |     
     |                   =====================                   |     
     |                         S. Grimme                         |     
     |          Mulliken Center for Theoretical Chemistry        |     
     |                    University of Bonn                     |     
      -----------------------------------------------------------      

   * xtb version 6.7.1 (edcfbbe) compiled by 'albert@albert-system' on 2024-07-22

   xtb is free software: you can redistribute it and/or modify it under
   the terms of the GNU Lesser General Public License as published by
   the Free Software Foundation, either version 3 of the License, or
   (at your option) any later version.
   
   xtb is distributed in the hope that it will be useful,
   but WITHOUT ANY WARRANTY; without even the implied warranty of
   MERCHANTABILITY or FITNESS FOR A PARTICULAR PURPOSE.  See the
   GNU Lesser General Public License for more details.
   
   Cite this work as:
   * C. Bannwarth, E. Caldeweyher, S. Ehlert, A. Hansen, P. Pracht,
     J. Seibert, S. Spicher, S. Grimme, WIREs Comput. Mol. Sci., 2020, 11,
     e01493. DOI: 10.1002/wcms.1493
   
   for GFN2-xTB:
   * C. Bannwarth, S. Ehlert and S. Grimme., J. Chem. Theory Comput., 2019,
     15, 1652-1671. DOI: 10.1021/acs.jctc.8b01176
   for GFN1-xTB:
   * S. Grimme, C. Bannwarth, P. Shushkov, J. Chem. Theory Comput., 2017,
     13, 1989-2009. DOI: 10.1021/acs.jctc.7b00118
   for GFN0-xTB:
   * P. Pracht, E. Caldeweyher, S. Ehlert, S. Grimme, ChemRxiv, 2019, preprint.
     DOI: 10.26434/chemrxiv.8326202.v1
   for GFN-FF:
   * S. Spicher and S. Grimme, Angew. Chem. Int. Ed., 2020, 59, 15665-15673.
     DOI: 10.1002/anie.202004239
   
   for ALPB and GBSA implicit solvation:
   * S. Ehlert, M. Stahn, S. Spicher, S. Grimme, J. Chem. Theory Comput.,
     2021, 17, 4250-4261. DOI: 10.1021/acs.jctc.1c00471
   
   for ddCOSMO and CPCM-X implicit solvation:
   * M. Stahn, S. Ehlert, S. Grimme, J. Phys. Chem. A,
     2023, XX, XXXX-XXXX. DOI: 10.1021/acs.jpca.3c04382
   
   for DFT-D4:
   * E. Caldeweyher, C. Bannwarth and S. Grimme, J. Chem. Phys., 2017,
     147, 034112. DOI: 10.1063/1.4993215
   * E. Caldeweyher, S. Ehlert, A. Hansen, H. Neugebauer, S. Spicher,
     C. Bannwarth and S. Grimme, J. Chem. Phys., 2019, 150, 154122.
     DOI: 10.1063/1.5090222
   * E. Caldeweyher, J.-M. Mewes, S. Ehlert and S. Grimme, Phys. Chem. Chem. Phys.
     2020, 22, 8499-8512. DOI: 10.1039/D0CP00502A
   
   for sTDA-xTB:
   * S. Grimme and C. Bannwarth, J. Chem. Phys., 2016, 145, 054103.
     DOI: 10.1063/1.4959605
   
   in the mass-spec context:
   * V. Asgeirsson, C. Bauer and S. Grimme, Chem. Sci., 2017, 8, 4879.
     DOI: 10.1039/c7sc00601b
   * J. Koopman and S. Grimme, ACS Omega 2019, 4, 12, 15120-15133.
     DOI: 10.1021/acsomega.9b02011
   
   for metadynamics refer to:
   * S. Grimme, J. Chem. Theory Comput., 2019, 155, 2847-2862
     DOI: 10.1021/acs.jctc.9b00143
   
   for SPH calculations refer to:
   * S. Spicher and S. Grimme, J. Chem. Theory Comput., 2021, 17, 1701-1714
     DOI: 10.1021/acs.jctc.0c01306
   
   for ONIOM refer to:
   * C. Plett, A. Katbashev, S. Ehlert, S. Grimme, M. Bursch,
     Phys. Chem. Chem. Phys., 2023, 25, 17860-17868. DOI: 10.1039/D3CP02178E
   
   for DIPRO refer to:
   * J. Kohn, N. Gildemeister, S. Grimme, D. Fazzi, A. Hansen,
     J. Chem. Phys., 2023, just accepted.
   
   for PTB refer to:
   * S. Grimme, M. Mueller, A. Hansen, J. Chem. Phys., 2023, 158, 124111.
     DOI: 10.1063/5.0137838
   
   with help from (in alphabetical order)
   P. Atkinson, C. Bannwarth, F. Bohle, G. Brandenburg, E. Caldeweyher
   M. Checinski, S. Dohm, S. Ehlert, S. Ehrlich, I. Gerasimov, C. Hölzer
   A. Katbashev, J. Kohn, J. Koopman, C. Lavigne, S. Lehtola, F. März, M. Müller,
   F. Musil, H. Neugebauer, J. Pisarek, C. Plett, P. Pracht, F. Pultar,
   J. Seibert, P. Shushkov, S. Spicher, M. Stahn, M. Steiner, T. Strunk,
   J. Stückrath, T. Rose, and J. Unsleber
   
 * started run on 2025/04/07 at 02:42:52.452     
   ID    Z sym.   atoms
    1    6 C      1, 2, 4, 5
    2    8 O      3
    3    1 H      6-15

           -------------------------------------------------
          |                Calculation Setup                |
           -------------------------------------------------

          program call               : /srv/scratch/z5358697/.xtb/bin/xtb solv.coord --gfn2 --sp --chrg 0 --norestart --parallel 1 --alpb water reference -I xtb_sp-xcontrol-inp
          hostname                   : k140
          coordinate file            : solv.coord
          omp threads                :                     1


           -------------------------------------------------
          |                 G F N 2 - x T B                 |
           -------------------------------------------------

        Reference                      10.1021/acs.jctc.8b01176
      * Hamiltonian:
        H0-scaling (s, p, d)           1.850000    2.230000    2.230000
        zeta-weighting                 0.500000
      * Dispersion:
        s8                             2.700000
        a1                             0.520000
        a2                             5.000000
        s9                             5.000000
      * Repulsion:
        kExp                           1.500000    1.000000
        rExp                           1.000000
      * Coulomb:
        alpha                          2.000000
        third order                    shell-resolved
        anisotropic                    true
        a3                             3.000000
        a5                             4.000000
        cn-shift                       1.200000
        cn-exp                         4.000000
        max-rad                        5.000000

      * Solvation model:               ALPB
        Solvent                        water
        Parameter file                 internal GFN2-xTB/ALPB
        Dielectric constant                8.0200E+01
        Reference state                gsolv=reference [X=1]
        Free energy shift                  2.8945E-03 Eh       1.8164E+00 kcal/mol
        Temperature                        2.9815E+02 K
        Density                            1.0000E+00 kg/L
        Solvent mass                       1.8000E+01 g/mol
        Interaction kernel             P16
        Born radius scaling (c1)           1.4744E+00
        Born radii integrator          GBOBC
        Born offset                        0.0000E+00 a0       0.0000E+00 AA
        H-bond correction              true
        Ion screening                  false
        Surface tension                    1.0000E-05 Eh       1.5569E+01 dyn/cm
        Grid points                               974 per atom

          ...................................................
          :                      SETUP                      :
          :.................................................:
          :  # basis functions                  30          :
          :  # atomic orbitals                  30          :
          :  # shells                           20          :
          :  # electrons                        32          :
          :  max. iterations                   250          :
          :  Hamiltonian                  GFN2-xTB          :
          :  restarted?                      false          :
          :  GBSA solvation                   true          :
          :  PC potential                    false          :
          :  electronic temp.          300.0000000     K    :
          :  accuracy                    1.0000000          :
          :  -> integral cutoff          0.2500000E+02      :
          :  -> integral neglect         0.1000000E-07      :
          :  -> SCF convergence          0.1000000E-05 Eh   :
          :  -> wf. convergence          0.1000000E-03 e    :
          :  Broyden damping             0.4000000          :
          :  net charge                          0          :
          :  unpaired electrons                  0          :
          ...................................................

 iter      E             dE          RMSdq      gap      omega  full diag
   1    -17.8930786 -0.178931E+02  0.354E+00   11.77       0.0  T
   2    -17.9296280 -0.365493E-01  0.174E+00   11.39       1.0  T
   3    -17.9302943 -0.666290E-03  0.703E-01   11.44       1.0  T
   4    -17.9304505 -0.156207E-03  0.114E-01   11.46       1.0  T
   5    -17.9304659 -0.154867E-04  0.611E-02   11.48       1.0  T
   6    -17.9304670 -0.108708E-05  0.663E-03   11.49       3.9  T
   7    -17.9304671 -0.114334E-06  0.235E-03   11.49      11.0  T
   8    -17.9304672 -0.570158E-08  0.110E-03   11.49      23.5  T
   9    -17.9304672 -0.441619E-08  0.151E-04   11.49     171.4  T
  10    -17.9304672  0.567937E-10  0.109E-04   11.49     236.2  T

   *** convergence criteria satisfied after 10 iterations ***

         #    Occupation            Energy/Eh            Energy/eV
      -------------------------------------------------------------
         1        2.0000           -0.6966625             -18.9572
       ...           ...                  ...                  ...
        10        2.0000           -0.4921476             -13.3920
        11        2.0000           -0.4680930             -12.7375
        12        2.0000           -0.4615913             -12.5605
        13        2.0000           -0.4602611             -12.5243
        14        2.0000           -0.4437804             -12.0759
        15        2.0000           -0.4263729             -11.6022
        16        2.0000           -0.3987281             -10.8499 (HOMO)
        17                          0.0234327               0.6376 (LUMO)
        18                          0.0864939               2.3536
        19                          0.1185069               3.2247
        20                          0.1230618               3.3487
        21                          0.1236669               3.3651
       ...                                ...                  ...
        30                          0.2992000               8.1416
      -------------------------------------------------------------
                  HL-Gap            0.4221608 Eh           11.4876 eV
             Fermi-level           -0.1876477 Eh           -5.1062 eV

 SCC (total)                   0 d,  0 h,  0 min,  0.014 sec
 SCC setup                      ...        0 min,  0.001 sec (  4.917%)
 Dispersion                     ...        0 min,  0.000 sec (  0.396%)
 classical contributions        ...        0 min,  0.000 sec (  0.086%)
 integral evaluation            ...        0 min,  0.001 sec (  4.996%)
 iterations                     ...        0 min,  0.011 sec ( 76.263%)
 molecular gradient             ...        0 min,  0.002 sec ( 12.607%)
 printout                       ...        0 min,  0.000 sec (  0.653%)

         :::::::::::::::::::::::::::::::::::::::::::::::::::::
         ::                     SUMMARY                     ::
         :::::::::::::::::::::::::::::::::::::::::::::::::::::
         :: total energy             -17.720839255926 Eh    ::
         :: total w/o Gsasa/hb       -17.722934086874 Eh    ::
         :: gradient norm              0.000268777113 Eh/a0 ::
         :: HOMO-LUMO gap             11.487580410597 eV    ::
         ::.................................................::
         :: SCC energy               -17.930455429857 Eh    ::
         :: -> isotropic ES            0.026472224129 Eh    ::
         :: -> anisotropic ES          0.003511348315 Eh    ::
         :: -> anisotropic XC          0.006301847857 Eh    ::
         :: -> dispersion             -0.007186715851 Eh    ::
         :: -> Gsolv                  -0.001446128757 Eh    ::
         ::    -> Gelec               -0.003540959704 Eh    ::
         ::    -> Gsasa                0.000151914292 Eh    ::
         ::    -> Ghb                 -0.000951632504 Eh    ::
         ::    -> Gshift               0.002894549160 Eh    ::
         :: repulsion energy           0.209616173931 Eh    ::
         :: add. restraining           0.000000000000 Eh    ::
         :: total charge              -0.000000000000 e     ::
         :::::::::::::::::::::::::::::::::::::::::::::::::::::

           -------------------------------------------------
          |                Property Printout                |
           -------------------------------------------------

    * Orbital Energies and Occupations

         #    Occupation            Energy/Eh            Energy/eV
      -------------------------------------------------------------
         1        2.0000           -0.6966625             -18.9572
       ...           ...                  ...                  ...
         4        2.0000           -0.5962575             -16.2250
         5        2.0000           -0.5646624             -15.3652
         6        2.0000           -0.5491721             -14.9437
         7        2.0000           -0.5457943             -14.8518
         8        2.0000           -0.5166526             -14.0588
         9        2.0000           -0.4968354             -13.5196
        10        2.0000           -0.4921476             -13.3920
        11        2.0000           -0.4680930             -12.7375
        12        2.0000           -0.4615913             -12.5605
        13        2.0000           -0.4602611             -12.5243
        14        2.0000           -0.4437804             -12.0759
        15        2.0000           -0.4263729             -11.6022
        16        2.0000           -0.3987281             -10.8499 (HOMO)
        17                          0.0234327               0.6376 (LUMO)
        18                          0.0864939               2.3536
        19                          0.1185069               3.2247
        20                          0.1230618               3.3487
        21                          0.1236669               3.3651
        22                          0.1492593               4.0616
        23                          0.1680444               4.5727
        24                          0.1951757               5.3110
        25                          0.2005959               5.4585
        26                          0.2080124               5.6603
        27                          0.2475399               6.7359
       ...                                ...                  ...
        30                          0.2992000               8.1416
      -------------------------------------------------------------
                  HL-Gap            0.4221608 Eh           11.4876 eV
             Fermi-level           -0.1876477 Eh           -5.1062 eV

     #   Z          covCN         q      C6AA      α(0)
     1   6 C        3.750    -0.125    22.969     6.835
     2   6 C        3.685     0.077    19.485     6.320
     3   8 O        1.698    -0.370    20.269     6.078
     4   6 C        3.685     0.077    19.484     6.320
     5   6 C        3.750    -0.125    22.970     6.835
     6   1 H        0.925     0.047     2.356     2.400
     7   1 H        0.925     0.051     2.304     2.374
     8   1 H        0.925     0.054     2.273     2.358
     9   1 H        0.924     0.052     2.300     2.371
    10   1 H        0.924     0.030     2.592     2.518
    11   1 H        0.924     0.052     2.299     2.371
    12   1 H        0.924     0.030     2.593     2.518
    13   1 H        0.925     0.047     2.356     2.400
    14   1 H        0.925     0.051     2.304     2.374
    15   1 H        0.925     0.054     2.273     2.358

 Mol. C6AA /au·bohr⁶  :       1459.600541
 Mol. C8AA /au·bohr⁸  :      29709.793117
 Mol. α(0) /au        :         56.430209


Wiberg/Mayer (AO) data.
largest (>0.10) Wiberg bond orders for each atom

 ---------------------------------------------------------------------------
     #   Z sym  total        # sym  WBO       # sym  WBO       # sym  WBO
 ---------------------------------------------------------------------------
     1   6 C    3.994 --     2 C    1.011     7 H    0.986     6 H    0.985
                             8 H    0.984
     2   6 C    3.948 --     1 C    1.011     3 O    0.973     9 H    0.971
                            10 H    0.969
     3   8 O    2.047 --     4 C    0.973     2 C    0.973
     4   6 C    3.948 --     5 C    1.011     3 O    0.973    11 H    0.971
                            12 H    0.969
     5   6 C    3.994 --     4 C    1.011    14 H    0.986    13 H    0.985
                            15 H    0.984
     6   1 H    0.998 --     1 C    0.985
     7   1 H    0.997 --     1 C    0.986
     8   1 H    0.997 --     1 C    0.984
     9   1 H    0.997 --     2 C    0.971
    10   1 H    0.999 --     2 C    0.969
    11   1 H    0.997 --     4 C    0.971
    12   1 H    0.999 --     4 C    0.969
    13   1 H    0.998 --     5 C    0.985
    14   1 H    0.997 --     5 C    0.986
    15   1 H    0.997 --     5 C    0.984
 ---------------------------------------------------------------------------

Topologies differ in total number of bonds
Writing topology from bond orders to xtbtopo.mol

molecular dipole:
                 x           y           z       tot (Debye)
 q only:       -0.000       0.634      -0.001
   full:       -0.000       0.750      -0.001       1.907
molecular quadrupole (traceless):
                xx          xy          yy          xz          yz          zz
 q only:        2.931      -0.000      -2.711      -1.100       0.002      -0.220
  q+dip:        2.202      -0.001      -2.605      -0.790       0.005       0.403
   full:        2.615      -0.001      -2.852      -1.113       0.004       0.237


           -------------------------------------------------
          | TOTAL ENERGY              -17.720839255926 Eh   |
          | GRADIENT NORM               0.000268777113 Eh/α |
          | HOMO-LUMO GAP              11.487580410597 eV   |
           -------------------------------------------------

------------------------------------------------------------------------
 * finished run on 2025/04/07 at 02:42:52.508     
------------------------------------------------------------------------
 total:
 * wall-time:     0 d,  0 h,  0 min,  0.056 sec
 *  cpu-time:     0 d,  0 h,  0 min,  0.013 sec
 * ratio c/w:     0.230 speedup
 SCF:
 * wall-time:     0 d,  0 h,  0 min,  0.014 sec
 *  cpu-time:     0 d,  0 h,  0 min,  0.007 sec
 * ratio c/w:     0.495 speedup

