! r2scan-3c def2/J RI DEFGRID2 scfconv6 printgap
%output
    printlevel normal
end
%cpcm
    smd true
    smdsolvent "water"
end
* xyz 0 1
C -2.1223139715 -0.8965637563 -0.3471821282
C -1.2050770194 -0.3478908291 0.7648175773
H -1.7927331732 -0.409314893 1.6897042377
C -0.7722487565 1.119133409 0.5832975086
H -1.6304454326 1.6965648321 0.211202628
C 0.388682366 1.3010972298 -0.4134546454
H 0.8205831455 2.2927092146 -0.2187996955
C 1.5143012797 0.2871245881 -0.1097453627
H 2.163640468 0.2139081778 -0.9888111505
C 1.0255241892 -1.1413392925 0.2144569708
H 1.8194827844 -1.6128084948 0.8100932761
O -0.0964552529 -1.1984908682 1.0553070741
O 0.8210796032 -1.854976481 -0.9760302002
O 2.3179895177 0.7519694882 0.9477133456
O -0.0135869848 1.3316196301 -1.7501908689
O -0.3053858144 1.6465804172 1.8080376331
O -1.6011085701 -0.8590341555 -1.6532811342
H -3.0322669364 -0.2934145823 -0.3693979097
H -2.3865232175 -1.9262198968 -0.0775830457
H 0.8704185179 -2.8084837999 -0.8074837233
H 1.7375292424 1.0402140198 1.6726802656
H -0.6337981877 0.5896245581 -1.9308972294
H -1.0213621163 1.67243086 2.4589990035
H -0.7773895263 -1.3928737067 -1.6749549884
*
