15
CONF15
C 2.3878580256 0.4045275371 -0.0057889385
C 1.1854692846 -0.5045791727 0.1079740385
O -0.0014810454 0.2835788970 -0.0528572415
C -1.1875430252 -0.5181197138 0.0299809860
C -2.3911783888 0.3820339422 -0.1318371794
H 3.3053257283 -0.1778955799 0.1218572273
H 2.4218250226 0.8870324536 -0.9876512066
H 2.3643102206 1.1804788530 0.7658033482
H 1.1637809337 -1.0034389645 1.0898217454
H 1.2132797177 -1.2881373743 -0.6654709422
H -1.1657865276 -1.2878961819 -0.7573658135
H -1.2139092916 -1.0343013450 1.0026028596
H -3.3084051588 -0.2116731745 -0.0713640279
H -2.4202867356 1.1394991059 0.6577777856
H -2.3732204029 0.8874590008 -1.1026464448
15
CONF1
C 2.3902146815 0.3959180789 0.0000683945
C 1.1877104127 -0.5195569401 -0.0001794928
O 0.0000044923 0.2849967534 0.0000786452
C -1.1876997296 -0.5195596973 0.0000557306
C -2.3902060928 0.3959121728 -0.0000267993
H 2.3949593502 1.0335507460 0.8895529906
H 3.3086548440 -0.1986936543 -0.0002958521
H 2.3947417206 1.0342942035 -0.8888859093
H 1.1901857202 -1.1693293228 0.8889743623
H 1.1901452312 -1.1687942972 -0.8897242850
H -1.1901179357 -1.1690907924 -0.8892742919
H -1.1901879073 -1.1690390364 0.8894242859
H -2.3948808824 1.0339551850 0.8891638761
H -2.3948059818 1.0338776576 -0.8892746196
H -3.3086443086 -0.1987020773 -0.0000390571
