! r2scan-3c def2/J RI DEFGRID2 scfconv6 printgap
%output
    printlevel normal
end
%cpcm
    smd true
    smdsolvent "water"
end
* xyz 0 1
C 2.6440894492 -0.0006663519 2.0394990538
C 1.9235961472 1.2369153716 1.4984748386
H 1.9737704413 2.0658578638 2.2024199267
C 0.4654436602 0.7776408381 1.3207021558
H -0.076486284 1.1600287873 2.1878344252
C 0.4649789496 -0.777830734 1.3207748276
H -0.0772469737 -1.1597621334 2.1879242906
C 1.9228545145 -1.2379528294 1.4987120002
H 1.9724705541 -2.0667754297 2.2028536745
Cl 2.7359211092 -1.8946476989 0.0344787541
C -0.4055419262 -1.1198952808 0.082404961
C -1.8011993324 -0.668910079 0.5224224125
C -1.8008082107 0.6700502577 0.5223356821
C -0.4048724938 1.1201816731 0.0823410501
C -0.1417313791 1.32377e-05 -0.9535461876
Cl 1.3640523263 -0.000460922 -1.8388651755
Cl -1.4076530686 0.0004041821 -2.2347771154
Cl -0.3213972202 2.7667999187 -0.5126807836
Cl -3.0202642317 1.7454566624 0.9765473679
Cl -3.0212912314 -1.7435539558 0.9768815977
Cl -0.3231903721 -2.7665896444 -0.5125351466
Cl 2.7369144487 1.8928059805 0.0340096062
H 2.5577056636 -0.0005010868 3.1252212892
H 3.6983235357 -0.0009848329 1.77571951
*
