! wb97x-v def2-tzvp def2/J RIJCOSX DEFGRID2 scfconv7 GCP(DFT/TZ) printgap
%output
    printlevel normal
end
%cpcm
    smd true
    smdsolvent "water"
end
* xyz 0 1
C -3.950859611237356 -0.3131653930033243 -0.0020577210282457822
C -3.739197493585755 1.066269497801832 -0.0018930055784476857
C -2.4476646240899114 1.5760139791208034 -0.0007219310975443489
C -1.3491420097932258 0.7130248146030829 0.00018615798794905882
C -1.5637165278304794 -0.6757174403554259 6.602745686217931e-05
C -2.8676519730782037 -1.179831437464024 -0.0009707156027308344
C -0.4202995015576159 -1.607568317678166 0.0009962639938122686
O -0.5997628301885554 -2.8296183298773365 0.0020716229531364248
C 0.9466049962259835 -1.0326641753824921 0.00042843787504596683
C 2.0154770593298528 -1.9136216346403954 -6.375917032464651e-05
C 3.324842750356512 -1.4181620931149828 -0.0010736670137734615
C 3.5628979608383013 -0.06514948343418427 -0.0015179807956589612
C 2.495103656955164 0.8685303205430376 -0.0008031591587390957
C 1.1531440320779913 0.37541720184780397 0.0001757432224045375
C 0.021493268100021518 1.2844861557091645 0.001063063476583571
O 0.1572682487387098 2.525415730455583 0.002019687728016847
N 2.7918959456015044 2.1819682321435723 -0.0013186977717664049
H -4.961341655652434 -0.7078889032770601 -0.0030688613589786662
H -4.586124220212409 1.7445619015378753 -0.0027261293627201676
H -2.2815209661028817 2.6470043315536143 -0.0005817406617393633
H -3.0204445994080467 -2.253104196214298 -0.0010248622156614304
H 1.8309407682532852 -2.9807757488766193 0.0002298359186597871
H 4.1621088035106295 -2.1084895630347305 -0.0015582480926311956
H 4.579574969474994 0.31687260172229814 -0.0023649354708462134
H 2.0398247120475888 2.855624904500246 0.0003459755550988124
H 3.7572443820932397 2.4699489059505795 -0.0013745125591470083
*
