! wb97x-v def2-tzvp def2/J RIJCOSX DEFGRID2 scfconv7 GCP(DFT/TZ) printgap
%output
    printlevel normal
end
%cpcm
    smd true
    smdsolvent "water"
end
* xyz 0 1
C -3.0723894186159346 0.060513603161063974 0.30964889962212594
C -2.0104484549769666 -0.25237772977423084 -0.7451623436453331
H -2.5184321615688625 -0.4027810308178681 -1.705173039529177
C -1.2082579751845814 -1.5185517381741833 -0.4153166999318678
C -0.3056255197656465 -1.3297400390442704 0.8044928377234879
C 0.6669029638828076 -0.13839717258390968 0.6416877647684727
H 1.154867174599737 0.0706510628732584 1.6022160261115617
C -0.14479376265280205 1.0834915511420034 0.27796116931297205
O -0.09281305114025323 2.1193933145637502 0.940081814216885
C -1.0454132328111463 0.9465936731250211 -0.9183678637258642
C 1.790703549430675 -0.3809573651639901 -0.4034118346960392
C 2.6124479379152454 0.8934426207365402 -0.6085322744853923
C 2.7006976535018823 -1.5275235998398218 0.03696261867757026
H -3.748402153884355 -0.7910346280803479 0.44087293299102054
H -2.6278526730872627 0.29009254761251047 1.2845565690770582
H -3.6714993742652333 0.9269730581844104 0.0102439255680238
H -1.899595660019899 -2.349488159079019 -0.23250050969099278
H -0.6021135438858557 -1.7973676760110329 -1.2857544765579434
H -0.9199484167125549 -1.153623594921819 1.6949814210802476
H 0.2658277311266343 -2.241160734963255 1.0030019386981421
H -1.5939720435434603 1.8804310487964628 -1.0708104332511743
H -0.41263166357407777 0.7655154283730059 -1.7974626786972643
H 1.329288085908959 -0.6528242219359478 -1.360583293152052
H 2.0098069862059584 1.712324881351042 -1.0168003703451103
H 3.4376942774038364 0.7099666285783383 -1.304017154964963
H 3.0409753042811936 1.233109208964446 0.3424731595236353
H 3.5268733359113758 -1.6443095586674015 -0.6723551112198795
H 2.173267100893415 -2.4840660352853643 0.08707160205276633
H 3.130828114982423 -1.321492314829041 1.0245803188071543
*
