! r2scan-3c def2/J RI DEFGRID2 scfconv6 printgap
%output
    printlevel normal
end
%cpcm
    smd true
    smdsolvent "water"
end
* xyz 0 1
C -2.9235926564 -1.7483e-05 -0.0594815427
C -1.4501149351 0.000164193 0.3388298423
C -0.7403988618 -1.2475156572 -0.1879066726
C 0.7356506172 -1.2457615704 0.1994460551
C 1.4448156236 0.00016908 -0.3354476594
C 0.7353754629 1.2456672836 0.19998366
C -0.7402970988 1.2475042226 -0.188460928
C 2.9373715339 -0.0001183877 0.0353566634
H -3.4257842961 -0.8808845615 0.3337829414
H -3.4244000212 0.8842089548 0.328016485
H -3.0230527445 -0.0034610318 -1.1429816638
H -1.3838522424 0.0004451391 1.433113533
H -1.2241656734 -2.1424384508 0.2098203234
H -0.8290788597 -1.2767226763 -1.2768139603
H 0.8244525505 -1.2679036062 1.2885444027
H 1.2191305778 -2.1420443572 -0.195657024
H 1.3460060639 0.0005300732 -1.4266241646
H 0.8232697695 1.2669133987 1.2891153974
H 1.2191531866 2.1422753279 -0.1939303374
H -1.2243080907 2.142693343 0.2082943082
H -0.828177886 1.2758510066 -1.2773860679
H 3.5641459907 -0.0064042266 -0.8521886765
H 3.1889704421 -0.8756353712 0.6288729115
H 3.1918760422 0.8814844915 0.6183814148
*
