! wb97x-v def2-tzvp def2/J RIJCOSX DEFGRID2 scfconv7 GCP(DFT/TZ) printgap
%output
    printlevel normal
end
* xyz 0 1
C -0.7370524559248217 -3.096802450980666e-05 9.534915121964908e-06
F 0.674839394146895 5.309527537790244e-05 6.779453745921079e-06
H -1.0797781008119245 0.979360963898613 0.3430794152738554
H -1.079763414925427 -0.19257316180293826 -1.0197651405943244
H -1.079744960021925 -0.7868799466595162 0.6766410887945228
*
