! wb97x-v def2-tzvp def2/J RIJCOSX DEFGRID2 scfconv7 GCP(DFT/TZ) printgap
%output
    printlevel normal
end
* xyz 0 1
C -2.491548959702962 0.23054538576688716 0.3989246335615967
C -1.7651345336611153 0.043163696453854365 -0.9271192806636986
C -0.5205160508552492 -0.8067068819249704 -0.8416982705718199
Br 0.9093150978891558 0.05366849589939868 0.2692587248938498
H -2.74577277006745 -0.7374566376805641 0.8446971170963432
H -1.8722868027843687 0.7811913945983038 1.1137948495895316
H -3.4193111439736765 0.791877529411256 0.2542653955780498
H -1.5249407964182795 1.011989517546032 -1.3784314651238552
H -2.4232730420629696 -0.47850601503037193 -1.63689644800636
H -0.05076229246911617 -0.9599445066887564 -1.812311945501882
H -0.7022302219444149 -1.7664230458963528 -0.35663446511000246
*
