      -----------------------------------------------------------      
     |                   =====================                   |     
     |                           x T B                           |     
     |                   =====================                   |     
     |                         S. Grimme                         |     
     |          Mulliken Center for Theoretical Chemistry        |     
     |                    University of Bonn                     |     
      -----------------------------------------------------------      

   * xtb version 6.7.1 (edcfbbe) compiled by 'albert@albert-system' on 2024-07-22

   xtb is free software: you can redistribute it and/or modify it under
   the terms of the GNU Lesser General Public License as published by
   the Free Software Foundation, either version 3 of the License, or
   (at your option) any later version.
   
   xtb is distributed in the hope that it will be useful,
   but WITHOUT ANY WARRANTY; without even the implied warranty of
   MERCHANTABILITY or FITNESS FOR A PARTICULAR PURPOSE.  See the
   GNU Lesser General Public License for more details.
   
   Cite this work as:
   * C. Bannwarth, E. Caldeweyher, S. Ehlert, A. Hansen, P. Pracht,
     J. Seibert, S. Spicher, S. Grimme, WIREs Comput. Mol. Sci., 2020, 11,
     e01493. DOI: 10.1002/wcms.1493
   
   for GFN2-xTB:
   * C. Bannwarth, S. Ehlert and S. Grimme., J. Chem. Theory Comput., 2019,
     15, 1652-1671. DOI: 10.1021/acs.jctc.8b01176
   for GFN1-xTB:
   * S. Grimme, C. Bannwarth, P. Shushkov, J. Chem. Theory Comput., 2017,
     13, 1989-2009. DOI: 10.1021/acs.jctc.7b00118
   for GFN0-xTB:
   * P. Pracht, E. Caldeweyher, S. Ehlert, S. Grimme, ChemRxiv, 2019, preprint.
     DOI: 10.26434/chemrxiv.8326202.v1
   for GFN-FF:
   * S. Spicher and S. Grimme, Angew. Chem. Int. Ed., 2020, 59, 15665-15673.
     DOI: 10.1002/anie.202004239
   
   for ALPB and GBSA implicit solvation:
   * S. Ehlert, M. Stahn, S. Spicher, S. Grimme, J. Chem. Theory Comput.,
     2021, 17, 4250-4261. DOI: 10.1021/acs.jctc.1c00471
   
   for ddCOSMO and CPCM-X implicit solvation:
   * M. Stahn, S. Ehlert, S. Grimme, J. Phys. Chem. A,
     2023, XX, XXXX-XXXX. DOI: 10.1021/acs.jpca.3c04382
   
   for DFT-D4:
   * E. Caldeweyher, C. Bannwarth and S. Grimme, J. Chem. Phys., 2017,
     147, 034112. DOI: 10.1063/1.4993215
   * E. Caldeweyher, S. Ehlert, A. Hansen, H. Neugebauer, S. Spicher,
     C. Bannwarth and S. Grimme, J. Chem. Phys., 2019, 150, 154122.
     DOI: 10.1063/1.5090222
   * E. Caldeweyher, J.-M. Mewes, S. Ehlert and S. Grimme, Phys. Chem. Chem. Phys.
     2020, 22, 8499-8512. DOI: 10.1039/D0CP00502A
   
   for sTDA-xTB:
   * S. Grimme and C. Bannwarth, J. Chem. Phys., 2016, 145, 054103.
     DOI: 10.1063/1.4959605
   
   in the mass-spec context:
   * V. Asgeirsson, C. Bauer and S. Grimme, Chem. Sci., 2017, 8, 4879.
     DOI: 10.1039/c7sc00601b
   * J. Koopman and S. Grimme, ACS Omega 2019, 4, 12, 15120-15133.
     DOI: 10.1021/acsomega.9b02011
   
   for metadynamics refer to:
   * S. Grimme, J. Chem. Theory Comput., 2019, 155, 2847-2862
     DOI: 10.1021/acs.jctc.9b00143
   
   for SPH calculations refer to:
   * S. Spicher and S. Grimme, J. Chem. Theory Comput., 2021, 17, 1701-1714
     DOI: 10.1021/acs.jctc.0c01306
   
   for ONIOM refer to:
   * C. Plett, A. Katbashev, S. Ehlert, S. Grimme, M. Bursch,
     Phys. Chem. Chem. Phys., 2023, 25, 17860-17868. DOI: 10.1039/D3CP02178E
   
   for DIPRO refer to:
   * J. Kohn, N. Gildemeister, S. Grimme, D. Fazzi, A. Hansen,
     J. Chem. Phys., 2023, just accepted.
   
   for PTB refer to:
   * S. Grimme, M. Mueller, A. Hansen, J. Chem. Phys., 2023, 158, 124111.
     DOI: 10.1063/5.0137838
   
   with help from (in alphabetical order)
   P. Atkinson, C. Bannwarth, F. Bohle, G. Brandenburg, E. Caldeweyher
   M. Checinski, S. Dohm, S. Ehlert, S. Ehrlich, I. Gerasimov, C. Hölzer
   A. Katbashev, J. Kohn, J. Koopman, C. Lavigne, S. Lehtola, F. März, M. Müller,
   F. Musil, H. Neugebauer, J. Pisarek, C. Plett, P. Pracht, F. Pultar,
   J. Seibert, P. Shushkov, S. Spicher, M. Stahn, M. Steiner, T. Strunk,
   J. Stückrath, T. Rose, and J. Unsleber
   
 * started run on 2025/04/07 at 02:42:52.451     
   ID    Z sym.   atoms
    1    6 C      1, 2, 4, 5
    2    8 O      3
    3    1 H      6-15

           -------------------------------------------------
          |                Calculation Setup                |
           -------------------------------------------------

          program call               : /srv/scratch/z5358697/.xtb/bin/xtb solv.coord --gfn2 --sp --chrg 0 --norestart --parallel 1 --alpb water reference -I xtb_sp-xcontrol-inp
          hostname                   : k140
          coordinate file            : solv.coord
          omp threads                :                     1


           -------------------------------------------------
          |                 G F N 2 - x T B                 |
           -------------------------------------------------

        Reference                      10.1021/acs.jctc.8b01176
      * Hamiltonian:
        H0-scaling (s, p, d)           1.850000    2.230000    2.230000
        zeta-weighting                 0.500000
      * Dispersion:
        s8                             2.700000
        a1                             0.520000
        a2                             5.000000
        s9                             5.000000
      * Repulsion:
        kExp                           1.500000    1.000000
        rExp                           1.000000
      * Coulomb:
        alpha                          2.000000
        third order                    shell-resolved
        anisotropic                    true
        a3                             3.000000
        a5                             4.000000
        cn-shift                       1.200000
        cn-exp                         4.000000
        max-rad                        5.000000

      * Solvation model:               ALPB
        Solvent                        water
        Parameter file                 internal GFN2-xTB/ALPB
        Dielectric constant                8.0200E+01
        Reference state                gsolv=reference [X=1]
        Free energy shift                  2.8945E-03 Eh       1.8164E+00 kcal/mol
        Temperature                        2.9815E+02 K
        Density                            1.0000E+00 kg/L
        Solvent mass                       1.8000E+01 g/mol
        Interaction kernel             P16
        Born radius scaling (c1)           1.4744E+00
        Born radii integrator          GBOBC
        Born offset                        0.0000E+00 a0       0.0000E+00 AA
        H-bond correction              true
        Ion screening                  false
        Surface tension                    1.0000E-05 Eh       1.5569E+01 dyn/cm
        Grid points                               974 per atom

          ...................................................
          :                      SETUP                      :
          :.................................................:
          :  # basis functions                  30          :
          :  # atomic orbitals                  30          :
          :  # shells                           20          :
          :  # electrons                        32          :
          :  max. iterations                   250          :
          :  Hamiltonian                  GFN2-xTB          :
          :  restarted?                      false          :
          :  GBSA solvation                   true          :
          :  PC potential                    false          :
          :  electronic temp.          300.0000000     K    :
          :  accuracy                    1.0000000          :
          :  -> integral cutoff          0.2500000E+02      :
          :  -> integral neglect         0.1000000E-07      :
          :  -> SCF convergence          0.1000000E-05 Eh   :
          :  -> wf. convergence          0.1000000E-03 e    :
          :  Broyden damping             0.4000000          :
          :  net charge                          0          :
          :  unpaired electrons                  0          :
          ...................................................

 iter      E             dE          RMSdq      gap      omega  full diag
   1    -17.8909209 -0.178909E+02  0.391E+00   11.71       0.0  T
   2    -17.9292094 -0.382885E-01  0.201E+00   11.24       1.0  T
   3    -17.9301230 -0.913647E-03  0.751E-01   11.29       1.0  T
   4    -17.9303676 -0.244600E-03  0.141E-01   11.35       1.0  T
   5    -17.9303969 -0.292894E-04  0.784E-02   11.38       1.0  T
   6    -17.9304000 -0.307226E-05  0.104E-02   11.39       2.5  T
   7    -17.9304002 -0.193694E-06  0.427E-03   11.39       6.0  T
   8    -17.9304002 -0.190297E-07  0.187E-03   11.39      13.8  T
   9    -17.9304002 -0.264786E-07  0.268E-04   11.39      96.5  T
  10    -17.9304002  0.371614E-10  0.156E-04   11.39     165.0  T

   *** convergence criteria satisfied after 10 iterations ***

         #    Occupation            Energy/Eh            Energy/eV
      -------------------------------------------------------------
         1        2.0000           -0.6992052             -19.0263
       ...           ...                  ...                  ...
        10        2.0000           -0.4758869             -12.9495
        11        2.0000           -0.4625357             -12.5862
        12        2.0000           -0.4615985             -12.5607
        13        2.0000           -0.4545504             -12.3689
        14        2.0000           -0.4479823             -12.1902
        15        2.0000           -0.4410854             -12.0025
        16        2.0000           -0.3993511             -10.8669 (HOMO)
        17                          0.0193007               0.5252 (LUMO)
        18                          0.1022223               2.7816
        19                          0.1080071               2.9390
        20                          0.1463268               3.9818
        21                          0.1471117               4.0031
       ...                                ...                  ...
        30                          0.2746417               7.4734
      -------------------------------------------------------------
                  HL-Gap            0.4186518 Eh           11.3921 eV
             Fermi-level           -0.1900252 Eh           -5.1708 eV

 SCC (total)                   0 d,  0 h,  0 min,  0.017 sec
 SCC setup                      ...        0 min,  0.001 sec (  4.043%)
 Dispersion                     ...        0 min,  0.000 sec (  0.343%)
 classical contributions        ...        0 min,  0.000 sec (  0.077%)
 integral evaluation            ...        0 min,  0.001 sec (  4.078%)
 iterations                     ...        0 min,  0.013 sec ( 78.962%)
 molecular gradient             ...        0 min,  0.002 sec ( 11.857%)
 printout                       ...        0 min,  0.000 sec (  0.581%)

         :::::::::::::::::::::::::::::::::::::::::::::::::::::
         ::                     SUMMARY                     ::
         :::::::::::::::::::::::::::::::::::::::::::::::::::::
         :: total energy             -17.721336557815 Eh    ::
         :: total w/o Gsasa/hb       -17.723048336664 Eh    ::
         :: gradient norm              0.000089400054 Eh/a0 ::
         :: HOMO-LUMO gap             11.392095016276 eV    ::
         ::.................................................::
         :: SCC energy               -17.930394612762 Eh    ::
         :: -> isotropic ES            0.025260080317 Eh    ::
         :: -> anisotropic ES          0.003203373997 Eh    ::
         :: -> anisotropic XC          0.005835602822 Eh    ::
         :: -> dispersion             -0.006575574229 Eh    ::
         :: -> Gsolv                  -0.001552062900 Eh    ::
         ::    -> Gelec               -0.003263841749 Eh    ::
         ::    -> Gsasa               -0.000205750462 Eh    ::
         ::    -> Ghb                 -0.000977019850 Eh    ::
         ::    -> Gshift               0.002894549160 Eh    ::
         :: repulsion energy           0.209058054947 Eh    ::
         :: add. restraining           0.000000000000 Eh    ::
         :: total charge               0.000000000000 e     ::
         :::::::::::::::::::::::::::::::::::::::::::::::::::::

           -------------------------------------------------
          |                Property Printout                |
           -------------------------------------------------

    * Orbital Energies and Occupations

         #    Occupation            Energy/Eh            Energy/eV
      -------------------------------------------------------------
         1        2.0000           -0.6992052             -19.0263
       ...           ...                  ...                  ...
         4        2.0000           -0.5914108             -16.0931
         5        2.0000           -0.5782529             -15.7351
         6        2.0000           -0.5525139             -15.0347
         7        2.0000           -0.5482016             -14.9173
         8        2.0000           -0.5148378             -14.0095
         9        2.0000           -0.5062374             -13.7754
        10        2.0000           -0.4758869             -12.9495
        11        2.0000           -0.4625357             -12.5862
        12        2.0000           -0.4615985             -12.5607
        13        2.0000           -0.4545504             -12.3689
        14        2.0000           -0.4479823             -12.1902
        15        2.0000           -0.4410854             -12.0025
        16        2.0000           -0.3993511             -10.8669 (HOMO)
        17                          0.0193007               0.5252 (LUMO)
        18                          0.1022223               2.7816
        19                          0.1080071               2.9390
        20                          0.1463268               3.9818
        21                          0.1471117               4.0031
        22                          0.1562582               4.2520
        23                          0.1656823               4.5084
        24                          0.1776976               4.8354
        25                          0.1818190               4.9475
        26                          0.1935515               5.2668
        27                          0.2518247               6.8525
       ...                                ...                  ...
        30                          0.2746417               7.4734
      -------------------------------------------------------------
                  HL-Gap            0.4186518 Eh           11.3921 eV
             Fermi-level           -0.1900252 Eh           -5.1708 eV

     #   Z          covCN         q      C6AA      α(0)
     1   6 C        3.751    -0.126    22.982     6.837
     2   6 C        3.696     0.088    19.273     6.280
     3   8 O        1.701    -0.360    20.072     6.049
     4   6 C        3.696     0.088    19.273     6.280
     5   6 C        3.751    -0.126    22.983     6.837
     6   1 H        0.925     0.060     2.199     2.319
     7   1 H        0.925     0.060     2.198     2.318
     8   1 H        0.925     0.060     2.199     2.319
     9   1 H        0.923     0.019     2.752     2.594
    10   1 H        0.923     0.019     2.752     2.594
    11   1 H        0.923     0.019     2.752     2.595
    12   1 H        0.923     0.019     2.752     2.595
    13   1 H        0.925     0.060     2.199     2.319
    14   1 H        0.925     0.060     2.199     2.319
    15   1 H        0.925     0.060     2.198     2.318

 Mol. C6AA /au·bohr⁶  :       1466.572549
 Mol. C8AA /au·bohr⁸  :      29781.423637
 Mol. α(0) /au        :         56.572541


Wiberg/Mayer (AO) data.
largest (>0.10) Wiberg bond orders for each atom

 ---------------------------------------------------------------------------
     #   Z sym  total        # sym  WBO       # sym  WBO       # sym  WBO
 ---------------------------------------------------------------------------
     1   6 C    3.990 --     2 C    1.016     6 H    0.985     8 H    0.985
                             7 H    0.984
     2   6 C    3.950 --     1 C    1.016     3 O    0.974     9 H    0.969
                            10 H    0.969
     3   8 O    2.044 --     4 C    0.974     2 C    0.974
     4   6 C    3.950 --     5 C    1.016     3 O    0.974    11 H    0.969
                            12 H    0.969
     5   6 C    3.990 --     4 C    1.016    13 H    0.985    14 H    0.985
                            15 H    0.984
     6   1 H    0.996 --     1 C    0.985
     7   1 H    0.996 --     1 C    0.984
     8   1 H    0.996 --     1 C    0.985
     9   1 H    1.000 --     2 C    0.969
    10   1 H    1.000 --     2 C    0.969
    11   1 H    1.000 --     4 C    0.969
    12   1 H    1.000 --     4 C    0.969
    13   1 H    0.996 --     5 C    0.985
    14   1 H    0.996 --     5 C    0.985
    15   1 H    0.996 --     5 C    0.984
 ---------------------------------------------------------------------------

Topologies differ in total number of bonds
Writing topology from bond orders to xtbtopo.mol

molecular dipole:
                 x           y           z       tot (Debye)
 q only:       -0.000      -0.271      -0.000
   full:       -0.000      -0.493      -0.000       1.254
molecular quadrupole (traceless):
                xx          xy          yy          xz          yz          zz
 q only:        4.495      -0.000      -1.958      -0.000      -0.000      -2.538
  q+dip:        1.770      -0.000      -1.621       0.000      -0.001      -0.150
   full:        2.800      -0.000      -1.614      -0.000      -0.000      -1.185


           -------------------------------------------------
          | TOTAL ENERGY              -17.721336557815 Eh   |
          | GRADIENT NORM               0.000089400054 Eh/α |
          | HOMO-LUMO GAP              11.392095016276 eV   |
           -------------------------------------------------

------------------------------------------------------------------------
 * finished run on 2025/04/07 at 02:42:52.509     
------------------------------------------------------------------------
 total:
 * wall-time:     0 d,  0 h,  0 min,  0.057 sec
 *  cpu-time:     0 d,  0 h,  0 min,  0.013 sec
 * ratio c/w:     0.238 speedup
 SCF:
 * wall-time:     0 d,  0 h,  0 min,  0.017 sec
 *  cpu-time:     0 d,  0 h,  0 min,  0.007 sec
 * ratio c/w:     0.426 speedup

