15
 xtb: 6.7.1 (edcfbbe)
C            2.45266804326228       -0.03306673410852        0.12036841567696
C            0.99662800614984        0.39433064132918        0.28170359429293
C            0.05464986481129       -0.40822246262379       -0.61366412749578
C           -1.40097390376246        0.01718939992149       -0.51300583758413
O           -1.94600896085384       -0.14799069985005        0.81350446064216
H            2.58046775130630       -1.09169767968763        0.37349868575151
H            2.79100818282242        0.10554393290707       -0.91287433439638
H            3.11453973015639        0.54833970557627        0.77087686082281
H            0.69537156821907        0.27765443093326        1.32926174235118
H            0.89484088351967        1.46107991705628        0.04299710265474
H            0.36159556864810       -0.29758775794082       -1.66314874919457
H            0.13374835982653       -1.47901399139186       -0.37651467963303
H           -1.50260247815982        1.08455237425663       -0.73936417874426
H           -2.01028274032423       -0.54180064967326       -1.23775346530305
H           -1.88508091535855       -1.08784441225730        1.03015537169193
