15
 xtb: 6.7.1 (edcfbbe)
C            1.93078101927509       -0.56112132017554       -0.41175053286981
C            1.10957622623770        0.03009863677970        0.73220715832033
C           -0.00202933855257        0.97610650255929        0.26705162618572
C           -1.03841544462841        0.34213763661149       -0.64090975541535
O           -1.67508917824195       -0.74549373002355        0.06426813738603
H            2.34075134504797        0.23028619430645       -1.05050149967578
H            2.76999408878687       -1.14957137986650       -0.02693372484562
H            1.32985595528469       -1.22279514519303       -1.04462560596237
H            0.67761394264226       -0.77944652855705        1.33174237569389
H            1.77389178173906        0.58782344353540        1.40275639423521
H           -0.51229220342875        1.40140121672107        1.14053770641194
H            0.44065353588166        1.81660299868142       -0.28325766444193
H           -1.78885459567657        1.09307690793873       -0.92444189664449
H           -0.57299020594653       -0.03239958720234       -1.56347500983530
H           -2.31961781236904       -1.14021369259697       -0.53572366052410
