! wb97x-v def2-tzvp def2/J RIJCOSX DEFGRID2 scfconv7 GCP(DFT/TZ) printgap
%output
    printlevel normal
end
* xyz 0 1
C 3.3701180723450204 0.03179301870295848 0.15249315261444793
N 1.9491813393079591 -0.23646475177637172 0.37097560276250446
C 1.6511278150049427 -1.2152148335121897 1.416521997275328
C 1.057262121612218 0.21750541795909706 -0.5326030285575954
O 1.4128760123956299 0.82427921279794 -1.5663512382346305
C -0.4027534725807678 0.025190739887303495 -0.2718269130167209
C -1.203605607242952 -0.46642799941185453 -1.3064456209629753
C -2.577792596128618 -0.5838272204527984 -1.1299084713440875
C -3.1647203623798617 -0.18336813014544046 0.06913764104611024
C -2.371971139140448 0.32828232908506944 1.0940582171770363
C -0.9935978425884984 0.4246546384505803 0.9302264495628572
H 3.508304888653746 1.0349919242910142 -0.2534846146859972
H 3.810678741697014 -0.6956531982366599 -0.5408472966837377
H 3.8878816116102213 -0.03950865268008708 1.1119243514942303
H 2.3215614190086002 -2.0740487706889494 1.2990139516713062
H 0.6247502730407253 -1.5695867275459978 1.3362903350477882
H 1.8073214000707154 -0.7858386100874332 2.412081928652503
H -0.7427963347033194 -0.7621737749140158 -2.243830604864523
H -3.192320116816449 -0.9829102323811584 -1.930633386758799
H -4.238516979357089 -0.2658061938161999 0.20283766988594987
H -2.826969157529869 0.6534420830782005 2.024304374491651
H -0.3799868418763705 0.8237820352509649 1.731888795186976
*
