      -----------------------------------------------------------      
     |                   =====================                   |     
     |                           x T B                           |     
     |                   =====================                   |     
     |                         S. Grimme                         |     
     |          Mulliken Center for Theoretical Chemistry        |     
     |                    University of Bonn                     |     
      -----------------------------------------------------------      

   * xtb version 6.7.1 (edcfbbe) compiled by 'albert@albert-system' on 2024-07-22

   xtb is free software: you can redistribute it and/or modify it under
   the terms of the GNU Lesser General Public License as published by
   the Free Software Foundation, either version 3 of the License, or
   (at your option) any later version.
   
   xtb is distributed in the hope that it will be useful,
   but WITHOUT ANY WARRANTY; without even the implied warranty of
   MERCHANTABILITY or FITNESS FOR A PARTICULAR PURPOSE.  See the
   GNU Lesser General Public License for more details.
   
   Cite this work as:
   * C. Bannwarth, E. Caldeweyher, S. Ehlert, A. Hansen, P. Pracht,
     J. Seibert, S. Spicher, S. Grimme, WIREs Comput. Mol. Sci., 2020, 11,
     e01493. DOI: 10.1002/wcms.1493
   
   for GFN2-xTB:
   * C. Bannwarth, S. Ehlert and S. Grimme., J. Chem. Theory Comput., 2019,
     15, 1652-1671. DOI: 10.1021/acs.jctc.8b01176
   for GFN1-xTB:
   * S. Grimme, C. Bannwarth, P. Shushkov, J. Chem. Theory Comput., 2017,
     13, 1989-2009. DOI: 10.1021/acs.jctc.7b00118
   for GFN0-xTB:
   * P. Pracht, E. Caldeweyher, S. Ehlert, S. Grimme, ChemRxiv, 2019, preprint.
     DOI: 10.26434/chemrxiv.8326202.v1
   for GFN-FF:
   * S. Spicher and S. Grimme, Angew. Chem. Int. Ed., 2020, 59, 15665-15673.
     DOI: 10.1002/anie.202004239
   
   for ALPB and GBSA implicit solvation:
   * S. Ehlert, M. Stahn, S. Spicher, S. Grimme, J. Chem. Theory Comput.,
     2021, 17, 4250-4261. DOI: 10.1021/acs.jctc.1c00471
   
   for ddCOSMO and CPCM-X implicit solvation:
   * M. Stahn, S. Ehlert, S. Grimme, J. Phys. Chem. A,
     2023, XX, XXXX-XXXX. DOI: 10.1021/acs.jpca.3c04382
   
   for DFT-D4:
   * E. Caldeweyher, C. Bannwarth and S. Grimme, J. Chem. Phys., 2017,
     147, 034112. DOI: 10.1063/1.4993215
   * E. Caldeweyher, S. Ehlert, A. Hansen, H. Neugebauer, S. Spicher,
     C. Bannwarth and S. Grimme, J. Chem. Phys., 2019, 150, 154122.
     DOI: 10.1063/1.5090222
   * E. Caldeweyher, J.-M. Mewes, S. Ehlert and S. Grimme, Phys. Chem. Chem. Phys.
     2020, 22, 8499-8512. DOI: 10.1039/D0CP00502A
   
   for sTDA-xTB:
   * S. Grimme and C. Bannwarth, J. Chem. Phys., 2016, 145, 054103.
     DOI: 10.1063/1.4959605
   
   in the mass-spec context:
   * V. Asgeirsson, C. Bauer and S. Grimme, Chem. Sci., 2017, 8, 4879.
     DOI: 10.1039/c7sc00601b
   * J. Koopman and S. Grimme, ACS Omega 2019, 4, 12, 15120-15133.
     DOI: 10.1021/acsomega.9b02011
   
   for metadynamics refer to:
   * S. Grimme, J. Chem. Theory Comput., 2019, 155, 2847-2862
     DOI: 10.1021/acs.jctc.9b00143
   
   for SPH calculations refer to:
   * S. Spicher and S. Grimme, J. Chem. Theory Comput., 2021, 17, 1701-1714
     DOI: 10.1021/acs.jctc.0c01306
   
   for ONIOM refer to:
   * C. Plett, A. Katbashev, S. Ehlert, S. Grimme, M. Bursch,
     Phys. Chem. Chem. Phys., 2023, 25, 17860-17868. DOI: 10.1039/D3CP02178E
   
   for DIPRO refer to:
   * J. Kohn, N. Gildemeister, S. Grimme, D. Fazzi, A. Hansen,
     J. Chem. Phys., 2023, just accepted.
   
   for PTB refer to:
   * S. Grimme, M. Mueller, A. Hansen, J. Chem. Phys., 2023, 158, 124111.
     DOI: 10.1063/5.0137838
   
   with help from (in alphabetical order)
   P. Atkinson, C. Bannwarth, F. Bohle, G. Brandenburg, E. Caldeweyher
   M. Checinski, S. Dohm, S. Ehlert, S. Ehrlich, I. Gerasimov, C. Hölzer
   A. Katbashev, J. Kohn, J. Koopman, C. Lavigne, S. Lehtola, F. März, M. Müller,
   F. Musil, H. Neugebauer, J. Pisarek, C. Plett, P. Pracht, F. Pultar,
   J. Seibert, P. Shushkov, S. Spicher, M. Stahn, M. Steiner, T. Strunk,
   J. Stückrath, T. Rose, and J. Unsleber
   
 * started run on 2025/04/07 at 02:42:52.334     
   ID    Z sym.   atoms
    1    6 C      1, 2, 4, 5
    2    8 O      3
    3    1 H      6-15

           -------------------------------------------------
          |                Calculation Setup                |
           -------------------------------------------------

          program call               : /srv/scratch/z5358697/.xtb/bin/xtb gas.coord --gfn2 --sp --chrg 0 --norestart --parallel 1
          hostname                   : k140
          coordinate file            : gas.coord
          omp threads                :                     1


           -------------------------------------------------
          |                 G F N 2 - x T B                 |
           -------------------------------------------------

        Reference                      10.1021/acs.jctc.8b01176
      * Hamiltonian:
        H0-scaling (s, p, d)           1.850000    2.230000    2.230000
        zeta-weighting                 0.500000
      * Dispersion:
        s8                             2.700000
        a1                             0.520000
        a2                             5.000000
        s9                             5.000000
      * Repulsion:
        kExp                           1.500000    1.000000
        rExp                           1.000000
      * Coulomb:
        alpha                          2.000000
        third order                    shell-resolved
        anisotropic                    true
        a3                             3.000000
        a5                             4.000000
        cn-shift                       1.200000
        cn-exp                         4.000000
        max-rad                        5.000000


          ...................................................
          :                      SETUP                      :
          :.................................................:
          :  # basis functions                  30          :
          :  # atomic orbitals                  30          :
          :  # shells                           20          :
          :  # electrons                        32          :
          :  max. iterations                   250          :
          :  Hamiltonian                  GFN2-xTB          :
          :  restarted?                      false          :
          :  GBSA solvation                  false          :
          :  PC potential                    false          :
          :  electronic temp.          300.0000000     K    :
          :  accuracy                    1.0000000          :
          :  -> integral cutoff          0.2500000E+02      :
          :  -> integral neglect         0.1000000E-07      :
          :  -> SCF convergence          0.1000000E-05 Eh   :
          :  -> wf. convergence          0.1000000E-03 e    :
          :  Broyden damping             0.4000000          :
          :  net charge                          0          :
          :  unpaired electrons                  0          :
          ...................................................

 iter      E             dE          RMSdq      gap      omega  full diag
   1    -17.8813086 -0.178813E+02  0.350E+00   11.69       0.0  T
   2    -17.9290875 -0.477789E-01  0.174E+00   11.23       1.0  T
   3    -17.9296750 -0.587504E-03  0.821E-01   11.35       1.0  T
   4    -17.9298731 -0.198074E-03  0.116E-01   11.37       1.0  T
   5    -17.9299020 -0.289289E-04  0.637E-02   11.39       1.0  T
   6    -17.9299027 -0.731946E-06  0.497E-03   11.40       5.2  T
   7    -17.9299027 -0.134951E-07  0.220E-03   11.40      11.8  T
   8    -17.9299027 -0.314571E-08  0.418E-04   11.40      61.8  T
   9    -17.9299027 -0.183977E-09  0.539E-05   11.40     479.1  T

   *** convergence criteria satisfied after 9 iterations ***

         #    Occupation            Energy/Eh            Energy/eV
      -------------------------------------------------------------
         1        2.0000           -0.6875938             -18.7104
       ...           ...                  ...                  ...
        10        2.0000           -0.4934482             -13.4274
        11        2.0000           -0.4695859             -12.7781
        12        2.0000           -0.4659072             -12.6780
        13        2.0000           -0.4626252             -12.5887
        14        2.0000           -0.4442760             -12.0894
        15        2.0000           -0.4253327             -11.5739
        16        2.0000           -0.3934090             -10.7052 (HOMO)
        17                          0.0255309               0.6947 (LUMO)
        18                          0.0945289               2.5723
        19                          0.1177412               3.2039
        20                          0.1189704               3.2373
        21                          0.1248332               3.3969
       ...                                ...                  ...
        30                          0.2964344               8.0664
      -------------------------------------------------------------
                  HL-Gap            0.4189398 Eh           11.3999 eV
             Fermi-level           -0.1839391 Eh           -5.0052 eV

 SCC (total)                   0 d,  0 h,  0 min,  0.020 sec
 SCC setup                      ...        0 min,  0.000 sec (  0.669%)
 Dispersion                     ...        0 min,  0.000 sec (  0.261%)
 classical contributions        ...        0 min,  0.000 sec (  0.062%)
 integral evaluation            ...        0 min,  0.001 sec (  3.416%)
 iterations                     ...        0 min,  0.017 sec ( 86.103%)
 molecular gradient             ...        0 min,  0.002 sec (  8.978%)
 printout                       ...        0 min,  0.000 sec (  0.466%)

         :::::::::::::::::::::::::::::::::::::::::::::::::::::
         ::                     SUMMARY                     ::
         :::::::::::::::::::::::::::::::::::::::::::::::::::::
         :: total energy             -17.720045436372 Eh    ::
         :: gradient norm              0.008882414715 Eh/a0 ::
         :: HOMO-LUMO gap             11.399933265645 eV    ::
         ::.................................................::
         :: SCC energy               -17.929893339638 Eh    ::
         :: -> isotropic ES            0.021347851963 Eh    ::
         :: -> anisotropic ES          0.004206360201 Eh    ::
         :: -> anisotropic XC          0.005805625909 Eh    ::
         :: -> dispersion             -0.007090298625 Eh    ::
         :: repulsion energy           0.209847903266 Eh    ::
         :: add. restraining           0.000000000000 Eh    ::
         :: total charge               0.000000000000 e     ::
         :::::::::::::::::::::::::::::::::::::::::::::::::::::

           -------------------------------------------------
          |                Property Printout                |
           -------------------------------------------------

    * Orbital Energies and Occupations

         #    Occupation            Energy/Eh            Energy/eV
      -------------------------------------------------------------
         1        2.0000           -0.6875938             -18.7104
       ...           ...                  ...                  ...
         4        2.0000           -0.5958084             -16.2128
         5        2.0000           -0.5683618             -15.4659
         6        2.0000           -0.5465524             -14.8724
         7        2.0000           -0.5422999             -14.7567
         8        2.0000           -0.5140700             -13.9886
         9        2.0000           -0.4950946             -13.4722
        10        2.0000           -0.4934482             -13.4274
        11        2.0000           -0.4695859             -12.7781
        12        2.0000           -0.4659072             -12.6780
        13        2.0000           -0.4626252             -12.5887
        14        2.0000           -0.4442760             -12.0894
        15        2.0000           -0.4253327             -11.5739
        16        2.0000           -0.3934090             -10.7052 (HOMO)
        17                          0.0255309               0.6947 (LUMO)
        18                          0.0945289               2.5723
        19                          0.1177412               3.2039
        20                          0.1189704               3.2373
        21                          0.1248332               3.3969
        22                          0.1495202               4.0687
        23                          0.1683197               4.5802
        24                          0.1948317               5.3016
        25                          0.1952075               5.3119
        26                          0.1979494               5.3865
        27                          0.2410743               6.5600
       ...                                ...                  ...
        30                          0.2964344               8.0664
      -------------------------------------------------------------
                  HL-Gap            0.4189398 Eh           11.3999 eV
             Fermi-level           -0.1839391 Eh           -5.0052 eV

     #   Z          covCN         q      C6AA      α(0)
     1   6 C        3.750    -0.114    22.743     6.801
     2   6 C        3.687     0.082    19.400     6.305
     3   8 O        1.698    -0.329    19.514     5.964
     4   6 C        3.687     0.082    19.400     6.305
     5   6 C        3.750    -0.114    22.743     6.801
     6   1 H        0.925     0.039     2.462     2.454
     7   1 H        0.925     0.039     2.459     2.452
     8   1 H        0.925     0.050     2.320     2.382
     9   1 H        0.924     0.046     2.370     2.407
    10   1 H        0.924     0.022     2.701     2.570
    11   1 H        0.924     0.046     2.370     2.407
    12   1 H        0.924     0.022     2.701     2.570
    13   1 H        0.925     0.039     2.459     2.452
    14   1 H        0.925     0.050     2.320     2.382
    15   1 H        0.925     0.039     2.462     2.454

 Mol. C6AA /au·bohr⁶  :       1471.933445
 Mol. C8AA /au·bohr⁸  :      29829.365759
 Mol. α(0) /au        :         56.707907


Wiberg/Mayer (AO) data.
largest (>0.10) Wiberg bond orders for each atom

 ---------------------------------------------------------------------------
     #   Z sym  total        # sym  WBO       # sym  WBO       # sym  WBO
 ---------------------------------------------------------------------------
     1   6 C    3.996 --     2 C    1.009     8 H    0.987     6 H    0.986
                             7 H    0.985
     2   6 C    3.957 --     1 C    1.009     3 O    0.983     9 H    0.972
                            10 H    0.969
     3   8 O    2.068 --     4 C    0.983     2 C    0.983
     4   6 C    3.957 --     5 C    1.009     3 O    0.983    11 H    0.972
                            12 H    0.969
     5   6 C    3.996 --     4 C    1.009    14 H    0.987    15 H    0.986
                            13 H    0.985
     6   1 H    0.998 --     1 C    0.986
     7   1 H    0.998 --     1 C    0.985
     8   1 H    0.997 --     1 C    0.987
     9   1 H    0.998 --     2 C    0.972
    10   1 H    1.000 --     2 C    0.969
    11   1 H    0.998 --     4 C    0.972
    12   1 H    1.000 --     4 C    0.969
    13   1 H    0.998 --     5 C    0.985
    14   1 H    0.997 --     5 C    0.987
    15   1 H    0.998 --     5 C    0.986
 ---------------------------------------------------------------------------

Topologies differ in total number of bonds
Writing topology from bond orders to xtbtopo.mol

molecular dipole:
                 x           y           z       tot (Debye)
 q only:       -0.000       0.469      -0.000
   full:       -0.000       0.649      -0.000       1.650
molecular quadrupole (traceless):
                xx          xy          yy          xz          yz          zz
 q only:        2.346      -0.000      -2.351      -0.926       0.001       0.004
  q+dip:        1.512       0.000      -1.977      -0.858       0.001       0.466
   full:        2.011      -0.000      -2.357      -1.095       0.001       0.345


           -------------------------------------------------
          | TOTAL ENERGY              -17.720045436372 Eh   |
          | GRADIENT NORM               0.008882414715 Eh/α |
          | HOMO-LUMO GAP              11.399933265645 eV   |
           -------------------------------------------------

------------------------------------------------------------------------
 * finished run on 2025/04/07 at 02:42:52.415     
------------------------------------------------------------------------
 total:
 * wall-time:     0 d,  0 h,  0 min,  0.080 sec
 *  cpu-time:     0 d,  0 h,  0 min,  0.023 sec
 * ratio c/w:     0.284 speedup
 SCF:
 * wall-time:     0 d,  0 h,  0 min,  0.020 sec
 *  cpu-time:     0 d,  0 h,  0 min,  0.006 sec
 * ratio c/w:     0.320 speedup

