      -----------------------------------------------------------      
     |                   =====================                   |     
     |                           x T B                           |     
     |                   =====================                   |     
     |                         S. Grimme                         |     
     |          Mulliken Center for Theoretical Chemistry        |     
     |                    University of Bonn                     |     
      -----------------------------------------------------------      

   * xtb version 6.7.1 (edcfbbe) compiled by 'albert@albert-system' on 2024-07-22

   xtb is free software: you can redistribute it and/or modify it under
   the terms of the GNU Lesser General Public License as published by
   the Free Software Foundation, either version 3 of the License, or
   (at your option) any later version.
   
   xtb is distributed in the hope that it will be useful,
   but WITHOUT ANY WARRANTY; without even the implied warranty of
   MERCHANTABILITY or FITNESS FOR A PARTICULAR PURPOSE.  See the
   GNU Lesser General Public License for more details.
   
   Cite this work as:
   * C. Bannwarth, E. Caldeweyher, S. Ehlert, A. Hansen, P. Pracht,
     J. Seibert, S. Spicher, S. Grimme, WIREs Comput. Mol. Sci., 2020, 11,
     e01493. DOI: 10.1002/wcms.1493
   
   for GFN2-xTB:
   * C. Bannwarth, S. Ehlert and S. Grimme., J. Chem. Theory Comput., 2019,
     15, 1652-1671. DOI: 10.1021/acs.jctc.8b01176
   for GFN1-xTB:
   * S. Grimme, C. Bannwarth, P. Shushkov, J. Chem. Theory Comput., 2017,
     13, 1989-2009. DOI: 10.1021/acs.jctc.7b00118
   for GFN0-xTB:
   * P. Pracht, E. Caldeweyher, S. Ehlert, S. Grimme, ChemRxiv, 2019, preprint.
     DOI: 10.26434/chemrxiv.8326202.v1
   for GFN-FF:
   * S. Spicher and S. Grimme, Angew. Chem. Int. Ed., 2020, 59, 15665-15673.
     DOI: 10.1002/anie.202004239
   
   for ALPB and GBSA implicit solvation:
   * S. Ehlert, M. Stahn, S. Spicher, S. Grimme, J. Chem. Theory Comput.,
     2021, 17, 4250-4261. DOI: 10.1021/acs.jctc.1c00471
   
   for ddCOSMO and CPCM-X implicit solvation:
   * M. Stahn, S. Ehlert, S. Grimme, J. Phys. Chem. A,
     2023, XX, XXXX-XXXX. DOI: 10.1021/acs.jpca.3c04382
   
   for DFT-D4:
   * E. Caldeweyher, C. Bannwarth and S. Grimme, J. Chem. Phys., 2017,
     147, 034112. DOI: 10.1063/1.4993215
   * E. Caldeweyher, S. Ehlert, A. Hansen, H. Neugebauer, S. Spicher,
     C. Bannwarth and S. Grimme, J. Chem. Phys., 2019, 150, 154122.
     DOI: 10.1063/1.5090222
   * E. Caldeweyher, J.-M. Mewes, S. Ehlert and S. Grimme, Phys. Chem. Chem. Phys.
     2020, 22, 8499-8512. DOI: 10.1039/D0CP00502A
   
   for sTDA-xTB:
   * S. Grimme and C. Bannwarth, J. Chem. Phys., 2016, 145, 054103.
     DOI: 10.1063/1.4959605
   
   in the mass-spec context:
   * V. Asgeirsson, C. Bauer and S. Grimme, Chem. Sci., 2017, 8, 4879.
     DOI: 10.1039/c7sc00601b
   * J. Koopman and S. Grimme, ACS Omega 2019, 4, 12, 15120-15133.
     DOI: 10.1021/acsomega.9b02011
   
   for metadynamics refer to:
   * S. Grimme, J. Chem. Theory Comput., 2019, 155, 2847-2862
     DOI: 10.1021/acs.jctc.9b00143
   
   for SPH calculations refer to:
   * S. Spicher and S. Grimme, J. Chem. Theory Comput., 2021, 17, 1701-1714
     DOI: 10.1021/acs.jctc.0c01306
   
   for ONIOM refer to:
   * C. Plett, A. Katbashev, S. Ehlert, S. Grimme, M. Bursch,
     Phys. Chem. Chem. Phys., 2023, 25, 17860-17868. DOI: 10.1039/D3CP02178E
   
   for DIPRO refer to:
   * J. Kohn, N. Gildemeister, S. Grimme, D. Fazzi, A. Hansen,
     J. Chem. Phys., 2023, just accepted.
   
   for PTB refer to:
   * S. Grimme, M. Mueller, A. Hansen, J. Chem. Phys., 2023, 158, 124111.
     DOI: 10.1063/5.0137838
   
   with help from (in alphabetical order)
   P. Atkinson, C. Bannwarth, F. Bohle, G. Brandenburg, E. Caldeweyher
   M. Checinski, S. Dohm, S. Ehlert, S. Ehrlich, I. Gerasimov, C. Hölzer
   A. Katbashev, J. Kohn, J. Koopman, C. Lavigne, S. Lehtola, F. März, M. Müller,
   F. Musil, H. Neugebauer, J. Pisarek, C. Plett, P. Pracht, F. Pultar,
   J. Seibert, P. Shushkov, S. Spicher, M. Stahn, M. Steiner, T. Strunk,
   J. Stückrath, T. Rose, and J. Unsleber
   
 * started run on 2025/04/07 at 02:42:52.452     
   ID    Z sym.   atoms
    1    6 C      1, 2, 4, 5
    2    8 O      3
    3    1 H      6-15

           -------------------------------------------------
          |                Calculation Setup                |
           -------------------------------------------------

          program call               : /srv/scratch/z5358697/.xtb/bin/xtb solv.coord --gfn2 --sp --chrg 0 --norestart --parallel 1 --alpb water reference -I xtb_sp-xcontrol-inp
          hostname                   : k140
          coordinate file            : solv.coord
          omp threads                :                     1


           -------------------------------------------------
          |                 G F N 2 - x T B                 |
           -------------------------------------------------

        Reference                      10.1021/acs.jctc.8b01176
      * Hamiltonian:
        H0-scaling (s, p, d)           1.850000    2.230000    2.230000
        zeta-weighting                 0.500000
      * Dispersion:
        s8                             2.700000
        a1                             0.520000
        a2                             5.000000
        s9                             5.000000
      * Repulsion:
        kExp                           1.500000    1.000000
        rExp                           1.000000
      * Coulomb:
        alpha                          2.000000
        third order                    shell-resolved
        anisotropic                    true
        a3                             3.000000
        a5                             4.000000
        cn-shift                       1.200000
        cn-exp                         4.000000
        max-rad                        5.000000

      * Solvation model:               ALPB
        Solvent                        water
        Parameter file                 internal GFN2-xTB/ALPB
        Dielectric constant                8.0200E+01
        Reference state                gsolv=reference [X=1]
        Free energy shift                  2.8945E-03 Eh       1.8164E+00 kcal/mol
        Temperature                        2.9815E+02 K
        Density                            1.0000E+00 kg/L
        Solvent mass                       1.8000E+01 g/mol
        Interaction kernel             P16
        Born radius scaling (c1)           1.4744E+00
        Born radii integrator          GBOBC
        Born offset                        0.0000E+00 a0       0.0000E+00 AA
        H-bond correction              true
        Ion screening                  false
        Surface tension                    1.0000E-05 Eh       1.5569E+01 dyn/cm
        Grid points                               974 per atom

          ...................................................
          :                      SETUP                      :
          :.................................................:
          :  # basis functions                  30          :
          :  # atomic orbitals                  30          :
          :  # shells                           20          :
          :  # electrons                        32          :
          :  max. iterations                   250          :
          :  Hamiltonian                  GFN2-xTB          :
          :  restarted?                      false          :
          :  GBSA solvation                   true          :
          :  PC potential                    false          :
          :  electronic temp.          300.0000000     K    :
          :  accuracy                    1.0000000          :
          :  -> integral cutoff          0.2500000E+02      :
          :  -> integral neglect         0.1000000E-07      :
          :  -> SCF convergence          0.1000000E-05 Eh   :
          :  -> wf. convergence          0.1000000E-03 e    :
          :  Broyden damping             0.4000000          :
          :  net charge                          0          :
          :  unpaired electrons                  0          :
          ...................................................

 iter      E             dE          RMSdq      gap      omega  full diag
   1    -17.8932530 -0.178933E+02  0.356E+00   11.71       0.0  T
   2    -17.9298007 -0.365477E-01  0.176E+00   11.32       1.0  T
   3    -17.9305169 -0.716251E-03  0.706E-01   11.38       1.0  T
   4    -17.9306870 -0.170115E-03  0.119E-01   11.39       1.0  T
   5    -17.9307045 -0.174736E-04  0.637E-02   11.41       1.0  T
   6    -17.9307058 -0.124503E-05  0.687E-03   11.42       3.8  T
   7    -17.9307059 -0.121616E-06  0.245E-03   11.42      10.6  T
   8    -17.9307059 -0.679224E-08  0.119E-03   11.42      21.8  T
   9    -17.9307059 -0.624716E-08  0.156E-04   11.42     165.2  T
  10    -17.9307059  0.759961E-10  0.125E-04   11.42     206.6  T

   *** convergence criteria satisfied after 10 iterations ***

         #    Occupation            Energy/Eh            Energy/eV
      -------------------------------------------------------------
         1        2.0000           -0.6967677             -18.9600
       ...           ...                  ...                  ...
        10        2.0000           -0.4930667             -13.4170
        11        2.0000           -0.4678200             -12.7300
        12        2.0000           -0.4648981             -12.6505
        13        2.0000           -0.4598757             -12.5139
        14        2.0000           -0.4436963             -12.0736
        15        2.0000           -0.4263822             -11.6024
        16        2.0000           -0.3986638             -10.8482 (HOMO)
        17                          0.0210423               0.5726 (LUMO)
        18                          0.0925300               2.5179
        19                          0.1174977               3.1973
        20                          0.1190574               3.2397
        21                          0.1254440               3.4135
       ...                                ...                  ...
        30                          0.2965576               8.0697
      -------------------------------------------------------------
                  HL-Gap            0.4197061 Eh           11.4208 eV
             Fermi-level           -0.1888107 Eh           -5.1378 eV

 SCC (total)                   0 d,  0 h,  0 min,  0.028 sec
 SCC setup                      ...        0 min,  0.001 sec (  2.504%)
 Dispersion                     ...        0 min,  0.000 sec (  0.200%)
 classical contributions        ...        0 min,  0.000 sec (  0.046%)
 integral evaluation            ...        0 min,  0.001 sec (  3.500%)
 iterations                     ...        0 min,  0.025 sec ( 87.200%)
 molecular gradient             ...        0 min,  0.002 sec (  6.176%)
 printout                       ...        0 min,  0.000 sec (  0.330%)

         :::::::::::::::::::::::::::::::::::::::::::::::::::::
         ::                     SUMMARY                     ::
         :::::::::::::::::::::::::::::::::::::::::::::::::::::
         :: total energy             -17.720848588934 Eh    ::
         :: total w/o Gsasa/hb       -17.722874852929 Eh    ::
         :: gradient norm              0.000078381889 Eh/a0 ::
         :: HOMO-LUMO gap             11.420784759634 eV    ::
         ::.................................................::
         :: SCC energy               -17.930696492201 Eh    ::
         :: -> isotropic ES            0.026383476431 Eh    ::
         :: -> anisotropic ES          0.003754185648 Eh    ::
         :: -> anisotropic XC          0.006206280951 Eh    ::
         :: -> dispersion             -0.007025947973 Eh    ::
         :: -> Gsolv                  -0.001461769569 Eh    ::
         ::    -> Gelec               -0.003488033564 Eh    ::
         ::    -> Gsasa                0.000087085459 Eh    ::
         ::    -> Ghb                 -0.000955370625 Eh    ::
         ::    -> Gshift               0.002894549160 Eh    ::
         :: repulsion energy           0.209847903266 Eh    ::
         :: add. restraining           0.000000000000 Eh    ::
         :: total charge              -0.000000000000 e     ::
         :::::::::::::::::::::::::::::::::::::::::::::::::::::

           -------------------------------------------------
          |                Property Printout                |
           -------------------------------------------------

    * Orbital Energies and Occupations

         #    Occupation            Energy/Eh            Energy/eV
      -------------------------------------------------------------
         1        2.0000           -0.6967677             -18.9600
       ...           ...                  ...                  ...
         4        2.0000           -0.5954009             -16.2017
         5        2.0000           -0.5689379             -15.4816
         6        2.0000           -0.5492378             -14.9455
         7        2.0000           -0.5443475             -14.8124
         8        2.0000           -0.5159970             -14.0410
         9        2.0000           -0.4940042             -13.4425
        10        2.0000           -0.4930667             -13.4170
        11        2.0000           -0.4678200             -12.7300
        12        2.0000           -0.4648981             -12.6505
        13        2.0000           -0.4598757             -12.5139
        14        2.0000           -0.4436963             -12.0736
        15        2.0000           -0.4263822             -11.6024
        16        2.0000           -0.3986638             -10.8482 (HOMO)
        17                          0.0210423               0.5726 (LUMO)
        18                          0.0925300               2.5179
        19                          0.1174977               3.1973
        20                          0.1190574               3.2397
        21                          0.1254440               3.4135
        22                          0.1499376               4.0800
        23                          0.1695844               4.6146
        24                          0.1953032               5.3145
        25                          0.1974134               5.3719
        26                          0.2001671               5.4468
        27                          0.2443548               6.6492
       ...                                ...                  ...
        30                          0.2965576               8.0697
      -------------------------------------------------------------
                  HL-Gap            0.4197061 Eh           11.4208 eV
             Fermi-level           -0.1888107 Eh           -5.1378 eV

     #   Z          covCN         q      C6AA      α(0)
     1   6 C        3.750    -0.126    22.981     6.837
     2   6 C        3.687     0.078    19.473     6.317
     3   8 O        1.698    -0.369    20.241     6.074
     4   6 C        3.687     0.078    19.473     6.317
     5   6 C        3.750    -0.126    22.981     6.837
     6   1 H        0.925     0.054     2.269     2.356
     7   1 H        0.925     0.046     2.375     2.410
     8   1 H        0.925     0.053     2.289     2.366
     9   1 H        0.924     0.051     2.306     2.375
    10   1 H        0.924     0.030     2.593     2.518
    11   1 H        0.924     0.051     2.306     2.375
    12   1 H        0.924     0.030     2.593     2.518
    13   1 H        0.925     0.046     2.375     2.410
    14   1 H        0.925     0.053     2.289     2.366
    15   1 H        0.925     0.054     2.269     2.356

 Mol. C6AA /au·bohr⁶  :       1459.728858
 Mol. C8AA /au·bohr⁸  :      29710.581482
 Mol. α(0) /au        :         56.431731


Wiberg/Mayer (AO) data.
largest (>0.10) Wiberg bond orders for each atom

 ---------------------------------------------------------------------------
     #   Z sym  total        # sym  WBO       # sym  WBO       # sym  WBO
 ---------------------------------------------------------------------------
     1   6 C    3.994 --     2 C    1.010     8 H    0.987     7 H    0.984
                             6 H    0.984
     2   6 C    3.948 --     1 C    1.010     3 O    0.973     9 H    0.971
                            10 H    0.969
     3   8 O    2.046 --     4 C    0.973     2 C    0.973
     4   6 C    3.948 --     5 C    1.010     3 O    0.973    11 H    0.971
                            12 H    0.969
     5   6 C    3.994 --     4 C    1.010    14 H    0.987    13 H    0.984
                            15 H    0.984
     6   1 H    0.997 --     1 C    0.984
     7   1 H    0.998 --     1 C    0.984
     8   1 H    0.997 --     1 C    0.987
     9   1 H    0.997 --     2 C    0.971
    10   1 H    0.999 --     2 C    0.969
    11   1 H    0.997 --     4 C    0.971
    12   1 H    0.999 --     4 C    0.969
    13   1 H    0.998 --     5 C    0.984
    14   1 H    0.997 --     5 C    0.987
    15   1 H    0.997 --     5 C    0.984
 ---------------------------------------------------------------------------

Topologies differ in total number of bonds
Writing topology from bond orders to xtbtopo.mol

molecular dipole:
                 x           y           z       tot (Debye)
 q only:       -0.000       0.597      -0.000
   full:       -0.000       0.725      -0.000       1.842
molecular quadrupole (traceless):
                xx          xy          yy          xz          yz          zz
 q only:        3.014      -0.000      -2.751      -1.085       0.001      -0.264
  q+dip:        1.919      -0.000      -2.206      -0.962       0.001       0.288
   full:        2.430      -0.000      -2.597      -1.203       0.001       0.167


           -------------------------------------------------
          | TOTAL ENERGY              -17.720848588934 Eh   |
          | GRADIENT NORM               0.000078381889 Eh/α |
          | HOMO-LUMO GAP              11.420784759634 eV   |
           -------------------------------------------------

------------------------------------------------------------------------
 * finished run on 2025/04/07 at 02:42:52.520     
------------------------------------------------------------------------
 total:
 * wall-time:     0 d,  0 h,  0 min,  0.068 sec
 *  cpu-time:     0 d,  0 h,  0 min,  0.014 sec
 * ratio c/w:     0.205 speedup
 SCF:
 * wall-time:     0 d,  0 h,  0 min,  0.029 sec
 *  cpu-time:     0 d,  0 h,  0 min,  0.007 sec
 * ratio c/w:     0.256 speedup

