15
 xtb: 6.7.1 (edcfbbe)
C            2.38785802670136        0.40452753722985       -0.00578893850698
C            1.18546928511034       -0.50457917295713        0.10797403858417
O           -0.00148104543246        0.28357889716626       -0.05285724154579
C           -1.18754302568676       -0.51811971400256        0.02998098597366
C           -2.39117838981669        0.38203394235421       -0.13183717949836
H            3.30532572976897       -0.17789558002138        0.12185722736887
H            2.42182502367937        0.88703245401904       -0.98765120706886
H            2.36431022165317        1.18047885349459        0.76580334857444
H            1.16378093421289       -1.00343896498520        1.08982174585269
H            1.21327971819131       -1.28813737483323       -0.66547094245035
H           -1.16578652812293       -1.28789618250472       -0.75736581388236
H           -1.21390929217937       -1.03430134550109        1.00260286007354
H           -3.30840516031431       -0.21167317463875       -0.07136402789205
H           -2.42028673664678        1.13949910640292        0.65777778593597
H           -2.37322040396892        0.88745900124258       -1.10264644527428
