      -----------------------------------------------------------      
     |                   =====================                   |     
     |                           x T B                           |     
     |                   =====================                   |     
     |                         S. Grimme                         |     
     |          Mulliken Center for Theoretical Chemistry        |     
     |                    University of Bonn                     |     
      -----------------------------------------------------------      

   * xtb version 6.7.1 (edcfbbe) compiled by 'albert@albert-system' on 2024-07-22

   xtb is free software: you can redistribute it and/or modify it under
   the terms of the GNU Lesser General Public License as published by
   the Free Software Foundation, either version 3 of the License, or
   (at your option) any later version.
   
   xtb is distributed in the hope that it will be useful,
   but WITHOUT ANY WARRANTY; without even the implied warranty of
   MERCHANTABILITY or FITNESS FOR A PARTICULAR PURPOSE.  See the
   GNU Lesser General Public License for more details.
   
   Cite this work as:
   * C. Bannwarth, E. Caldeweyher, S. Ehlert, A. Hansen, P. Pracht,
     J. Seibert, S. Spicher, S. Grimme, WIREs Comput. Mol. Sci., 2020, 11,
     e01493. DOI: 10.1002/wcms.1493
   
   for GFN2-xTB:
   * C. Bannwarth, S. Ehlert and S. Grimme., J. Chem. Theory Comput., 2019,
     15, 1652-1671. DOI: 10.1021/acs.jctc.8b01176
   for GFN1-xTB:
   * S. Grimme, C. Bannwarth, P. Shushkov, J. Chem. Theory Comput., 2017,
     13, 1989-2009. DOI: 10.1021/acs.jctc.7b00118
   for GFN0-xTB:
   * P. Pracht, E. Caldeweyher, S. Ehlert, S. Grimme, ChemRxiv, 2019, preprint.
     DOI: 10.26434/chemrxiv.8326202.v1
   for GFN-FF:
   * S. Spicher and S. Grimme, Angew. Chem. Int. Ed., 2020, 59, 15665-15673.
     DOI: 10.1002/anie.202004239
   
   for ALPB and GBSA implicit solvation:
   * S. Ehlert, M. Stahn, S. Spicher, S. Grimme, J. Chem. Theory Comput.,
     2021, 17, 4250-4261. DOI: 10.1021/acs.jctc.1c00471
   
   for ddCOSMO and CPCM-X implicit solvation:
   * M. Stahn, S. Ehlert, S. Grimme, J. Phys. Chem. A,
     2023, XX, XXXX-XXXX. DOI: 10.1021/acs.jpca.3c04382
   
   for DFT-D4:
   * E. Caldeweyher, C. Bannwarth and S. Grimme, J. Chem. Phys., 2017,
     147, 034112. DOI: 10.1063/1.4993215
   * E. Caldeweyher, S. Ehlert, A. Hansen, H. Neugebauer, S. Spicher,
     C. Bannwarth and S. Grimme, J. Chem. Phys., 2019, 150, 154122.
     DOI: 10.1063/1.5090222
   * E. Caldeweyher, J.-M. Mewes, S. Ehlert and S. Grimme, Phys. Chem. Chem. Phys.
     2020, 22, 8499-8512. DOI: 10.1039/D0CP00502A
   
   for sTDA-xTB:
   * S. Grimme and C. Bannwarth, J. Chem. Phys., 2016, 145, 054103.
     DOI: 10.1063/1.4959605
   
   in the mass-spec context:
   * V. Asgeirsson, C. Bauer and S. Grimme, Chem. Sci., 2017, 8, 4879.
     DOI: 10.1039/c7sc00601b
   * J. Koopman and S. Grimme, ACS Omega 2019, 4, 12, 15120-15133.
     DOI: 10.1021/acsomega.9b02011
   
   for metadynamics refer to:
   * S. Grimme, J. Chem. Theory Comput., 2019, 155, 2847-2862
     DOI: 10.1021/acs.jctc.9b00143
   
   for SPH calculations refer to:
   * S. Spicher and S. Grimme, J. Chem. Theory Comput., 2021, 17, 1701-1714
     DOI: 10.1021/acs.jctc.0c01306
   
   for ONIOM refer to:
   * C. Plett, A. Katbashev, S. Ehlert, S. Grimme, M. Bursch,
     Phys. Chem. Chem. Phys., 2023, 25, 17860-17868. DOI: 10.1039/D3CP02178E
   
   for DIPRO refer to:
   * J. Kohn, N. Gildemeister, S. Grimme, D. Fazzi, A. Hansen,
     J. Chem. Phys., 2023, just accepted.
   
   for PTB refer to:
   * S. Grimme, M. Mueller, A. Hansen, J. Chem. Phys., 2023, 158, 124111.
     DOI: 10.1063/5.0137838
   
   with help from (in alphabetical order)
   P. Atkinson, C. Bannwarth, F. Bohle, G. Brandenburg, E. Caldeweyher
   M. Checinski, S. Dohm, S. Ehlert, S. Ehrlich, I. Gerasimov, C. Hölzer
   A. Katbashev, J. Kohn, J. Koopman, C. Lavigne, S. Lehtola, F. März, M. Müller,
   F. Musil, H. Neugebauer, J. Pisarek, C. Plett, P. Pracht, F. Pultar,
   J. Seibert, P. Shushkov, S. Spicher, M. Stahn, M. Steiner, T. Strunk,
   J. Stückrath, T. Rose, and J. Unsleber
   
 * started run on 2025/04/06 at 22:31:19.694     
   ID    Z sym.   atoms
    1    6 C      1-4
    2    8 O      5
    3    1 H      6-15

           -------------------------------------------------
          |                Calculation Setup                |
           -------------------------------------------------

          program call               : /srv/scratch/z5358697/.xtb/bin/xtb gas.coord --gfn2 --sp --chrg 0 --norestart --parallel 1
          hostname                   : k159
          coordinate file            : gas.coord
          omp threads                :                     1


           -------------------------------------------------
          |                 G F N 2 - x T B                 |
           -------------------------------------------------

        Reference                      10.1021/acs.jctc.8b01176
      * Hamiltonian:
        H0-scaling (s, p, d)           1.850000    2.230000    2.230000
        zeta-weighting                 0.500000
      * Dispersion:
        s8                             2.700000
        a1                             0.520000
        a2                             5.000000
        s9                             5.000000
      * Repulsion:
        kExp                           1.500000    1.000000
        rExp                           1.000000
      * Coulomb:
        alpha                          2.000000
        third order                    shell-resolved
        anisotropic                    true
        a3                             3.000000
        a5                             4.000000
        cn-shift                       1.200000
        cn-exp                         4.000000
        max-rad                        5.000000


          ...................................................
          :                      SETUP                      :
          :.................................................:
          :  # basis functions                  30          :
          :  # atomic orbitals                  30          :
          :  # shells                           20          :
          :  # electrons                        32          :
          :  max. iterations                   250          :
          :  Hamiltonian                  GFN2-xTB          :
          :  restarted?                      false          :
          :  GBSA solvation                  false          :
          :  PC potential                    false          :
          :  electronic temp.          300.0000000     K    :
          :  accuracy                    1.0000000          :
          :  -> integral cutoff          0.2500000E+02      :
          :  -> integral neglect         0.1000000E-07      :
          :  -> SCF convergence          0.1000000E-05 Eh   :
          :  -> wf. convergence          0.1000000E-03 e    :
          :  Broyden damping             0.4000000          :
          :  net charge                          0          :
          :  unpaired electrons                  0          :
          ...................................................

 iter      E             dE          RMSdq      gap      omega  full diag
   1    -17.8975581 -0.178976E+02  0.341E+00   12.23       0.0  T
   2    -17.9336226 -0.360646E-01  0.188E+00   11.80       1.0  T
   3    -17.9342936 -0.670963E-03  0.788E-01   11.91       1.0  T
   4    -17.9344797 -0.186082E-03  0.120E-01   11.97       1.0  T
   5    -17.9345114 -0.317474E-04  0.676E-02   11.98       1.0  T
   6    -17.9345129 -0.143785E-05  0.864E-03   11.99       3.0  T
   7    -17.9345130 -0.158034E-06  0.452E-03   11.99       5.7  T
   8    -17.9345130 -0.972387E-08  0.987E-04   11.99      26.2  T
   9    -17.9345130 -0.158399E-08  0.172E-04   11.99     149.8  T

   *** convergence criteria satisfied after 9 iterations ***

         #    Occupation            Energy/Eh            Energy/eV
      -------------------------------------------------------------
         1        2.0000           -0.6839287             -18.6106
       ...           ...                  ...                  ...
        10        2.0000           -0.4850262             -13.1982
        11        2.0000           -0.4645023             -12.6398
        12        2.0000           -0.4560893             -12.4108
        13        2.0000           -0.4375974             -11.9076
        14        2.0000           -0.4370460             -11.8926
        15        2.0000           -0.4267695             -11.6130
        16        2.0000           -0.4069830             -11.0746 (HOMO)
        17                          0.0335505               0.9130 (LUMO)
        18                          0.0994701               2.7067
        19                          0.1217857               3.3140
        20                          0.1253515               3.4110
        21                          0.1438749               3.9150
       ...                                ...                  ...
        30                          0.3079881               8.3808
      -------------------------------------------------------------
                  HL-Gap            0.4405335 Eh           11.9875 eV
             Fermi-level           -0.1867162 Eh           -5.0808 eV

 SCC (total)                   0 d,  0 h,  0 min,  0.007 sec
 SCC setup                      ...        0 min,  0.000 sec (  1.703%)
 Dispersion                     ...        0 min,  0.000 sec (  0.782%)
 classical contributions        ...        0 min,  0.000 sec (  0.183%)
 integral evaluation            ...        0 min,  0.001 sec ( 10.178%)
 iterations                     ...        0 min,  0.004 sec ( 56.775%)
 molecular gradient             ...        0 min,  0.002 sec ( 28.863%)
 printout                       ...        0 min,  0.000 sec (  1.381%)

         :::::::::::::::::::::::::::::::::::::::::::::::::::::
         ::                     SUMMARY                     ::
         :::::::::::::::::::::::::::::::::::::::::::::::::::::
         :: total energy             -17.720534238811 Eh    ::
         :: gradient norm              0.005174624802 Eh/a0 ::
         :: HOMO-LUMO gap             11.987527867833 eV    ::
         ::.................................................::
         :: SCC energy               -17.934513287095 Eh    ::
         :: -> isotropic ES            0.026642000310 Eh    ::
         :: -> anisotropic ES          0.004337346471 Eh    ::
         :: -> anisotropic XC          0.005788429212 Eh    ::
         :: -> dispersion             -0.006888597706 Eh    ::
         :: repulsion energy           0.213979048284 Eh    ::
         :: add. restraining           0.000000000000 Eh    ::
         :: total charge               0.000000000000 e     ::
         :::::::::::::::::::::::::::::::::::::::::::::::::::::

           -------------------------------------------------
          |                Property Printout                |
           -------------------------------------------------

    * Orbital Energies and Occupations

         #    Occupation            Energy/Eh            Energy/eV
      -------------------------------------------------------------
         1        2.0000           -0.6839287             -18.6106
       ...           ...                  ...                  ...
         4        2.0000           -0.5804715             -15.7954
         5        2.0000           -0.5709646             -15.5367
         6        2.0000           -0.5495656             -14.9544
         7        2.0000           -0.5334540             -14.5160
         8        2.0000           -0.5116666             -13.9232
         9        2.0000           -0.5027232             -13.6798
        10        2.0000           -0.4850262             -13.1982
        11        2.0000           -0.4645023             -12.6398
        12        2.0000           -0.4560893             -12.4108
        13        2.0000           -0.4375974             -11.9076
        14        2.0000           -0.4370460             -11.8926
        15        2.0000           -0.4267695             -11.6130
        16        2.0000           -0.4069830             -11.0746 (HOMO)
        17                          0.0335505               0.9130 (LUMO)
        18                          0.0994701               2.7067
        19                          0.1217857               3.3140
        20                          0.1253515               3.4110
        21                          0.1438749               3.9150
        22                          0.1594534               4.3389
        23                          0.1646002               4.4790
        24                          0.1837992               5.0014
        25                          0.1870431               5.0897
        26                          0.2336954               6.3592
        27                          0.2395807               6.5193
       ...                                ...                  ...
        30                          0.3079881               8.3808
      -------------------------------------------------------------
                  HL-Gap            0.4405335 Eh           11.9875 eV
             Fermi-level           -0.1867162 Eh           -5.0808 eV

     #   Z          covCN         q      C6AA      α(0)
     1   6 C        3.752    -0.104    22.546     6.771
     2   6 C        3.801    -0.056    21.574     6.613
     3   6 C        3.802    -0.066    21.757     6.641
     4   6 C        3.674     0.088    19.341     6.302
     5   8 O        1.655    -0.443    21.710     6.290
     6   1 H        0.925     0.037     2.483     2.464
     7   1 H        0.925     0.036     2.504     2.475
     8   1 H        0.925     0.037     2.484     2.464
     9   1 H        0.924     0.030     2.586     2.515
    10   1 H        0.924     0.030     2.584     2.514
    11   1 H        0.924     0.049     2.332     2.388
    12   1 H        0.924     0.049     2.334     2.389
    13   1 H        0.923     0.014     2.826     2.629
    14   1 H        0.923     0.014     2.827     2.629
    15   1 H        0.805     0.284     0.772     1.380

 Mol. C6AA /au·bohr⁶  :       1464.894509
 Mol. C8AA /au·bohr⁸  :      29875.265731
 Mol. α(0) /au        :         56.464920


Wiberg/Mayer (AO) data.
largest (>0.10) Wiberg bond orders for each atom

 ---------------------------------------------------------------------------
     #   Z sym  total        # sym  WBO       # sym  WBO       # sym  WBO
 ---------------------------------------------------------------------------
     1   6 C    3.996 --     2 C    1.019     8 H    0.988     6 H    0.988
                             7 H    0.987
     2   6 C    3.998 --     1 C    1.019     3 C    1.008    10 H    0.978
                             9 H    0.978
     3   6 C    3.994 --     2 C    1.008     4 C    1.004    12 H    0.976
                            11 H    0.976
     4   6 C    3.957 --     3 C    1.004     5 O    0.993    14 H    0.972
                            13 H    0.972
     5   8 O    1.949 --     4 C    0.993    15 H    0.906
     6   1 H    0.999 --     1 C    0.988
     7   1 H    0.998 --     1 C    0.987
     8   1 H    0.999 --     1 C    0.988
     9   1 H    0.999 --     2 C    0.978
    10   1 H    0.999 --     2 C    0.978
    11   1 H    0.998 --     3 C    0.976
    12   1 H    0.998 --     3 C    0.976
    13   1 H    1.000 --     4 C    0.972
    14   1 H    1.000 --     4 C    0.972
    15   1 H    0.919 --     5 O    0.906
 ---------------------------------------------------------------------------

Topologies differ in total number of bonds
Writing topology from bond orders to xtbtopo.mol

molecular dipole:
                 x           y           z       tot (Debye)
 q only:        0.115       0.419       0.022
   full:        0.004       0.667       0.035       1.697
molecular quadrupole (traceless):
                xx          xy          yy          xz          yz          zz
 q only:        2.084      -3.395      -0.943      -0.145      -0.014      -1.142
  q+dip:        1.226      -5.168      -1.502      -0.254      -0.132       0.275
   full:        2.183      -5.086      -1.455      -0.234      -0.076      -0.728


           -------------------------------------------------
          | TOTAL ENERGY              -17.720534238811 Eh   |
          | GRADIENT NORM               0.005174624802 Eh/α |
          | HOMO-LUMO GAP              11.987527867833 eV   |
           -------------------------------------------------

------------------------------------------------------------------------
 * finished run on 2025/04/06 at 22:31:19.726     
------------------------------------------------------------------------
 total:
 * wall-time:     0 d,  0 h,  0 min,  0.031 sec
 *  cpu-time:     0 d,  0 h,  0 min,  0.011 sec
 * ratio c/w:     0.343 speedup
 SCF:
 * wall-time:     0 d,  0 h,  0 min,  0.007 sec
 *  cpu-time:     0 d,  0 h,  0 min,  0.006 sec
 * ratio c/w:     0.867 speedup

