15
 xtb: 6.7.1 (edcfbbe)
C            1.91334407544414       -0.73389501621244       -0.07399647815205
C            1.12784905626076        0.51338687466970       -0.47230734412752
C            0.02055528634659        0.88337345648752        0.51870980000930
C           -1.04639166162272       -0.18415781650871        0.70686565429632
O           -1.70511415200786       -0.54061971797271       -0.52622435288151
H            1.28889651119215       -1.63271641771070       -0.10098721770666
H            2.75522656532066       -0.90016328662488       -0.75369154459155
H            2.31566327606996       -0.63692593743211        0.94108737368401
H            1.81458479672098        1.36415162402849       -0.55394592870237
H            0.69344349072845        0.37212001525531       -1.46939428038433
H            0.46115891920051        1.08597633798705        1.50470829658099
H           -0.46714748180958        1.81303656687546        0.19530980995601
H           -0.61125464627579       -1.11386725470998        1.08639832111125
H           -1.78852735359403        0.15906129685929        1.44147102305682
H           -2.07757514873080        0.27195008360776       -0.89338412075195
