! r2scan-3c def2/J RI DEFGRID2 scfconv6 printgap
%output
    printlevel normal
end
* xyz 0 1
C -2.2022988127 0.2794770787 0.3821951072
C -0.9861872252 0.2255146995 -0.5425691111
C 0.0018200921 -0.7959664029 -0.070607679
C 1.2858580724 -0.5898692422 0.1803428047
C 2.0096888659 0.7140028623 0.0265855708
H -1.898512481 0.5567324457 1.3891667779
H -2.6911849172 -0.6912945769 0.4271722411
H -2.9209582964 1.0121177298 0.0229170194
H -1.3194899063 -0.0439695065 -1.5495209541
H -0.5230752553 1.2103475597 -0.5912181556
H -0.4125318747 -1.7853472489 0.0787568817
H 1.8856760171 -1.4178319448 0.534946898
H 3.0832323423 0.5621193993 0.0929622318
H 1.7150342908 1.4083362956 0.813305398
H 1.7843718675 1.1768861149 -0.9318664069
*
