15
 xtb: 6.7.1 (edcfbbe)
C            1.66144030230803       -0.73949373542423       -0.53822692513872
C            1.36181228858188        0.52429374385011        0.26785857490371
C           -0.02481031864523        0.57203495419586        0.91722616224132
C           -1.20861992840235        0.53398484404387       -0.04359180686736
O           -1.57451236384482       -0.79559950676987       -0.47391500689886
H            2.71596761626974       -0.76992233802014       -0.83168259724439
H            1.45145989281100       -1.64383870586566        0.04396229600776
H            1.07953366894430       -0.78373878939223       -1.46633345403075
H            2.11161072578389        0.62310688664495        1.06204367887782
H            1.48061292270770        1.40299820969343       -0.37901927426664
H           -0.13529929113334       -0.24976071735770        1.63744965938184
H           -0.10199959790300        1.50359473242630        1.49246365224647
H           -2.10236653661688        0.92021573573751        0.45580702532702
H           -1.01319625358590        1.17212473528376       -0.91841415248804
H           -0.85451025537555       -1.14401557607825       -1.01277695699332
