      -----------------------------------------------------------      
     |                   =====================                   |     
     |                           x T B                           |     
     |                   =====================                   |     
     |                         S. Grimme                         |     
     |          Mulliken Center for Theoretical Chemistry        |     
     |                    University of Bonn                     |     
      -----------------------------------------------------------      

   * xtb version 6.7.1 (edcfbbe) compiled by 'albert@albert-system' on 2024-07-22

   xtb is free software: you can redistribute it and/or modify it under
   the terms of the GNU Lesser General Public License as published by
   the Free Software Foundation, either version 3 of the License, or
   (at your option) any later version.
   
   xtb is distributed in the hope that it will be useful,
   but WITHOUT ANY WARRANTY; without even the implied warranty of
   MERCHANTABILITY or FITNESS FOR A PARTICULAR PURPOSE.  See the
   GNU Lesser General Public License for more details.
   
   Cite this work as:
   * C. Bannwarth, E. Caldeweyher, S. Ehlert, A. Hansen, P. Pracht,
     J. Seibert, S. Spicher, S. Grimme, WIREs Comput. Mol. Sci., 2020, 11,
     e01493. DOI: 10.1002/wcms.1493
   
   for GFN2-xTB:
   * C. Bannwarth, S. Ehlert and S. Grimme., J. Chem. Theory Comput., 2019,
     15, 1652-1671. DOI: 10.1021/acs.jctc.8b01176
   for GFN1-xTB:
   * S. Grimme, C. Bannwarth, P. Shushkov, J. Chem. Theory Comput., 2017,
     13, 1989-2009. DOI: 10.1021/acs.jctc.7b00118
   for GFN0-xTB:
   * P. Pracht, E. Caldeweyher, S. Ehlert, S. Grimme, ChemRxiv, 2019, preprint.
     DOI: 10.26434/chemrxiv.8326202.v1
   for GFN-FF:
   * S. Spicher and S. Grimme, Angew. Chem. Int. Ed., 2020, 59, 15665-15673.
     DOI: 10.1002/anie.202004239
   
   for ALPB and GBSA implicit solvation:
   * S. Ehlert, M. Stahn, S. Spicher, S. Grimme, J. Chem. Theory Comput.,
     2021, 17, 4250-4261. DOI: 10.1021/acs.jctc.1c00471
   
   for ddCOSMO and CPCM-X implicit solvation:
   * M. Stahn, S. Ehlert, S. Grimme, J. Phys. Chem. A,
     2023, XX, XXXX-XXXX. DOI: 10.1021/acs.jpca.3c04382
   
   for DFT-D4:
   * E. Caldeweyher, C. Bannwarth and S. Grimme, J. Chem. Phys., 2017,
     147, 034112. DOI: 10.1063/1.4993215
   * E. Caldeweyher, S. Ehlert, A. Hansen, H. Neugebauer, S. Spicher,
     C. Bannwarth and S. Grimme, J. Chem. Phys., 2019, 150, 154122.
     DOI: 10.1063/1.5090222
   * E. Caldeweyher, J.-M. Mewes, S. Ehlert and S. Grimme, Phys. Chem. Chem. Phys.
     2020, 22, 8499-8512. DOI: 10.1039/D0CP00502A
   
   for sTDA-xTB:
   * S. Grimme and C. Bannwarth, J. Chem. Phys., 2016, 145, 054103.
     DOI: 10.1063/1.4959605
   
   in the mass-spec context:
   * V. Asgeirsson, C. Bauer and S. Grimme, Chem. Sci., 2017, 8, 4879.
     DOI: 10.1039/c7sc00601b
   * J. Koopman and S. Grimme, ACS Omega 2019, 4, 12, 15120-15133.
     DOI: 10.1021/acsomega.9b02011
   
   for metadynamics refer to:
   * S. Grimme, J. Chem. Theory Comput., 2019, 155, 2847-2862
     DOI: 10.1021/acs.jctc.9b00143
   
   for SPH calculations refer to:
   * S. Spicher and S. Grimme, J. Chem. Theory Comput., 2021, 17, 1701-1714
     DOI: 10.1021/acs.jctc.0c01306
   
   for ONIOM refer to:
   * C. Plett, A. Katbashev, S. Ehlert, S. Grimme, M. Bursch,
     Phys. Chem. Chem. Phys., 2023, 25, 17860-17868. DOI: 10.1039/D3CP02178E
   
   for DIPRO refer to:
   * J. Kohn, N. Gildemeister, S. Grimme, D. Fazzi, A. Hansen,
     J. Chem. Phys., 2023, just accepted.
   
   for PTB refer to:
   * S. Grimme, M. Mueller, A. Hansen, J. Chem. Phys., 2023, 158, 124111.
     DOI: 10.1063/5.0137838
   
   with help from (in alphabetical order)
   P. Atkinson, C. Bannwarth, F. Bohle, G. Brandenburg, E. Caldeweyher
   M. Checinski, S. Dohm, S. Ehlert, S. Ehrlich, I. Gerasimov, C. Hölzer
   A. Katbashev, J. Kohn, J. Koopman, C. Lavigne, S. Lehtola, F. März, M. Müller,
   F. Musil, H. Neugebauer, J. Pisarek, C. Plett, P. Pracht, F. Pultar,
   J. Seibert, P. Shushkov, S. Spicher, M. Stahn, M. Steiner, T. Strunk,
   J. Stückrath, T. Rose, and J. Unsleber
   
 * started run on 2025/04/07 at 02:42:52.452     
   ID    Z sym.   atoms
    1    6 C      1, 2, 4, 5
    2    8 O      3
    3    1 H      6-15

           -------------------------------------------------
          |                Calculation Setup                |
           -------------------------------------------------

          program call               : /srv/scratch/z5358697/.xtb/bin/xtb solv.coord --gfn2 --sp --chrg 0 --norestart --parallel 1 --alpb water reference -I xtb_sp-xcontrol-inp
          hostname                   : k140
          coordinate file            : solv.coord
          omp threads                :                     1


           -------------------------------------------------
          |                 G F N 2 - x T B                 |
           -------------------------------------------------

        Reference                      10.1021/acs.jctc.8b01176
      * Hamiltonian:
        H0-scaling (s, p, d)           1.850000    2.230000    2.230000
        zeta-weighting                 0.500000
      * Dispersion:
        s8                             2.700000
        a1                             0.520000
        a2                             5.000000
        s9                             5.000000
      * Repulsion:
        kExp                           1.500000    1.000000
        rExp                           1.000000
      * Coulomb:
        alpha                          2.000000
        third order                    shell-resolved
        anisotropic                    true
        a3                             3.000000
        a5                             4.000000
        cn-shift                       1.200000
        cn-exp                         4.000000
        max-rad                        5.000000

      * Solvation model:               ALPB
        Solvent                        water
        Parameter file                 internal GFN2-xTB/ALPB
        Dielectric constant                8.0200E+01
        Reference state                gsolv=reference [X=1]
        Free energy shift                  2.8945E-03 Eh       1.8164E+00 kcal/mol
        Temperature                        2.9815E+02 K
        Density                            1.0000E+00 kg/L
        Solvent mass                       1.8000E+01 g/mol
        Interaction kernel             P16
        Born radius scaling (c1)           1.4744E+00
        Born radii integrator          GBOBC
        Born offset                        0.0000E+00 a0       0.0000E+00 AA
        H-bond correction              true
        Ion screening                  false
        Surface tension                    1.0000E-05 Eh       1.5569E+01 dyn/cm
        Grid points                               974 per atom

          ...................................................
          :                      SETUP                      :
          :.................................................:
          :  # basis functions                  30          :
          :  # atomic orbitals                  30          :
          :  # shells                           20          :
          :  # electrons                        32          :
          :  max. iterations                   250          :
          :  Hamiltonian                  GFN2-xTB          :
          :  restarted?                      false          :
          :  GBSA solvation                   true          :
          :  PC potential                    false          :
          :  electronic temp.          300.0000000     K    :
          :  accuracy                    1.0000000          :
          :  -> integral cutoff          0.2500000E+02      :
          :  -> integral neglect         0.1000000E-07      :
          :  -> SCF convergence          0.1000000E-05 Eh   :
          :  -> wf. convergence          0.1000000E-03 e    :
          :  Broyden damping             0.4000000          :
          :  net charge                          0          :
          :  unpaired electrons                  0          :
          ...................................................

 iter      E             dE          RMSdq      gap      omega  full diag
   1    -17.8931961 -0.178932E+02  0.354E+00   11.77       0.0  T
   2    -17.9297076 -0.365115E-01  0.174E+00   11.38       1.0  T
   3    -17.9303771 -0.669532E-03  0.703E-01   11.44       1.0  T
   4    -17.9305342 -0.157096E-03  0.114E-01   11.46       1.0  T
   5    -17.9305498 -0.156025E-04  0.613E-02   11.48       1.0  T
   6    -17.9305509 -0.109545E-05  0.664E-03   11.48       3.9  T
   7    -17.9305510 -0.114419E-06  0.235E-03   11.48      11.0  T
   8    -17.9305510 -0.576561E-08  0.111E-03   11.48      23.4  T
   9    -17.9305510 -0.454334E-08  0.151E-04   11.48     171.0  T
  10    -17.9305510  0.568328E-10  0.110E-04   11.48     235.3  T

   *** convergence criteria satisfied after 10 iterations ***

         #    Occupation            Energy/Eh            Energy/eV
      -------------------------------------------------------------
         1        2.0000           -0.6966697             -18.9573
       ...           ...                  ...                  ...
        10        2.0000           -0.4923855             -13.3985
        11        2.0000           -0.4680179             -12.7354
        12        2.0000           -0.4618072             -12.5664
        13        2.0000           -0.4602483             -12.5240
        14        2.0000           -0.4438260             -12.0771
        15        2.0000           -0.4262152             -11.5979
        16        2.0000           -0.3988168             -10.8524 (HOMO)
        17                          0.0232295               0.6321 (LUMO)
        18                          0.0867617               2.3609
        19                          0.1185289               3.2253
        20                          0.1228210               3.3421
        21                          0.1235387               3.3617
       ...                                ...                  ...
        30                          0.2987790               8.1302
      -------------------------------------------------------------
                  HL-Gap            0.4220463 Eh           11.4845 eV
             Fermi-level           -0.1877937 Eh           -5.1101 eV

 SCC (total)                   0 d,  0 h,  0 min,  0.025 sec
 SCC setup                      ...        0 min,  0.001 sec (  2.881%)
 Dispersion                     ...        0 min,  0.000 sec (  0.225%)
 classical contributions        ...        0 min,  0.000 sec (  0.049%)
 integral evaluation            ...        0 min,  0.001 sec (  4.521%)
 iterations                     ...        0 min,  0.021 sec ( 84.731%)
 molecular gradient             ...        0 min,  0.002 sec (  7.182%)
 printout                       ...        0 min,  0.000 sec (  0.372%)

         :::::::::::::::::::::::::::::::::::::::::::::::::::::
         ::                     SUMMARY                     ::
         :::::::::::::::::::::::::::::::::::::::::::::::::::::
         :: total energy             -17.720845224821 Eh    ::
         :: total w/o Gsasa/hb       -17.722933882535 Eh    ::
         :: gradient norm              0.000322044200 Eh/a0 ::
         :: HOMO-LUMO gap             11.484465151451 eV    ::
         ::.................................................::
         :: SCC energy               -17.930539405280 Eh    ::
         :: -> isotropic ES            0.026460640745 Eh    ::
         :: -> anisotropic ES          0.003529360470 Eh    ::
         :: -> anisotropic XC          0.006292694015 Eh    ::
         :: -> dispersion             -0.007173084688 Eh    ::
         :: -> Gsolv                  -0.001447433714 Eh    ::
         ::    -> Gelec               -0.003536091429 Eh    ::
         ::    -> Gsasa                0.000147162751 Eh    ::
         ::    -> Ghb                 -0.000953054197 Eh    ::
         ::    -> Gshift               0.002894549160 Eh    ::
         :: repulsion energy           0.209694180459 Eh    ::
         :: add. restraining           0.000000000000 Eh    ::
         :: total charge              -0.000000000000 e     ::
         :::::::::::::::::::::::::::::::::::::::::::::::::::::

           -------------------------------------------------
          |                Property Printout                |
           -------------------------------------------------

    * Orbital Energies and Occupations

         #    Occupation            Energy/Eh            Energy/eV
      -------------------------------------------------------------
         1        2.0000           -0.6966697             -18.9573
       ...           ...                  ...                  ...
         4        2.0000           -0.5962316             -16.2243
         5        2.0000           -0.5649295             -15.3725
         6        2.0000           -0.5491832             -14.9440
         7        2.0000           -0.5457062             -14.8494
         8        2.0000           -0.5165587             -14.0563
         9        2.0000           -0.4965897             -13.5129
        10        2.0000           -0.4923855             -13.3985
        11        2.0000           -0.4680179             -12.7354
        12        2.0000           -0.4618072             -12.5664
        13        2.0000           -0.4602483             -12.5240
        14        2.0000           -0.4438260             -12.0771
        15        2.0000           -0.4262152             -11.5979
        16        2.0000           -0.3988168             -10.8524 (HOMO)
        17                          0.0232295               0.6321 (LUMO)
        18                          0.0867617               2.3609
        19                          0.1185289               3.2253
        20                          0.1228210               3.3421
        21                          0.1235387               3.3617
        22                          0.1493396               4.0637
        23                          0.1683652               4.5815
        24                          0.1957524               5.3267
        25                          0.2006840               5.4609
        26                          0.2070730               5.6347
        27                          0.2473319               6.7302
       ...                                ...                  ...
        30                          0.2987790               8.1302
      -------------------------------------------------------------
                  HL-Gap            0.4220463 Eh           11.4845 eV
             Fermi-level           -0.1877937 Eh           -5.1101 eV

     #   Z          covCN         q      C6AA      α(0)
     1   6 C        3.750    -0.125    22.972     6.836
     2   6 C        3.685     0.077    19.484     6.320
     3   8 O        1.698    -0.370    20.267     6.078
     4   6 C        3.685     0.077    19.485     6.320
     5   6 C        3.750    -0.125    22.972     6.836
     6   1 H        0.925     0.051     2.303     2.373
     7   1 H        0.925     0.047     2.357     2.401
     8   1 H        0.925     0.054     2.272     2.357
     9   1 H        0.924     0.030     2.593     2.518
    10   1 H        0.924     0.052     2.299     2.371
    11   1 H        0.924     0.030     2.592     2.518
    12   1 H        0.924     0.052     2.299     2.371
    13   1 H        0.925     0.054     2.272     2.357
    14   1 H        0.925     0.051     2.303     2.373
    15   1 H        0.925     0.047     2.357     2.401

 Mol. C6AA /au·bohr⁶  :       1459.579518
 Mol. C8AA /au·bohr⁸  :      29709.647569
 Mol. α(0) /au        :         56.429675


Wiberg/Mayer (AO) data.
largest (>0.10) Wiberg bond orders for each atom

 ---------------------------------------------------------------------------
     #   Z sym  total        # sym  WBO       # sym  WBO       # sym  WBO
 ---------------------------------------------------------------------------
     1   6 C    3.994 --     2 C    1.011     6 H    0.987     7 H    0.985
                             8 H    0.984
     2   6 C    3.948 --     1 C    1.011     3 O    0.973    10 H    0.971
                             9 H    0.969
     3   8 O    2.047 --     2 C    0.973     4 C    0.973
     4   6 C    3.948 --     5 C    1.011     3 O    0.973    12 H    0.971
                            11 H    0.969
     5   6 C    3.994 --     4 C    1.011    14 H    0.987    15 H    0.985
                            13 H    0.984
     6   1 H    0.997 --     1 C    0.987
     7   1 H    0.998 --     1 C    0.985
     8   1 H    0.997 --     1 C    0.984
     9   1 H    0.999 --     2 C    0.969
    10   1 H    0.997 --     2 C    0.971
    11   1 H    0.999 --     4 C    0.969
    12   1 H    0.997 --     4 C    0.971
    13   1 H    0.997 --     5 C    0.984
    14   1 H    0.997 --     5 C    0.987
    15   1 H    0.998 --     5 C    0.985
 ---------------------------------------------------------------------------

Topologies differ in total number of bonds
Writing topology from bond orders to xtbtopo.mol

molecular dipole:
                 x           y           z       tot (Debye)
 q only:        0.000       0.631      -0.000
   full:        0.000       0.748      -0.000       1.901
molecular quadrupole (traceless):
                xx          xy          yy          xz          yz          zz
 q only:        2.938      -0.001      -2.717       1.100       0.000      -0.221
  q+dip:        2.184      -0.001      -2.573       0.806      -0.001       0.389
   full:        2.604      -0.001      -2.834       1.122      -0.000       0.230


           -------------------------------------------------
          | TOTAL ENERGY              -17.720845224821 Eh   |
          | GRADIENT NORM               0.000322044200 Eh/α |
          | HOMO-LUMO GAP              11.484465151451 eV   |
           -------------------------------------------------

------------------------------------------------------------------------
 * finished run on 2025/04/07 at 02:42:52.521     
------------------------------------------------------------------------
 total:
 * wall-time:     0 d,  0 h,  0 min,  0.069 sec
 *  cpu-time:     0 d,  0 h,  0 min,  0.014 sec
 * ratio c/w:     0.208 speedup
 SCF:
 * wall-time:     0 d,  0 h,  0 min,  0.025 sec
 *  cpu-time:     0 d,  0 h,  0 min,  0.007 sec
 * ratio c/w:     0.296 speedup

