      -----------------------------------------------------------      
     |                   =====================                   |     
     |                           x T B                           |     
     |                   =====================                   |     
     |                         S. Grimme                         |     
     |          Mulliken Center for Theoretical Chemistry        |     
     |                    University of Bonn                     |     
      -----------------------------------------------------------      

   * xtb version 6.7.1 (edcfbbe) compiled by 'albert@albert-system' on 2024-07-22

   xtb is free software: you can redistribute it and/or modify it under
   the terms of the GNU Lesser General Public License as published by
   the Free Software Foundation, either version 3 of the License, or
   (at your option) any later version.
   
   xtb is distributed in the hope that it will be useful,
   but WITHOUT ANY WARRANTY; without even the implied warranty of
   MERCHANTABILITY or FITNESS FOR A PARTICULAR PURPOSE.  See the
   GNU Lesser General Public License for more details.
   
   Cite this work as:
   * C. Bannwarth, E. Caldeweyher, S. Ehlert, A. Hansen, P. Pracht,
     J. Seibert, S. Spicher, S. Grimme, WIREs Comput. Mol. Sci., 2020, 11,
     e01493. DOI: 10.1002/wcms.1493
   
   for GFN2-xTB:
   * C. Bannwarth, S. Ehlert and S. Grimme., J. Chem. Theory Comput., 2019,
     15, 1652-1671. DOI: 10.1021/acs.jctc.8b01176
   for GFN1-xTB:
   * S. Grimme, C. Bannwarth, P. Shushkov, J. Chem. Theory Comput., 2017,
     13, 1989-2009. DOI: 10.1021/acs.jctc.7b00118
   for GFN0-xTB:
   * P. Pracht, E. Caldeweyher, S. Ehlert, S. Grimme, ChemRxiv, 2019, preprint.
     DOI: 10.26434/chemrxiv.8326202.v1
   for GFN-FF:
   * S. Spicher and S. Grimme, Angew. Chem. Int. Ed., 2020, 59, 15665-15673.
     DOI: 10.1002/anie.202004239
   
   for ALPB and GBSA implicit solvation:
   * S. Ehlert, M. Stahn, S. Spicher, S. Grimme, J. Chem. Theory Comput.,
     2021, 17, 4250-4261. DOI: 10.1021/acs.jctc.1c00471
   
   for ddCOSMO and CPCM-X implicit solvation:
   * M. Stahn, S. Ehlert, S. Grimme, J. Phys. Chem. A,
     2023, XX, XXXX-XXXX. DOI: 10.1021/acs.jpca.3c04382
   
   for DFT-D4:
   * E. Caldeweyher, C. Bannwarth and S. Grimme, J. Chem. Phys., 2017,
     147, 034112. DOI: 10.1063/1.4993215
   * E. Caldeweyher, S. Ehlert, A. Hansen, H. Neugebauer, S. Spicher,
     C. Bannwarth and S. Grimme, J. Chem. Phys., 2019, 150, 154122.
     DOI: 10.1063/1.5090222
   * E. Caldeweyher, J.-M. Mewes, S. Ehlert and S. Grimme, Phys. Chem. Chem. Phys.
     2020, 22, 8499-8512. DOI: 10.1039/D0CP00502A
   
   for sTDA-xTB:
   * S. Grimme and C. Bannwarth, J. Chem. Phys., 2016, 145, 054103.
     DOI: 10.1063/1.4959605
   
   in the mass-spec context:
   * V. Asgeirsson, C. Bauer and S. Grimme, Chem. Sci., 2017, 8, 4879.
     DOI: 10.1039/c7sc00601b
   * J. Koopman and S. Grimme, ACS Omega 2019, 4, 12, 15120-15133.
     DOI: 10.1021/acsomega.9b02011
   
   for metadynamics refer to:
   * S. Grimme, J. Chem. Theory Comput., 2019, 155, 2847-2862
     DOI: 10.1021/acs.jctc.9b00143
   
   for SPH calculations refer to:
   * S. Spicher and S. Grimme, J. Chem. Theory Comput., 2021, 17, 1701-1714
     DOI: 10.1021/acs.jctc.0c01306
   
   for ONIOM refer to:
   * C. Plett, A. Katbashev, S. Ehlert, S. Grimme, M. Bursch,
     Phys. Chem. Chem. Phys., 2023, 25, 17860-17868. DOI: 10.1039/D3CP02178E
   
   for DIPRO refer to:
   * J. Kohn, N. Gildemeister, S. Grimme, D. Fazzi, A. Hansen,
     J. Chem. Phys., 2023, just accepted.
   
   for PTB refer to:
   * S. Grimme, M. Mueller, A. Hansen, J. Chem. Phys., 2023, 158, 124111.
     DOI: 10.1063/5.0137838
   
   with help from (in alphabetical order)
   P. Atkinson, C. Bannwarth, F. Bohle, G. Brandenburg, E. Caldeweyher
   M. Checinski, S. Dohm, S. Ehlert, S. Ehrlich, I. Gerasimov, C. Hölzer
   A. Katbashev, J. Kohn, J. Koopman, C. Lavigne, S. Lehtola, F. März, M. Müller,
   F. Musil, H. Neugebauer, J. Pisarek, C. Plett, P. Pracht, F. Pultar,
   J. Seibert, P. Shushkov, S. Spicher, M. Stahn, M. Steiner, T. Strunk,
   J. Stückrath, T. Rose, and J. Unsleber
   
 * started run on 2025/04/07 at 00:46:57.495     
   ID    Z sym.   atoms
    1    6 C      1-6, 8
    2    8 O      7, 9
    3    1 H      10-15

           -------------------------------------------------
          |                Calculation Setup                |
           -------------------------------------------------

          program call               : /srv/scratch/z5358697/.xtb/bin/xtb gas.coord --gfn2 --sp --chrg 0 --norestart --parallel 1
          hostname                   : k157
          coordinate file            : gas.coord
          omp threads                :                     1


           -------------------------------------------------
          |                 G F N 2 - x T B                 |
           -------------------------------------------------

        Reference                      10.1021/acs.jctc.8b01176
      * Hamiltonian:
        H0-scaling (s, p, d)           1.850000    2.230000    2.230000
        zeta-weighting                 0.500000
      * Dispersion:
        s8                             2.700000
        a1                             0.520000
        a2                             5.000000
        s9                             5.000000
      * Repulsion:
        kExp                           1.500000    1.000000
        rExp                           1.000000
      * Coulomb:
        alpha                          2.000000
        third order                    shell-resolved
        anisotropic                    true
        a3                             3.000000
        a5                             4.000000
        cn-shift                       1.200000
        cn-exp                         4.000000
        max-rad                        5.000000


          ...................................................
          :                      SETUP                      :
          :.................................................:
          :  # basis functions                  42          :
          :  # atomic orbitals                  42          :
          :  # shells                           24          :
          :  # electrons                        46          :
          :  max. iterations                   250          :
          :  Hamiltonian                  GFN2-xTB          :
          :  restarted?                      false          :
          :  GBSA solvation                  false          :
          :  PC potential                    false          :
          :  electronic temp.          300.0000000     K    :
          :  accuracy                    1.0000000          :
          :  -> integral cutoff          0.2500000E+02      :
          :  -> integral neglect         0.1000000E-07      :
          :  -> SCF convergence          0.1000000E-05 Eh   :
          :  -> wf. convergence          0.1000000E-03 e    :
          :  Broyden damping             0.4000000          :
          :  net charge                          0          :
          :  unpaired electrons                  0          :
          ...................................................

 iter      E             dE          RMSdq      gap      omega  full diag
   1    -26.4869906 -0.264870E+02  0.533E+00    4.66       0.0  T
   2    -26.5322735 -0.452830E-01  0.297E+00    4.68       1.0  T
   3    -26.5317992  0.474340E-03  0.148E+00    4.69       1.0  T
   4    -26.5374618 -0.566255E-02  0.282E-01    4.75       1.0  T
   5    -26.5380054 -0.543621E-03  0.924E-02    4.73       1.0  T
   6    -26.5380653 -0.598768E-04  0.388E-02    4.74       1.0  T
   7    -26.5380677 -0.247404E-05  0.117E-02    4.75       2.2  T
   8    -26.5380684 -0.651110E-06  0.446E-03    4.74       5.8  T
   9    -26.5380685 -0.842420E-07  0.151E-03    4.74      17.0  T
  10    -26.5380685 -0.112340E-07  0.423E-04    4.74      61.0  T
  11    -26.5380685 -0.202821E-09  0.823E-05    4.74     313.7  T

   *** convergence criteria satisfied after 11 iterations ***

         #    Occupation            Energy/Eh            Energy/eV
      -------------------------------------------------------------
         1        2.0000           -0.7596115             -20.6701
       ...           ...                  ...                  ...
        17        2.0000           -0.4917152             -13.3803
        18        2.0000           -0.4753647             -12.9353
        19        2.0000           -0.4546624             -12.3720
        20        2.0000           -0.4388114             -11.9407
        21        2.0000           -0.4324003             -11.7662
        22        2.0000           -0.4251354             -11.5685
        23        2.0000           -0.4195002             -11.4152 (HOMO)
        24                         -0.2451689              -6.6714 (LUMO)
        25                         -0.2431910              -6.6176
        26                         -0.2426593              -6.6031
        27                         -0.1132093              -3.0806
        28                          0.0038722               0.1054
       ...                                ...                  ...
        42                          0.6552061              17.8291
      -------------------------------------------------------------
                  HL-Gap            0.1743314 Eh            4.7438 eV
             Fermi-level           -0.3323346 Eh           -9.0433 eV

 SCC (total)                   0 d,  0 h,  0 min,  0.023 sec
 SCC setup                      ...        0 min,  0.000 sec (  0.909%)
 Dispersion                     ...        0 min,  0.000 sec (  0.474%)
 classical contributions        ...        0 min,  0.000 sec (  0.107%)
 integral evaluation            ...        0 min,  0.002 sec (  6.481%)
 iterations                     ...        0 min,  0.018 sec ( 76.123%)
 molecular gradient             ...        0 min,  0.004 sec ( 15.194%)
 printout                       ...        0 min,  0.000 sec (  0.640%)

         :::::::::::::::::::::::::::::::::::::::::::::::::::::
         ::                     SUMMARY                     ::
         :::::::::::::::::::::::::::::::::::::::::::::::::::::
         :: total energy             -26.160860725442 Eh    ::
         :: gradient norm              0.025928335560 Eh/a0 ::
         :: HOMO-LUMO gap              4.743797749858 eV    ::
         ::.................................................::
         :: SCC energy               -26.538046198627 Eh    ::
         :: -> isotropic ES            0.040382571513 Eh    ::
         :: -> anisotropic ES          0.000821468363 Eh    ::
         :: -> anisotropic XC          0.008928788243 Eh    ::
         :: -> dispersion             -0.011768733865 Eh    ::
         :: repulsion energy           0.377185473185 Eh    ::
         :: add. restraining           0.000000000000 Eh    ::
         :: total charge              -0.000000000000 e     ::
         :::::::::::::::::::::::::::::::::::::::::::::::::::::

           -------------------------------------------------
          |                Property Printout                |
           -------------------------------------------------

    * Orbital Energies and Occupations

         #    Occupation            Energy/Eh            Energy/eV
      -------------------------------------------------------------
         1        2.0000           -0.7596115             -20.6701
       ...           ...                  ...                  ...
        11        2.0000           -0.5703227             -15.5193
        12        2.0000           -0.5374515             -14.6248
        13        2.0000           -0.5211811             -14.1821
        14        2.0000           -0.5155864             -14.0298
        15        2.0000           -0.5045791             -13.7303
        16        2.0000           -0.4975211             -13.5382
        17        2.0000           -0.4917152             -13.3803
        18        2.0000           -0.4753647             -12.9353
        19        2.0000           -0.4546624             -12.3720
        20        2.0000           -0.4388114             -11.9407
        21        2.0000           -0.4324003             -11.7662
        22        2.0000           -0.4251354             -11.5685
        23        2.0000           -0.4195002             -11.4152 (HOMO)
        24                         -0.2451689              -6.6714 (LUMO)
        25                         -0.2431910              -6.6176
        26                         -0.2426593              -6.6031
        27                         -0.1132093              -3.0806
        28                          0.0038722               0.1054
        29                          0.1103015               3.0015
        30                          0.1342527               3.6532
        31                          0.1581161               4.3026
        32                          0.1639149               4.4604
        33                          0.1769146               4.8141
        34                          0.1898135               5.1651
       ...                                ...                  ...
        42                          0.6552061              17.8291
      -------------------------------------------------------------
                  HL-Gap            0.1743314 Eh            4.7438 eV
             Fermi-level           -0.3323346 Eh           -9.0433 eV

     #   Z          covCN         q      C6AA      α(0)
     1   6 C        2.919    -0.029    28.720     8.788
     2   6 C        2.923    -0.025    28.623     8.773
     3   6 C        2.917    -0.037    28.926     8.819
     4   6 C        2.883     0.144    24.866     8.175
     5   6 C        2.917    -0.037    28.921     8.819
     6   6 C        2.923    -0.025    28.621     8.773
     7   8 O        1.705    -0.239    17.957     5.721
     8   6 C        2.666     0.343    21.181     7.530
     9   8 O        0.856    -0.381    21.311     6.189
    10   1 H        0.926     0.048     2.350     2.397
    11   1 H        0.926     0.050     2.325     2.384
    12   1 H        0.926     0.054     2.266     2.354
    13   1 H        0.926     0.054     2.266     2.354
    14   1 H        0.926     0.050     2.324     2.384
    15   1 H        0.923     0.031     2.578     2.511

 Mol. C6AA /au·bohr⁶  :       2952.122675
 Mol. C8AA /au·bohr⁸  :      71280.796334
 Mol. α(0) /au        :         85.974293


Wiberg/Mayer (AO) data.
largest (>0.10) Wiberg bond orders for each atom

 ---------------------------------------------------------------------------
     #   Z sym  total        # sym  WBO       # sym  WBO       # sym  WBO
 ---------------------------------------------------------------------------
     1   6 C    3.992 --     6 C    1.441     2 C    1.441    10 H    0.970
                             4 C    0.106
     2   6 C    3.991 --     1 C    1.441     3 C    1.439    11 H    0.970
                             5 C    0.113
     3   6 C    3.990 --     2 C    1.439     4 C    1.408    12 H    0.968
                             6 C    0.113
     4   6 C    3.912 --     5 C    1.408     3 C    1.408     7 O    0.927
                             1 C    0.106
     5   6 C    3.990 --     6 C    1.439     4 C    1.408    13 H    0.968
                             2 C    0.113
     6   6 C    3.991 --     1 C    1.441     5 C    1.439    14 H    0.970
                             3 C    0.113
     7   8 O    2.372 --     8 C    1.174     4 C    0.927     9 O    0.197
     8   6 C    3.921 --     9 O    1.794     7 O    1.174    15 H    0.915
     9   8 O    2.058 --     8 C    1.794     7 O    0.197
    10   1 H    0.998 --     1 C    0.970
    11   1 H    0.997 --     2 C    0.970
    12   1 H    0.997 --     3 C    0.968
    13   1 H    0.997 --     5 C    0.968
    14   1 H    0.997 --     6 C    0.970
    15   1 H    0.998 --     8 C    0.915
 ---------------------------------------------------------------------------

Topologies differ in total number of bonds
Writing topology from bond orders to xtbtopo.mol

molecular dipole:
                 x           y           z       tot (Debye)
 q only:       -0.914      -0.073      -0.541
   full:       -0.752      -0.138      -0.691       2.618
molecular quadrupole (traceless):
                xx          xy          yy          xz          yz          zz
 q only:        1.564      -1.466       2.503      -5.117      -1.570      -4.067
  q+dip:        2.666      -2.204       5.090      -8.191      -3.276      -7.757
   full:        1.857      -1.847       4.240      -6.934      -2.633      -6.097


           -------------------------------------------------
          | TOTAL ENERGY              -26.160860725442 Eh   |
          | GRADIENT NORM               0.025928335560 Eh/α |
          | HOMO-LUMO GAP               4.743797749858 eV   |
           -------------------------------------------------

------------------------------------------------------------------------
 * finished run on 2025/04/07 at 00:46:57.577     
------------------------------------------------------------------------
 total:
 * wall-time:     0 d,  0 h,  0 min,  0.081 sec
 *  cpu-time:     0 d,  0 h,  0 min,  0.022 sec
 * ratio c/w:     0.277 speedup
 SCF:
 * wall-time:     0 d,  0 h,  0 min,  0.024 sec
 *  cpu-time:     0 d,  0 h,  0 min,  0.012 sec
 * ratio c/w:     0.506 speedup

