      -----------------------------------------------------------      
     |                   =====================                   |     
     |                           x T B                           |     
     |                   =====================                   |     
     |                         S. Grimme                         |     
     |          Mulliken Center for Theoretical Chemistry        |     
     |                    University of Bonn                     |     
      -----------------------------------------------------------      

   * xtb version 6.7.1 (edcfbbe) compiled by 'albert@albert-system' on 2024-07-22

   xtb is free software: you can redistribute it and/or modify it under
   the terms of the GNU Lesser General Public License as published by
   the Free Software Foundation, either version 3 of the License, or
   (at your option) any later version.
   
   xtb is distributed in the hope that it will be useful,
   but WITHOUT ANY WARRANTY; without even the implied warranty of
   MERCHANTABILITY or FITNESS FOR A PARTICULAR PURPOSE.  See the
   GNU Lesser General Public License for more details.
   
   Cite this work as:
   * C. Bannwarth, E. Caldeweyher, S. Ehlert, A. Hansen, P. Pracht,
     J. Seibert, S. Spicher, S. Grimme, WIREs Comput. Mol. Sci., 2020, 11,
     e01493. DOI: 10.1002/wcms.1493
   
   for GFN2-xTB:
   * C. Bannwarth, S. Ehlert and S. Grimme., J. Chem. Theory Comput., 2019,
     15, 1652-1671. DOI: 10.1021/acs.jctc.8b01176
   for GFN1-xTB:
   * S. Grimme, C. Bannwarth, P. Shushkov, J. Chem. Theory Comput., 2017,
     13, 1989-2009. DOI: 10.1021/acs.jctc.7b00118
   for GFN0-xTB:
   * P. Pracht, E. Caldeweyher, S. Ehlert, S. Grimme, ChemRxiv, 2019, preprint.
     DOI: 10.26434/chemrxiv.8326202.v1
   for GFN-FF:
   * S. Spicher and S. Grimme, Angew. Chem. Int. Ed., 2020, 59, 15665-15673.
     DOI: 10.1002/anie.202004239
   
   for ALPB and GBSA implicit solvation:
   * S. Ehlert, M. Stahn, S. Spicher, S. Grimme, J. Chem. Theory Comput.,
     2021, 17, 4250-4261. DOI: 10.1021/acs.jctc.1c00471
   
   for ddCOSMO and CPCM-X implicit solvation:
   * M. Stahn, S. Ehlert, S. Grimme, J. Phys. Chem. A,
     2023, XX, XXXX-XXXX. DOI: 10.1021/acs.jpca.3c04382
   
   for DFT-D4:
   * E. Caldeweyher, C. Bannwarth and S. Grimme, J. Chem. Phys., 2017,
     147, 034112. DOI: 10.1063/1.4993215
   * E. Caldeweyher, S. Ehlert, A. Hansen, H. Neugebauer, S. Spicher,
     C. Bannwarth and S. Grimme, J. Chem. Phys., 2019, 150, 154122.
     DOI: 10.1063/1.5090222
   * E. Caldeweyher, J.-M. Mewes, S. Ehlert and S. Grimme, Phys. Chem. Chem. Phys.
     2020, 22, 8499-8512. DOI: 10.1039/D0CP00502A
   
   for sTDA-xTB:
   * S. Grimme and C. Bannwarth, J. Chem. Phys., 2016, 145, 054103.
     DOI: 10.1063/1.4959605
   
   in the mass-spec context:
   * V. Asgeirsson, C. Bauer and S. Grimme, Chem. Sci., 2017, 8, 4879.
     DOI: 10.1039/c7sc00601b
   * J. Koopman and S. Grimme, ACS Omega 2019, 4, 12, 15120-15133.
     DOI: 10.1021/acsomega.9b02011
   
   for metadynamics refer to:
   * S. Grimme, J. Chem. Theory Comput., 2019, 155, 2847-2862
     DOI: 10.1021/acs.jctc.9b00143
   
   for SPH calculations refer to:
   * S. Spicher and S. Grimme, J. Chem. Theory Comput., 2021, 17, 1701-1714
     DOI: 10.1021/acs.jctc.0c01306
   
   for ONIOM refer to:
   * C. Plett, A. Katbashev, S. Ehlert, S. Grimme, M. Bursch,
     Phys. Chem. Chem. Phys., 2023, 25, 17860-17868. DOI: 10.1039/D3CP02178E
   
   for DIPRO refer to:
   * J. Kohn, N. Gildemeister, S. Grimme, D. Fazzi, A. Hansen,
     J. Chem. Phys., 2023, just accepted.
   
   for PTB refer to:
   * S. Grimme, M. Mueller, A. Hansen, J. Chem. Phys., 2023, 158, 124111.
     DOI: 10.1063/5.0137838
   
   with help from (in alphabetical order)
   P. Atkinson, C. Bannwarth, F. Bohle, G. Brandenburg, E. Caldeweyher
   M. Checinski, S. Dohm, S. Ehlert, S. Ehrlich, I. Gerasimov, C. Hölzer
   A. Katbashev, J. Kohn, J. Koopman, C. Lavigne, S. Lehtola, F. März, M. Müller,
   F. Musil, H. Neugebauer, J. Pisarek, C. Plett, P. Pracht, F. Pultar,
   J. Seibert, P. Shushkov, S. Spicher, M. Stahn, M. Steiner, T. Strunk,
   J. Stückrath, T. Rose, and J. Unsleber
   
 * started run on 2025/04/07 at 00:46:57.611     
   ID    Z sym.   atoms
    1    6 C      1-6, 8
    2    8 O      7, 9
    3    1 H      10-15

           -------------------------------------------------
          |                Calculation Setup                |
           -------------------------------------------------

          program call               : /srv/scratch/z5358697/.xtb/bin/xtb solv.coord --gfn2 --sp --chrg 0 --norestart --parallel 1 --alpb water reference -I xtb_sp-xcontrol-inp
          hostname                   : k157
          coordinate file            : solv.coord
          omp threads                :                     1


           -------------------------------------------------
          |                 G F N 2 - x T B                 |
           -------------------------------------------------

        Reference                      10.1021/acs.jctc.8b01176
      * Hamiltonian:
        H0-scaling (s, p, d)           1.850000    2.230000    2.230000
        zeta-weighting                 0.500000
      * Dispersion:
        s8                             2.700000
        a1                             0.520000
        a2                             5.000000
        s9                             5.000000
      * Repulsion:
        kExp                           1.500000    1.000000
        rExp                           1.000000
      * Coulomb:
        alpha                          2.000000
        third order                    shell-resolved
        anisotropic                    true
        a3                             3.000000
        a5                             4.000000
        cn-shift                       1.200000
        cn-exp                         4.000000
        max-rad                        5.000000

      * Solvation model:               ALPB
        Solvent                        water
        Parameter file                 internal GFN2-xTB/ALPB
        Dielectric constant                8.0200E+01
        Reference state                gsolv=reference [X=1]
        Free energy shift                  2.8945E-03 Eh       1.8164E+00 kcal/mol
        Temperature                        2.9815E+02 K
        Density                            1.0000E+00 kg/L
        Solvent mass                       1.8000E+01 g/mol
        Interaction kernel             P16
        Born radius scaling (c1)           1.4744E+00
        Born radii integrator          GBOBC
        Born offset                        0.0000E+00 a0       0.0000E+00 AA
        H-bond correction              true
        Ion screening                  false
        Surface tension                    1.0000E-05 Eh       1.5569E+01 dyn/cm
        Grid points                               974 per atom

          ...................................................
          :                      SETUP                      :
          :.................................................:
          :  # basis functions                  42          :
          :  # atomic orbitals                  42          :
          :  # shells                           24          :
          :  # electrons                        46          :
          :  max. iterations                   250          :
          :  Hamiltonian                  GFN2-xTB          :
          :  restarted?                      false          :
          :  GBSA solvation                   true          :
          :  PC potential                    false          :
          :  electronic temp.          300.0000000     K    :
          :  accuracy                    1.0000000          :
          :  -> integral cutoff          0.2500000E+02      :
          :  -> integral neglect         0.1000000E-07      :
          :  -> SCF convergence          0.1000000E-05 Eh   :
          :  -> wf. convergence          0.1000000E-03 e    :
          :  Broyden damping             0.4000000          :
          :  net charge                          0          :
          :  unpaired electrons                  0          :
          ...................................................

 iter      E             dE          RMSdq      gap      omega  full diag
   1    -26.4938852 -0.264939E+02  0.548E+00    4.77       0.0  T
   2    -26.5377271 -0.438419E-01  0.296E+00    4.16       1.0  T
   3    -26.5375499  0.177164E-03  0.131E+00    4.56       1.0  T
   4    -26.5403354 -0.278545E-02  0.273E-01    4.41       1.0  T
   5    -26.5408880 -0.552626E-03  0.849E-02    4.36       1.0  T
   6    -26.5409068 -0.188671E-04  0.382E-02    4.34       1.0  T
   7    -26.5409110 -0.419424E-05  0.155E-02    4.33       1.7  T
   8    -26.5409118 -0.766668E-06  0.555E-03    4.33       4.7  T
   9    -26.5409119 -0.132904E-06  0.368E-03    4.33       7.0  T
  10    -26.5409120 -0.979475E-07  0.122E-03    4.33      21.2  T
  11    -26.5409120 -0.694340E-08  0.320E-04    4.33      80.7  T
  12    -26.5409120 -0.557282E-09  0.191E-04    4.33     134.9  T

   *** convergence criteria satisfied after 12 iterations ***

         #    Occupation            Energy/Eh            Energy/eV
      -------------------------------------------------------------
         1        2.0000           -0.7676565             -20.8890
       ...           ...                  ...                  ...
        17        2.0000           -0.4880118             -13.2795
        18        2.0000           -0.4800634             -13.0632
        19        2.0000           -0.4515591             -12.2875
        20        2.0000           -0.4401277             -11.9765
        21        2.0000           -0.4327334             -11.7753
        22        2.0000           -0.4189437             -11.4000
        23        2.0000           -0.4160005             -11.3199 (HOMO)
        24                         -0.2567876              -6.9875 (LUMO)
        25                         -0.2377440              -6.4693
        26                         -0.2377072              -6.4683
        27                         -0.1072399              -2.9181
        28                          0.0037954               0.1033
       ...                                ...                  ...
        42                          0.6586278              17.9222
      -------------------------------------------------------------
                  HL-Gap            0.1592128 Eh            4.3324 eV
             Fermi-level           -0.3363940 Eh           -9.1537 eV

 SCC (total)                   0 d,  0 h,  0 min,  0.017 sec
 SCC setup                      ...        0 min,  0.001 sec (  5.334%)
 Dispersion                     ...        0 min,  0.000 sec (  0.603%)
 classical contributions        ...        0 min,  0.000 sec (  0.113%)
 integral evaluation            ...        0 min,  0.001 sec (  8.505%)
 iterations                     ...        0 min,  0.010 sec ( 57.984%)
 molecular gradient             ...        0 min,  0.004 sec ( 26.341%)
 printout                       ...        0 min,  0.000 sec (  0.993%)

         :::::::::::::::::::::::::::::::::::::::::::::::::::::
         ::                     SUMMARY                     ::
         :::::::::::::::::::::::::::::::::::::::::::::::::::::
         :: total energy             -26.163704294222 Eh    ::
         :: total w/o Gsasa/hb       -26.166398424200 Eh    ::
         :: gradient norm              0.000395089273 Eh/a0 ::
         :: HOMO-LUMO gap              4.332401687628 eV    ::
         ::.................................................::
         :: SCC energy               -26.540889767408 Eh    ::
         :: -> isotropic ES            0.048971459567 Eh    ::
         :: -> anisotropic ES         -0.000356649040 Eh    ::
         :: -> anisotropic XC          0.009259093893 Eh    ::
         :: -> dispersion             -0.011695629818 Eh    ::
         :: -> Gsolv                  -0.004496583150 Eh    ::
         ::    -> Gelec               -0.007190713128 Eh    ::
         ::    -> Gsasa                0.001615234827 Eh    ::
         ::    -> Ghb                 -0.001815654009 Eh    ::
         ::    -> Gshift               0.002894549160 Eh    ::
         :: repulsion energy           0.377185473185 Eh    ::
         :: add. restraining           0.000000000000 Eh    ::
         :: total charge              -0.000000000000 e     ::
         :::::::::::::::::::::::::::::::::::::::::::::::::::::

           -------------------------------------------------
          |                Property Printout                |
           -------------------------------------------------

    * Orbital Energies and Occupations

         #    Occupation            Energy/Eh            Energy/eV
      -------------------------------------------------------------
         1        2.0000           -0.7676565             -20.8890
       ...           ...                  ...                  ...
        11        2.0000           -0.5689975             -15.4832
        12        2.0000           -0.5347509             -14.5513
        13        2.0000           -0.5228480             -14.2274
        14        2.0000           -0.5173808             -14.0786
        15        2.0000           -0.4977183             -13.5436
        16        2.0000           -0.4901702             -13.3382
        17        2.0000           -0.4880118             -13.2795
        18        2.0000           -0.4800634             -13.0632
        19        2.0000           -0.4515591             -12.2875
        20        2.0000           -0.4401277             -11.9765
        21        2.0000           -0.4327334             -11.7753
        22        2.0000           -0.4189437             -11.4000
        23        2.0000           -0.4160005             -11.3199 (HOMO)
        24                         -0.2567876              -6.9875 (LUMO)
        25                         -0.2377440              -6.4693
        26                         -0.2377072              -6.4683
        27                         -0.1072399              -2.9181
        28                          0.0037954               0.1033
        29                          0.1182288               3.2172
        30                          0.1417197               3.8564
        31                          0.1606731               4.3721
        32                          0.1659176               4.5148
        33                          0.1839643               5.0059
        34                          0.1976287               5.3778
       ...                                ...                  ...
        42                          0.6586278              17.9222
      -------------------------------------------------------------
                  HL-Gap            0.1592128 Eh            4.3324 eV
             Fermi-level           -0.3363940 Eh           -9.1537 eV

     #   Z          covCN         q      C6AA      α(0)
     1   6 C        2.919    -0.034    28.842     8.807
     2   6 C        2.923    -0.030    28.758     8.794
     3   6 C        2.917    -0.044    29.085     8.844
     4   6 C        2.883     0.136    25.023     8.201
     5   6 C        2.917    -0.044    29.080     8.843
     6   6 C        2.923    -0.030    28.757     8.794
     7   8 O        1.705    -0.243    18.020     5.731
     8   6 C        2.666     0.350    21.059     7.509
     9   8 O        0.856    -0.441    22.508     6.361
    10   1 H        0.926     0.067     2.117     2.275
    11   1 H        0.926     0.068     2.113     2.273
    12   1 H        0.926     0.060     2.197     2.318
    13   1 H        0.926     0.060     2.203     2.321
    14   1 H        0.926     0.067     2.115     2.274
    15   1 H        0.923     0.057     2.237     2.339

 Mol. C6AA /au·bohr⁶  :       2933.617161
 Mol. C8AA /au·bohr⁸  :      71106.360086
 Mol. α(0) /au        :         85.684126


Wiberg/Mayer (AO) data.
largest (>0.10) Wiberg bond orders for each atom

 ---------------------------------------------------------------------------
     #   Z sym  total        # sym  WBO       # sym  WBO       # sym  WBO
 ---------------------------------------------------------------------------
     1   6 C    3.989 --     6 C    1.441     2 C    1.441    10 H    0.968
                             4 C    0.106
     2   6 C    3.988 --     1 C    1.441     3 C    1.438    11 H    0.967
                             5 C    0.113
     3   6 C    3.988 --     2 C    1.438     4 C    1.408    12 H    0.967
                             6 C    0.113
     4   6 C    3.898 --     5 C    1.408     3 C    1.408     7 O    0.912
                             1 C    0.106
     5   6 C    3.988 --     6 C    1.438     4 C    1.408    13 H    0.967
                             2 C    0.113
     6   6 C    3.988 --     1 C    1.441     5 C    1.438    14 H    0.967
                             3 C    0.113
     7   8 O    2.376 --     8 C    1.199     4 C    0.912     9 O    0.196
     8   6 C    3.909 --     9 O    1.755     7 O    1.199    15 H    0.915
     9   8 O    2.017 --     8 C    1.755     7 O    0.196
    10   1 H    0.995 --     1 C    0.968
    11   1 H    0.995 --     2 C    0.967
    12   1 H    0.996 --     3 C    0.967
    13   1 H    0.996 --     5 C    0.967
    14   1 H    0.995 --     6 C    0.967
    15   1 H    0.995 --     8 C    0.915
 ---------------------------------------------------------------------------

Topologies differ in total number of bonds
Writing topology from bond orders to xtbtopo.mol

molecular dipole:
                 x           y           z       tot (Debye)
 q only:       -1.200      -0.078      -0.644
   full:       -0.962      -0.142      -0.768       3.150
molecular quadrupole (traceless):
                xx          xy          yy          xz          yz          zz
 q only:        2.644      -2.017       2.557      -6.542      -1.778      -5.201
  q+dip:        3.424      -2.609       5.172      -9.265      -3.442      -8.596
   full:        2.593      -2.251       4.311      -8.007      -2.784      -6.903


           -------------------------------------------------
          | TOTAL ENERGY              -26.163704294222 Eh   |
          | GRADIENT NORM               0.000395089273 Eh/α |
          | HOMO-LUMO GAP               4.332401687628 eV   |
           -------------------------------------------------

------------------------------------------------------------------------
 * finished run on 2025/04/07 at 00:46:57.679     
------------------------------------------------------------------------
 total:
 * wall-time:     0 d,  0 h,  0 min,  0.067 sec
 *  cpu-time:     0 d,  0 h,  0 min,  0.023 sec
 * ratio c/w:     0.338 speedup
 SCF:
 * wall-time:     0 d,  0 h,  0 min,  0.017 sec
 *  cpu-time:     0 d,  0 h,  0 min,  0.013 sec
 * ratio c/w:     0.744 speedup

