! r2scan-3c def2/J RI DEFGRID2 scfconv6 printgap
%output
    printlevel normal
end
%cpcm
    smd true
    smdsolvent "water"
end
* xyz 0 1
C -3.6538245697 -0.0267928525 2.08731e-05
C -2.22318779 0.5038157132 -2.52567e-05
C -1.2448347701 -0.652217554 -1.50669e-05
I 0.8238371442 0.0225612704 8.715e-07
H -4.3562309941 0.8016366136 -1.75104e-05
H -3.8369235856 -0.6351030015 -0.8825154494
H -3.836754018 -0.6348583859 0.8827375242
H -2.0626468423 1.1263818842 0.8825318099
H -2.0627929608 1.1261263424 -0.8827663224
H -1.3525214387 -1.2686744891 -0.8886467769
H -1.3523585216 -1.2684390447 0.8887987702
*
