      -----------------------------------------------------------      
     |                   =====================                   |     
     |                           x T B                           |     
     |                   =====================                   |     
     |                         S. Grimme                         |     
     |          Mulliken Center for Theoretical Chemistry        |     
     |                    University of Bonn                     |     
      -----------------------------------------------------------      

   * xtb version 6.7.1 (edcfbbe) compiled by 'albert@albert-system' on 2024-07-22

   xtb is free software: you can redistribute it and/or modify it under
   the terms of the GNU Lesser General Public License as published by
   the Free Software Foundation, either version 3 of the License, or
   (at your option) any later version.
   
   xtb is distributed in the hope that it will be useful,
   but WITHOUT ANY WARRANTY; without even the implied warranty of
   MERCHANTABILITY or FITNESS FOR A PARTICULAR PURPOSE.  See the
   GNU Lesser General Public License for more details.
   
   Cite this work as:
   * C. Bannwarth, E. Caldeweyher, S. Ehlert, A. Hansen, P. Pracht,
     J. Seibert, S. Spicher, S. Grimme, WIREs Comput. Mol. Sci., 2020, 11,
     e01493. DOI: 10.1002/wcms.1493
   
   for GFN2-xTB:
   * C. Bannwarth, S. Ehlert and S. Grimme., J. Chem. Theory Comput., 2019,
     15, 1652-1671. DOI: 10.1021/acs.jctc.8b01176
   for GFN1-xTB:
   * S. Grimme, C. Bannwarth, P. Shushkov, J. Chem. Theory Comput., 2017,
     13, 1989-2009. DOI: 10.1021/acs.jctc.7b00118
   for GFN0-xTB:
   * P. Pracht, E. Caldeweyher, S. Ehlert, S. Grimme, ChemRxiv, 2019, preprint.
     DOI: 10.26434/chemrxiv.8326202.v1
   for GFN-FF:
   * S. Spicher and S. Grimme, Angew. Chem. Int. Ed., 2020, 59, 15665-15673.
     DOI: 10.1002/anie.202004239
   
   for ALPB and GBSA implicit solvation:
   * S. Ehlert, M. Stahn, S. Spicher, S. Grimme, J. Chem. Theory Comput.,
     2021, 17, 4250-4261. DOI: 10.1021/acs.jctc.1c00471
   
   for ddCOSMO and CPCM-X implicit solvation:
   * M. Stahn, S. Ehlert, S. Grimme, J. Phys. Chem. A,
     2023, XX, XXXX-XXXX. DOI: 10.1021/acs.jpca.3c04382
   
   for DFT-D4:
   * E. Caldeweyher, C. Bannwarth and S. Grimme, J. Chem. Phys., 2017,
     147, 034112. DOI: 10.1063/1.4993215
   * E. Caldeweyher, S. Ehlert, A. Hansen, H. Neugebauer, S. Spicher,
     C. Bannwarth and S. Grimme, J. Chem. Phys., 2019, 150, 154122.
     DOI: 10.1063/1.5090222
   * E. Caldeweyher, J.-M. Mewes, S. Ehlert and S. Grimme, Phys. Chem. Chem. Phys.
     2020, 22, 8499-8512. DOI: 10.1039/D0CP00502A
   
   for sTDA-xTB:
   * S. Grimme and C. Bannwarth, J. Chem. Phys., 2016, 145, 054103.
     DOI: 10.1063/1.4959605
   
   in the mass-spec context:
   * V. Asgeirsson, C. Bauer and S. Grimme, Chem. Sci., 2017, 8, 4879.
     DOI: 10.1039/c7sc00601b
   * J. Koopman and S. Grimme, ACS Omega 2019, 4, 12, 15120-15133.
     DOI: 10.1021/acsomega.9b02011
   
   for metadynamics refer to:
   * S. Grimme, J. Chem. Theory Comput., 2019, 155, 2847-2862
     DOI: 10.1021/acs.jctc.9b00143
   
   for SPH calculations refer to:
   * S. Spicher and S. Grimme, J. Chem. Theory Comput., 2021, 17, 1701-1714
     DOI: 10.1021/acs.jctc.0c01306
   
   for ONIOM refer to:
   * C. Plett, A. Katbashev, S. Ehlert, S. Grimme, M. Bursch,
     Phys. Chem. Chem. Phys., 2023, 25, 17860-17868. DOI: 10.1039/D3CP02178E
   
   for DIPRO refer to:
   * J. Kohn, N. Gildemeister, S. Grimme, D. Fazzi, A. Hansen,
     J. Chem. Phys., 2023, just accepted.
   
   for PTB refer to:
   * S. Grimme, M. Mueller, A. Hansen, J. Chem. Phys., 2023, 158, 124111.
     DOI: 10.1063/5.0137838
   
   with help from (in alphabetical order)
   P. Atkinson, C. Bannwarth, F. Bohle, G. Brandenburg, E. Caldeweyher
   M. Checinski, S. Dohm, S. Ehlert, S. Ehrlich, I. Gerasimov, C. Hölzer
   A. Katbashev, J. Kohn, J. Koopman, C. Lavigne, S. Lehtola, F. März, M. Müller,
   F. Musil, H. Neugebauer, J. Pisarek, C. Plett, P. Pracht, F. Pultar,
   J. Seibert, P. Shushkov, S. Spicher, M. Stahn, M. Steiner, T. Strunk,
   J. Stückrath, T. Rose, and J. Unsleber
   
 * started run on 2025/04/06 at 22:31:19.604     
   ID    Z sym.   atoms
    1    6 C      1-4
    2    8 O      5
    3    1 H      6-15

           -------------------------------------------------
          |                Calculation Setup                |
           -------------------------------------------------

          program call               : /srv/scratch/z5358697/.xtb/bin/xtb gas.coord --gfn2 --sp --chrg 0 --norestart --parallel 1
          hostname                   : k159
          coordinate file            : gas.coord
          omp threads                :                     1


           -------------------------------------------------
          |                 G F N 2 - x T B                 |
           -------------------------------------------------

        Reference                      10.1021/acs.jctc.8b01176
      * Hamiltonian:
        H0-scaling (s, p, d)           1.850000    2.230000    2.230000
        zeta-weighting                 0.500000
      * Dispersion:
        s8                             2.700000
        a1                             0.520000
        a2                             5.000000
        s9                             5.000000
      * Repulsion:
        kExp                           1.500000    1.000000
        rExp                           1.000000
      * Coulomb:
        alpha                          2.000000
        third order                    shell-resolved
        anisotropic                    true
        a3                             3.000000
        a5                             4.000000
        cn-shift                       1.200000
        cn-exp                         4.000000
        max-rad                        5.000000


          ...................................................
          :                      SETUP                      :
          :.................................................:
          :  # basis functions                  30          :
          :  # atomic orbitals                  30          :
          :  # shells                           20          :
          :  # electrons                        32          :
          :  max. iterations                   250          :
          :  Hamiltonian                  GFN2-xTB          :
          :  restarted?                      false          :
          :  GBSA solvation                  false          :
          :  PC potential                    false          :
          :  electronic temp.          300.0000000     K    :
          :  accuracy                    1.0000000          :
          :  -> integral cutoff          0.2500000E+02      :
          :  -> integral neglect         0.1000000E-07      :
          :  -> SCF convergence          0.1000000E-05 Eh   :
          :  -> wf. convergence          0.1000000E-03 e    :
          :  Broyden damping             0.4000000          :
          :  net charge                          0          :
          :  unpaired electrons                  0          :
          ...................................................

 iter      E             dE          RMSdq      gap      omega  full diag
   1    -17.9005257 -0.179005E+02  0.338E+00   12.39       0.0  T
   2    -17.9359925 -0.354669E-01  0.186E+00   11.98       1.0  T
   3    -17.9366135 -0.620909E-03  0.779E-01   12.10       1.0  T
   4    -17.9367774 -0.163945E-03  0.112E-01   12.15       1.0  T
   5    -17.9367988 -0.214196E-04  0.650E-02   12.16       1.0  T
   6    -17.9368001 -0.128217E-05  0.811E-03   12.16       3.2  T
   7    -17.9368003 -0.161768E-06  0.427E-03   12.16       6.0  T
   8    -17.9368003 -0.879154E-08  0.638E-04   12.16      40.5  T
   9    -17.9368003 -0.468813E-09  0.218E-04   12.16     118.3  T

   *** convergence criteria satisfied after 9 iterations ***

         #    Occupation            Energy/Eh            Energy/eV
      -------------------------------------------------------------
         1        2.0000           -0.6844677             -18.6253
       ...           ...                  ...                  ...
        10        2.0000           -0.4822546             -13.1228
        11        2.0000           -0.4743537             -12.9078
        12        2.0000           -0.4621531             -12.5758
        13        2.0000           -0.4429424             -12.0531
        14        2.0000           -0.4393713             -11.9559
        15        2.0000           -0.4293621             -11.6835
        16        2.0000           -0.4084383             -11.1142 (HOMO)
        17                          0.0385042               1.0478 (LUMO)
        18                          0.0860807               2.3424
        19                          0.1126186               3.0645
        20                          0.1306960               3.5564
        21                          0.1464414               3.9849
       ...                                ...                  ...
        30                          0.3038316               8.2677
      -------------------------------------------------------------
                  HL-Gap            0.4469426 Eh           12.1619 eV
             Fermi-level           -0.1849671 Eh           -5.0332 eV

 SCC (total)                   0 d,  0 h,  0 min,  0.007 sec
 SCC setup                      ...        0 min,  0.000 sec (  1.610%)
 Dispersion                     ...        0 min,  0.000 sec (  0.744%)
 classical contributions        ...        0 min,  0.000 sec (  0.197%)
 integral evaluation            ...        0 min,  0.001 sec (  9.285%)
 iterations                     ...        0 min,  0.004 sec ( 61.938%)
 molecular gradient             ...        0 min,  0.002 sec ( 24.643%)
 printout                       ...        0 min,  0.000 sec (  1.423%)

         :::::::::::::::::::::::::::::::::::::::::::::::::::::
         ::                     SUMMARY                     ::
         :::::::::::::::::::::::::::::::::::::::::::::::::::::
         :: total energy             -17.722764265153 Eh    ::
         :: gradient norm              0.005552737016 Eh/a0 ::
         :: HOMO-LUMO gap             12.161927033035 eV    ::
         ::.................................................::
         :: SCC energy               -17.936795634874 Eh    ::
         :: -> isotropic ES            0.026592841897 Eh    ::
         :: -> anisotropic ES          0.004069331541 Eh    ::
         :: -> anisotropic XC          0.006010146334 Eh    ::
         :: -> dispersion             -0.006893659867 Eh    ::
         :: repulsion energy           0.214031369720 Eh    ::
         :: add. restraining           0.000000000000 Eh    ::
         :: total charge               0.000000000000 e     ::
         :::::::::::::::::::::::::::::::::::::::::::::::::::::

           -------------------------------------------------
          |                Property Printout                |
           -------------------------------------------------

    * Orbital Energies and Occupations

         #    Occupation            Energy/Eh            Energy/eV
      -------------------------------------------------------------
         1        2.0000           -0.6844677             -18.6253
       ...           ...                  ...                  ...
         4        2.0000           -0.5924422             -16.1212
         5        2.0000           -0.5664709             -15.4145
         6        2.0000           -0.5556683             -15.1205
         7        2.0000           -0.5254421             -14.2980
         8        2.0000           -0.5190695             -14.1246
         9        2.0000           -0.5088931             -13.8477
        10        2.0000           -0.4822546             -13.1228
        11        2.0000           -0.4743537             -12.9078
        12        2.0000           -0.4621531             -12.5758
        13        2.0000           -0.4429424             -12.0531
        14        2.0000           -0.4393713             -11.9559
        15        2.0000           -0.4293621             -11.6835
        16        2.0000           -0.4084383             -11.1142 (HOMO)
        17                          0.0385042               1.0478 (LUMO)
        18                          0.0860807               2.3424
        19                          0.1126186               3.0645
        20                          0.1306960               3.5564
        21                          0.1464414               3.9849
        22                          0.1567973               4.2667
        23                          0.1640071               4.4629
        24                          0.1800397               4.8991
        25                          0.1961609               5.3378
        26                          0.2055665               5.5937
        27                          0.2409831               6.5575
       ...                                ...                  ...
        30                          0.3038316               8.2677
      -------------------------------------------------------------
                  HL-Gap            0.4469426 Eh           12.1619 eV
             Fermi-level           -0.1849671 Eh           -5.0332 eV

     #   Z          covCN         q      C6AA      α(0)
     1   6 C        3.752    -0.103    22.537     6.770
     2   6 C        3.801    -0.056    21.574     6.613
     3   6 C        3.801    -0.072    21.879     6.660
     4   6 C        3.674     0.079    19.481     6.325
     5   8 O        1.654    -0.443    21.694     6.287
     6   1 H        0.925     0.037     2.496     2.470
     7   1 H        0.925     0.036     2.509     2.477
     8   1 H        0.925     0.037     2.485     2.465
     9   1 H        0.924     0.030     2.586     2.515
    10   1 H        0.924     0.033     2.550     2.497
    11   1 H        0.924     0.045     2.383     2.414
    12   1 H        0.924     0.031     2.573     2.508
    13   1 H        0.923     0.015     2.805     2.619
    14   1 H        0.924     0.047     2.357     2.401
    15   1 H        0.805     0.284     0.771     1.379

 Mol. C6AA /au·bohr⁶  :       1461.920120
 Mol. C8AA /au·bohr⁸  :      29846.341811
 Mol. α(0) /au        :         56.400238


Wiberg/Mayer (AO) data.
largest (>0.10) Wiberg bond orders for each atom

 ---------------------------------------------------------------------------
     #   Z sym  total        # sym  WBO       # sym  WBO       # sym  WBO
 ---------------------------------------------------------------------------
     1   6 C    3.997 --     2 C    1.019     7 H    0.988     8 H    0.988
                             6 H    0.987
     2   6 C    3.998 --     1 C    1.019     3 C    1.007    10 H    0.979
                             9 H    0.978
     3   6 C    3.996 --     2 C    1.007     4 C    0.998    11 H    0.977
                            12 H    0.976
     4   6 C    3.956 --     3 C    0.998     5 O    0.998    14 H    0.973
                            13 H    0.971
     5   8 O    1.958 --     4 C    0.998    15 H    0.905
     6   1 H    0.998 --     1 C    0.987
     7   1 H    0.999 --     1 C    0.988
     8   1 H    0.999 --     1 C    0.988
     9   1 H    0.999 --     2 C    0.978
    10   1 H    0.999 --     2 C    0.979
    11   1 H    0.998 --     3 C    0.977
    12   1 H    0.999 --     3 C    0.976
    13   1 H    1.000 --     4 C    0.971
    14   1 H    0.998 --     4 C    0.973
    15   1 H    0.919 --     5 O    0.905
 ---------------------------------------------------------------------------

Topologies differ in total number of bonds
Writing topology from bond orders to xtbtopo.mol

molecular dipole:
                 x           y           z       tot (Debye)
 q only:        0.485      -0.101       0.340
   full:        0.580      -0.151       0.531       2.034
molecular quadrupole (traceless):
                xx          xy          yy          xz          yz          zz
 q only:       -2.947       1.015       1.899      -2.749      -1.059       1.047
  q+dip:       -5.943       1.107       2.604      -4.031      -1.455       3.339
   full:       -5.136       1.353       2.597      -3.999      -1.570       2.540


           -------------------------------------------------
          | TOTAL ENERGY              -17.722764265153 Eh   |
          | GRADIENT NORM               0.005552737016 Eh/α |
          | HOMO-LUMO GAP              12.161927033035 eV   |
           -------------------------------------------------

------------------------------------------------------------------------
 * finished run on 2025/04/06 at 22:31:19.684     
------------------------------------------------------------------------
 total:
 * wall-time:     0 d,  0 h,  0 min,  0.079 sec
 *  cpu-time:     0 d,  0 h,  0 min,  0.014 sec
 * ratio c/w:     0.182 speedup
 SCF:
 * wall-time:     0 d,  0 h,  0 min,  0.007 sec
 *  cpu-time:     0 d,  0 h,  0 min,  0.006 sec
 * ratio c/w:     0.827 speedup

