      -----------------------------------------------------------      
     |                   =====================                   |     
     |                           x T B                           |     
     |                   =====================                   |     
     |                         S. Grimme                         |     
     |          Mulliken Center for Theoretical Chemistry        |     
     |                    University of Bonn                     |     
      -----------------------------------------------------------      

   * xtb version 6.7.1 (edcfbbe) compiled by 'albert@albert-system' on 2024-07-22

   xtb is free software: you can redistribute it and/or modify it under
   the terms of the GNU Lesser General Public License as published by
   the Free Software Foundation, either version 3 of the License, or
   (at your option) any later version.
   
   xtb is distributed in the hope that it will be useful,
   but WITHOUT ANY WARRANTY; without even the implied warranty of
   MERCHANTABILITY or FITNESS FOR A PARTICULAR PURPOSE.  See the
   GNU Lesser General Public License for more details.
   
   Cite this work as:
   * C. Bannwarth, E. Caldeweyher, S. Ehlert, A. Hansen, P. Pracht,
     J. Seibert, S. Spicher, S. Grimme, WIREs Comput. Mol. Sci., 2020, 11,
     e01493. DOI: 10.1002/wcms.1493
   
   for GFN2-xTB:
   * C. Bannwarth, S. Ehlert and S. Grimme., J. Chem. Theory Comput., 2019,
     15, 1652-1671. DOI: 10.1021/acs.jctc.8b01176
   for GFN1-xTB:
   * S. Grimme, C. Bannwarth, P. Shushkov, J. Chem. Theory Comput., 2017,
     13, 1989-2009. DOI: 10.1021/acs.jctc.7b00118
   for GFN0-xTB:
   * P. Pracht, E. Caldeweyher, S. Ehlert, S. Grimme, ChemRxiv, 2019, preprint.
     DOI: 10.26434/chemrxiv.8326202.v1
   for GFN-FF:
   * S. Spicher and S. Grimme, Angew. Chem. Int. Ed., 2020, 59, 15665-15673.
     DOI: 10.1002/anie.202004239
   
   for ALPB and GBSA implicit solvation:
   * S. Ehlert, M. Stahn, S. Spicher, S. Grimme, J. Chem. Theory Comput.,
     2021, 17, 4250-4261. DOI: 10.1021/acs.jctc.1c00471
   
   for ddCOSMO and CPCM-X implicit solvation:
   * M. Stahn, S. Ehlert, S. Grimme, J. Phys. Chem. A,
     2023, XX, XXXX-XXXX. DOI: 10.1021/acs.jpca.3c04382
   
   for DFT-D4:
   * E. Caldeweyher, C. Bannwarth and S. Grimme, J. Chem. Phys., 2017,
     147, 034112. DOI: 10.1063/1.4993215
   * E. Caldeweyher, S. Ehlert, A. Hansen, H. Neugebauer, S. Spicher,
     C. Bannwarth and S. Grimme, J. Chem. Phys., 2019, 150, 154122.
     DOI: 10.1063/1.5090222
   * E. Caldeweyher, J.-M. Mewes, S. Ehlert and S. Grimme, Phys. Chem. Chem. Phys.
     2020, 22, 8499-8512. DOI: 10.1039/D0CP00502A
   
   for sTDA-xTB:
   * S. Grimme and C. Bannwarth, J. Chem. Phys., 2016, 145, 054103.
     DOI: 10.1063/1.4959605
   
   in the mass-spec context:
   * V. Asgeirsson, C. Bauer and S. Grimme, Chem. Sci., 2017, 8, 4879.
     DOI: 10.1039/c7sc00601b
   * J. Koopman and S. Grimme, ACS Omega 2019, 4, 12, 15120-15133.
     DOI: 10.1021/acsomega.9b02011
   
   for metadynamics refer to:
   * S. Grimme, J. Chem. Theory Comput., 2019, 155, 2847-2862
     DOI: 10.1021/acs.jctc.9b00143
   
   for SPH calculations refer to:
   * S. Spicher and S. Grimme, J. Chem. Theory Comput., 2021, 17, 1701-1714
     DOI: 10.1021/acs.jctc.0c01306
   
   for ONIOM refer to:
   * C. Plett, A. Katbashev, S. Ehlert, S. Grimme, M. Bursch,
     Phys. Chem. Chem. Phys., 2023, 25, 17860-17868. DOI: 10.1039/D3CP02178E
   
   for DIPRO refer to:
   * J. Kohn, N. Gildemeister, S. Grimme, D. Fazzi, A. Hansen,
     J. Chem. Phys., 2023, just accepted.
   
   for PTB refer to:
   * S. Grimme, M. Mueller, A. Hansen, J. Chem. Phys., 2023, 158, 124111.
     DOI: 10.1063/5.0137838
   
   with help from (in alphabetical order)
   P. Atkinson, C. Bannwarth, F. Bohle, G. Brandenburg, E. Caldeweyher
   M. Checinski, S. Dohm, S. Ehlert, S. Ehrlich, I. Gerasimov, C. Hölzer
   A. Katbashev, J. Kohn, J. Koopman, C. Lavigne, S. Lehtola, F. März, M. Müller,
   F. Musil, H. Neugebauer, J. Pisarek, C. Plett, P. Pracht, F. Pultar,
   J. Seibert, P. Shushkov, S. Spicher, M. Stahn, M. Steiner, T. Strunk,
   J. Stückrath, T. Rose, and J. Unsleber
   
 * started run on 2025/04/06 at 22:31:19.720     
   ID    Z sym.   atoms
    1    6 C      1-4
    2    8 O      5
    3    1 H      6-15

           -------------------------------------------------
          |                Calculation Setup                |
           -------------------------------------------------

          program call               : /srv/scratch/z5358697/.xtb/bin/xtb solv.coord --gfn2 --sp --chrg 0 --norestart --parallel 1 --alpb water reference -I xtb_sp-xcontrol-inp
          hostname                   : k159
          coordinate file            : solv.coord
          omp threads                :                     1


           -------------------------------------------------
          |                 G F N 2 - x T B                 |
           -------------------------------------------------

        Reference                      10.1021/acs.jctc.8b01176
      * Hamiltonian:
        H0-scaling (s, p, d)           1.850000    2.230000    2.230000
        zeta-weighting                 0.500000
      * Dispersion:
        s8                             2.700000
        a1                             0.520000
        a2                             5.000000
        s9                             5.000000
      * Repulsion:
        kExp                           1.500000    1.000000
        rExp                           1.000000
      * Coulomb:
        alpha                          2.000000
        third order                    shell-resolved
        anisotropic                    true
        a3                             3.000000
        a5                             4.000000
        cn-shift                       1.200000
        cn-exp                         4.000000
        max-rad                        5.000000

      * Solvation model:               ALPB
        Solvent                        water
        Parameter file                 internal GFN2-xTB/ALPB
        Dielectric constant                8.0200E+01
        Reference state                gsolv=reference [X=1]
        Free energy shift                  2.8945E-03 Eh       1.8164E+00 kcal/mol
        Temperature                        2.9815E+02 K
        Density                            1.0000E+00 kg/L
        Solvent mass                       1.8000E+01 g/mol
        Interaction kernel             P16
        Born radius scaling (c1)           1.4744E+00
        Born radii integrator          GBOBC
        Born offset                        0.0000E+00 a0       0.0000E+00 AA
        H-bond correction              true
        Ion screening                  false
        Surface tension                    1.0000E-05 Eh       1.5569E+01 dyn/cm
        Grid points                               974 per atom

          ...................................................
          :                      SETUP                      :
          :.................................................:
          :  # basis functions                  30          :
          :  # atomic orbitals                  30          :
          :  # shells                           20          :
          :  # electrons                        32          :
          :  max. iterations                   250          :
          :  Hamiltonian                  GFN2-xTB          :
          :  restarted?                      false          :
          :  GBSA solvation                   true          :
          :  PC potential                    false          :
          :  electronic temp.          300.0000000     K    :
          :  accuracy                    1.0000000          :
          :  -> integral cutoff          0.2500000E+02      :
          :  -> integral neglect         0.1000000E-07      :
          :  -> SCF convergence          0.1000000E-05 Eh   :
          :  -> wf. convergence          0.1000000E-03 e    :
          :  Broyden damping             0.4000000          :
          :  net charge                          0          :
          :  unpaired electrons                  0          :
          ...................................................

 iter      E             dE          RMSdq      gap      omega  full diag
   1    -17.9139961 -0.179140E+02  0.348E+00   12.47       0.0  T
   2    -17.9407144 -0.267183E-01  0.188E+00   12.20       1.0  T
   3    -17.9415550 -0.840561E-03  0.630E-01   12.17       1.0  T
   4    -17.9417266 -0.171642E-03  0.120E-01   12.20       1.0  T
   5    -17.9417448 -0.181495E-04  0.695E-02   12.21       1.0  T
   6    -17.9417480 -0.322043E-05  0.128E-02   12.21       2.0  T
   7    -17.9417483 -0.280729E-06  0.610E-03   12.21       4.2  T
   8    -17.9417483 -0.668890E-07  0.214E-03   12.21      12.1  T
   9    -17.9417483 -0.726651E-08  0.314E-04   12.21      82.1  T
  10    -17.9417483 -0.338726E-09  0.190E-04   12.21     136.1  T

   *** convergence criteria satisfied after 10 iterations ***

         #    Occupation            Energy/Eh            Energy/eV
      -------------------------------------------------------------
         1        2.0000           -0.6880835             -18.7237
       ...           ...                  ...                  ...
        10        2.0000           -0.4776274             -12.9969
        11        2.0000           -0.4700747             -12.7914
        12        2.0000           -0.4581055             -12.4657
        13        2.0000           -0.4380501             -11.9199
        14        2.0000           -0.4353397             -11.8462
        15        2.0000           -0.4244326             -11.5494
        16        2.0000           -0.4090333             -11.1304 (HOMO)
        17                          0.0398073               1.0832 (LUMO)
        18                          0.0912709               2.4836
        19                          0.1173289               3.1927
        20                          0.1353336               3.6826
        21                          0.1507370               4.1018
       ...                                ...                  ...
        30                          0.3085423               8.3959
      -------------------------------------------------------------
                  HL-Gap            0.4488406 Eh           12.2136 eV
             Fermi-level           -0.1846130 Eh           -5.0236 eV

 SCC (total)                   0 d,  0 h,  0 min,  0.022 sec
 SCC setup                      ...        0 min,  0.001 sec (  3.088%)
 Dispersion                     ...        0 min,  0.000 sec (  0.270%)
 classical contributions        ...        0 min,  0.000 sec (  0.059%)
 integral evaluation            ...        0 min,  0.001 sec (  3.111%)
 iterations                     ...        0 min,  0.019 sec ( 84.623%)
 molecular gradient             ...        0 min,  0.002 sec (  8.384%)
 printout                       ...        0 min,  0.000 sec (  0.413%)

         :::::::::::::::::::::::::::::::::::::::::::::::::::::
         ::                     SUMMARY                     ::
         :::::::::::::::::::::::::::::::::::::::::::::::::::::
         :: total energy             -17.727712336088 Eh    ::
         :: total w/o Gsasa/hb       -17.725571261386 Eh    ::
         :: gradient norm              0.000170886080 Eh/a0 ::
         :: HOMO-LUMO gap             12.213574131862 eV    ::
         ::.................................................::
         :: SCC energy               -17.941743705808 Eh    ::
         :: -> isotropic ES            0.035603576430 Eh    ::
         :: -> anisotropic ES          0.003119714725 Eh    ::
         :: -> anisotropic XC          0.006231886810 Eh    ::
         :: -> dispersion             -0.006862725597 Eh    ::
         :: -> Gsolv                  -0.006856673175 Eh    ::
         ::    -> Gelec               -0.004715598473 Eh    ::
         ::    -> Gsasa                0.000798326061 Eh    ::
         ::    -> Ghb                 -0.005833949924 Eh    ::
         ::    -> Gshift               0.002894549160 Eh    ::
         :: repulsion energy           0.214031369720 Eh    ::
         :: add. restraining           0.000000000000 Eh    ::
         :: total charge               0.000000000000 e     ::
         :::::::::::::::::::::::::::::::::::::::::::::::::::::

           -------------------------------------------------
          |                Property Printout                |
           -------------------------------------------------

    * Orbital Energies and Occupations

         #    Occupation            Energy/Eh            Energy/eV
      -------------------------------------------------------------
         1        2.0000           -0.6880835             -18.7237
       ...           ...                  ...                  ...
         4        2.0000           -0.5886156             -16.0170
         5        2.0000           -0.5614242             -15.2771
         6        2.0000           -0.5534467             -15.0601
         7        2.0000           -0.5230651             -14.2333
         8        2.0000           -0.5175109             -14.0822
         9        2.0000           -0.5051440             -13.7457
        10        2.0000           -0.4776274             -12.9969
        11        2.0000           -0.4700747             -12.7914
        12        2.0000           -0.4581055             -12.4657
        13        2.0000           -0.4380501             -11.9199
        14        2.0000           -0.4353397             -11.8462
        15        2.0000           -0.4244326             -11.5494
        16        2.0000           -0.4090333             -11.1304 (HOMO)
        17                          0.0398073               1.0832 (LUMO)
        18                          0.0912709               2.4836
        19                          0.1173289               3.1927
        20                          0.1353336               3.6826
        21                          0.1507370               4.1018
        22                          0.1611601               4.3854
        23                          0.1702341               4.6323
        24                          0.1856668               5.0522
        25                          0.1994691               5.4278
        26                          0.2127538               5.7893
        27                          0.2471045               6.7241
       ...                                ...                  ...
        30                          0.3085423               8.3959
      -------------------------------------------------------------
                  HL-Gap            0.4488406 Eh           12.2136 eV
             Fermi-level           -0.1846130 Eh           -5.0236 eV

     #   Z          covCN         q      C6AA      α(0)
     1   6 C        3.752    -0.114    22.735     6.799
     2   6 C        3.801    -0.060    21.661     6.626
     3   6 C        3.801    -0.077    21.972     6.674
     4   6 C        3.674     0.079    19.482     6.325
     5   8 O        1.654    -0.521    23.356     6.524
     6   1 H        0.925     0.042     2.426     2.436
     7   1 H        0.925     0.041     2.437     2.441
     8   1 H        0.925     0.040     2.443     2.444
     9   1 H        0.924     0.034     2.526     2.486
    10   1 H        0.924     0.034     2.535     2.490
    11   1 H        0.924     0.045     2.379     2.412
    12   1 H        0.924     0.041     2.431     2.438
    13   1 H        0.923     0.020     2.736     2.587
    14   1 H        0.924     0.041     2.433     2.439
    15   1 H        0.805     0.355     0.577     1.194

 Mol. C6AA /au·bohr⁶  :       1459.882936
 Mol. C8AA /au·bohr⁸  :      29902.388688
 Mol. α(0) /au        :         56.315305


Wiberg/Mayer (AO) data.
largest (>0.10) Wiberg bond orders for each atom

 ---------------------------------------------------------------------------
     #   Z sym  total        # sym  WBO       # sym  WBO       # sym  WBO
 ---------------------------------------------------------------------------
     1   6 C    3.996 --     2 C    1.019     8 H    0.988     7 H    0.987
                             6 H    0.987
     2   6 C    3.997 --     1 C    1.019     3 C    1.007    10 H    0.978
                             9 H    0.978
     3   6 C    3.996 --     2 C    1.007     4 C    0.998    11 H    0.977
                            12 H    0.976
     4   6 C    3.952 --     3 C    0.998     5 O    0.993    14 H    0.974
                            13 H    0.971
     5   8 O    1.909 --     4 C    0.993    15 H    0.860
     6   1 H    0.998 --     1 C    0.987
     7   1 H    0.998 --     1 C    0.987
     8   1 H    0.998 --     1 C    0.988
     9   1 H    0.999 --     2 C    0.978
    10   1 H    0.999 --     2 C    0.978
    11   1 H    0.998 --     3 C    0.977
    12   1 H    0.998 --     3 C    0.976
    13   1 H    1.000 --     4 C    0.971
    14   1 H    0.998 --     4 C    0.974
    15   1 H    0.874 --     5 O    0.860
 ---------------------------------------------------------------------------

Topologies differ in total number of bonds
Writing topology from bond orders to xtbtopo.mol

molecular dipole:
                 x           y           z       tot (Debye)
 q only:        0.550      -0.200       0.482
   full:        0.618      -0.215       0.620       2.290
molecular quadrupole (traceless):
                xx          xy          yy          xz          yz          zz
 q only:       -3.125       1.562       2.048      -3.444      -1.281       1.077
  q+dip:       -6.063       1.473       2.689      -4.475      -1.631       3.375
   full:       -5.242       1.725       2.683      -4.444      -1.739       2.559


           -------------------------------------------------
          | TOTAL ENERGY              -17.727712336088 Eh   |
          | GRADIENT NORM               0.000170886080 Eh/α |
          | HOMO-LUMO GAP              12.213574131862 eV   |
           -------------------------------------------------

------------------------------------------------------------------------
 * finished run on 2025/04/06 at 22:31:19.769     
------------------------------------------------------------------------
 total:
 * wall-time:     0 d,  0 h,  0 min,  0.049 sec
 *  cpu-time:     0 d,  0 h,  0 min,  0.012 sec
 * ratio c/w:     0.243 speedup
 SCF:
 * wall-time:     0 d,  0 h,  0 min,  0.022 sec
 *  cpu-time:     0 d,  0 h,  0 min,  0.007 sec
 * ratio c/w:     0.297 speedup

