15
 xtb: 6.7.1 (edcfbbe)
C            1.80570269698215        0.66991923793923        0.29236430403200
C            1.02683504108604       -0.23335860747407       -0.64705614417979
O           -0.00002968704067       -1.00684993068685       -0.00008594846259
C           -1.02685475070788       -0.23323958026969        0.64679220838700
C           -1.80595930449662        0.66962520781348       -0.29282222636368
H            1.19684356032768        1.49276044788858        0.67814558585938
H            2.20651423517459        0.10168609651052        1.13834201296070
H            2.64689875111044        1.10842455789821       -0.25450703853124
H            1.69478428485307       -0.98116544443419       -1.08624708343246
H            0.59690152991968        0.35028424954216       -1.47314338209976
H           -1.69465287661566       -0.98094935760794        1.08637513092007
H           -0.59682408558839        0.35073984729236        1.47258762951993
H           -1.19709293456594        1.49211267024089       -0.67935134184000
H           -2.20725150253392        0.10096203671738       -1.13828743123346
H           -2.64682810565748        1.10862935916037        0.25416462702084
