 Entering Gaussian System
 *********************************************
 Gaussian 98:
 frequency output generated by the xtb code
 *********************************************
                         Standard orientation:
 --------------------------------------------------------------------
  Center     Atomic     Atomic              Coordinates (Angstroms)
  Number     Number      Type              X           Y           Z
 --------------------------------------------------------------------
    1          6             0        1.954642    0.583814    0.310706
    2          6             0        1.020468   -0.154452   -0.645634
    3          8             0       -0.000048   -0.900409    0.000596
    4          6             0       -1.020472   -0.153582    0.645967
    5          6             0       -1.954547    0.583709   -0.311222
    6          1             0        2.796617    0.978918   -0.249248
    7          1             0        1.446602    1.411039    0.799779
    8          1             0        2.322453   -0.101531    1.070174
    9          1             0        1.580906   -0.911871   -1.199101
   10          1             0        0.583122    0.548471   -1.365199
   11          1             0       -1.581011   -0.910295    1.200297
   12          1             0       -0.583039    0.550108    1.364729
   13          1             0       -2.796465    0.979578    0.248279
   14          1             0       -1.446395    1.410297   -0.801253
   15          1             0       -2.322457   -0.102462   -1.069896
 --------------------------------------------------------------------
     1 basis functions        1 primitive gaussians
     1 alpha electrons        1 beta electrons
 
 Harmonic frequencies (cm**-1), IR intensities (km*mol⁻¹),
 Raman scattering activities (A**4/amu), Raman depolarization ratios,
 reduced masses (AMU), force constants (mDyne/A) and normal coordinates:
                      1                      2                      3
                        a                      a                      a 
 Frequencies --    10.2524               127.9123               198.7573
 Red. masses --     7.7395                 5.0391                 1.4875
 Frc consts  --     0.0000                 0.0000                 0.0000
 IR Inten    --     0.0723                 4.8529                 0.3360
 Raman Activ --     0.0000                 0.0000                 0.0000
 Depolar     --     0.0000                 0.0000                 0.0000
 Atom AN      X      Y      Z        X      Y      Z        X      Y      Z
   1   6    -0.34   0.31  -0.10    -0.15   0.05   0.18     0.07  -0.08  -0.03
   2   6    -0.00  -0.21  -0.02     0.18  -0.10  -0.04    -0.01   0.05  -0.05
   3   8    -0.00  -0.23   0.00    -0.06  -0.00  -0.34     0.00   0.09   0.00
   4   6     0.00  -0.21   0.02     0.18   0.10  -0.04     0.01   0.05   0.05
   5   6     0.34   0.31   0.09    -0.15  -0.05   0.18    -0.07  -0.08   0.03
   6   1    -0.07   0.05  -0.02     0.12  -0.19   0.15     0.23  -0.37   0.07
   7   1    -0.17   0.13  -0.17    -0.03   0.17  -0.19     0.16   0.22  -0.27
   8   1    -0.13   0.20   0.08    -0.28   0.09   0.24    -0.30   0.03   0.20
   9   1     0.07  -0.09   0.10     0.10  -0.06   0.09    -0.03   0.00  -0.02
  10   1     0.00  -0.16  -0.10     0.13  -0.06  -0.09    -0.00   0.03  -0.00
  11   1    -0.07  -0.09  -0.10     0.10   0.06   0.09     0.03   0.00   0.02
  12   1    -0.00  -0.16   0.11     0.13   0.06  -0.09     0.00   0.02   0.00
  13   1     0.07   0.05   0.02     0.12   0.19   0.15    -0.23  -0.37  -0.07
  14   1     0.17   0.13   0.17    -0.03  -0.17  -0.19    -0.16   0.22   0.27
  15   1     0.13   0.20  -0.08    -0.28  -0.09   0.24     0.30   0.03  -0.20
                      4                      5                      6
                        a                      a                      a 
 Frequencies --   257.9844               294.7230               443.7070
 Red. masses --     4.8699                 8.2037                10.8017
 Frc consts  --     0.0000                 0.0000                 0.0000
 IR Inten    --     3.0333                 0.3164                16.7179
 Raman Activ --     0.0000                 0.0000                 0.0000
 Depolar     --     0.0000                 0.0000                 0.0000
 Atom AN      X      Y      Z        X      Y      Z        X      Y      Z
   1   6     0.14  -0.00  -0.10    -0.38  -0.12   0.11    -0.23  -0.17   0.02
   2   6    -0.20   0.26   0.02    -0.31   0.17  -0.15     0.05  -0.03  -0.27
   3   8     0.11   0.00   0.21     0.00  -0.10   0.00     0.51   0.00   0.41
   4   6    -0.20  -0.26   0.02     0.31   0.17   0.15     0.05   0.03  -0.27
   5   6     0.14   0.00  -0.10     0.38  -0.12  -0.11    -0.23   0.17   0.02
   6   1     0.18  -0.28  -0.02    -0.06  -0.01   0.11     0.01   0.02   0.17
   7   1     0.20   0.18  -0.17    -0.10  -0.06   0.07    -0.15  -0.11   0.02
   8   1    -0.18   0.01   0.09    -0.17  -0.11  -0.01    -0.18  -0.12  -0.00
   9   1    -0.10   0.13  -0.12    -0.09   0.14  -0.16     0.01   0.01  -0.11
  10   1    -0.13   0.13   0.10    -0.17   0.10   0.06    -0.08  -0.03  -0.04
  11   1    -0.10  -0.13  -0.11     0.09   0.14   0.16     0.01  -0.01  -0.11
  12   1    -0.13  -0.13   0.10     0.17   0.10  -0.06    -0.08   0.03  -0.04
  13   1     0.18   0.28  -0.02     0.06  -0.01  -0.11     0.01  -0.02   0.17
  14   1     0.20  -0.18  -0.17     0.10  -0.06  -0.07    -0.15   0.11   0.02
  15   1    -0.18  -0.01   0.09     0.17  -0.11   0.01    -0.18   0.12  -0.00
                      7                      8                      9
                        a                      a                      a 
 Frequencies --   467.1434               806.8787               814.3111
 Red. masses --     8.9511                 2.1838                 5.1411
 Frc consts  --     0.0000                 0.0000                 0.0000
 IR Inten    --     6.7956                 9.0887                22.1120
 Raman Activ --     0.0000                 0.0000                 0.0000
 Depolar     --     0.0000                 0.0000                 0.0000
 Atom AN      X      Y      Z        X      Y      Z        X      Y      Z
   1   6     0.12   0.15   0.04    -0.03   0.08  -0.01     0.16   0.04   0.02
   2   6    -0.18   0.04   0.31    -0.10   0.18  -0.04     0.27  -0.05  -0.23
   3   8     0.00  -0.53   0.00     0.02   0.00   0.05    -0.00  -0.23   0.00
   4   6     0.18   0.04  -0.31    -0.10  -0.18  -0.04    -0.27  -0.05   0.23
   5   6    -0.12   0.15  -0.04    -0.03  -0.08  -0.00    -0.16   0.04  -0.02
   6   1    -0.02  -0.05  -0.13     0.05  -0.09   0.01     0.07   0.17   0.17
   7   1     0.14   0.12  -0.01     0.23   0.04   0.22    -0.22  -0.06  -0.14
   8   1     0.11   0.10   0.03    -0.09  -0.23  -0.18     0.00   0.13   0.13
   9   1    -0.02   0.15  -0.07     0.14  -0.06   0.30    -0.06   0.08  -0.31
  10   1    -0.17   0.07   0.22     0.04  -0.20  -0.29    -0.02   0.15   0.16
  11   1     0.02   0.15   0.07     0.14   0.06   0.30     0.06   0.08   0.31
  12   1     0.17   0.07  -0.22     0.04   0.20  -0.29     0.02   0.15  -0.16
  13   1     0.02  -0.05   0.13     0.05   0.09   0.01    -0.07   0.17  -0.17
  14   1    -0.14   0.12   0.01     0.23  -0.04   0.22     0.22  -0.06   0.14
  15   1    -0.11   0.10  -0.03    -0.09   0.23  -0.18    -0.00   0.13  -0.13
                     10                     11                     12
                        a                      a                      a 
 Frequencies --   865.5947               937.9248              1046.5358
 Red. masses --     6.4965                 8.2649                 8.2215
 Frc consts  --     0.0000                 0.0000                 0.0000
 IR Inten    --     3.5429                12.0200                25.4774
 Raman Activ --     0.0000                 0.0000                 0.0000
 Depolar     --     0.0000                 0.0000                 0.0000
 Atom AN      X      Y      Z        X      Y      Z        X      Y      Z
   1   6    -0.12  -0.19  -0.02    -0.29  -0.18  -0.03     0.26   0.15   0.12
   2   6    -0.09  -0.13   0.22    -0.01  -0.02   0.22    -0.40  -0.21  -0.04
   3   8     0.00   0.42  -0.00     0.44  -0.00  -0.20     0.00   0.17  -0.00
   4   6     0.09  -0.13  -0.22    -0.01   0.02   0.22     0.40  -0.21   0.04
   5   6     0.12  -0.19   0.02    -0.29   0.18  -0.03    -0.26   0.15  -0.12
   6   1    -0.15  -0.01  -0.16    -0.20  -0.19  -0.30     0.13   0.14   0.20
   7   1    -0.15  -0.01  -0.19     0.10   0.06  -0.03    -0.05  -0.03   0.04
   8   1     0.13   0.20   0.14     0.09   0.03  -0.03    -0.02   0.03   0.07
   9   1    -0.18  -0.05  -0.08     0.11   0.08   0.04    -0.21  -0.16   0.02
  10   1     0.08   0.15   0.17     0.05   0.03   0.05    -0.10  -0.10  -0.06
  11   1     0.18  -0.05   0.08     0.11  -0.08   0.04     0.21  -0.16  -0.02
  12   1    -0.08   0.15  -0.17     0.05  -0.03   0.05     0.10  -0.10   0.06
  13   1     0.15  -0.01   0.16    -0.20   0.18  -0.30    -0.13   0.14  -0.20
  14   1     0.15  -0.01   0.19     0.10  -0.06  -0.03     0.05  -0.03  -0.04
  15   1    -0.13   0.20  -0.14     0.09  -0.03  -0.03     0.02   0.03  -0.07
                     13                     14                     15
                        a                      a                      a 
 Frequencies --  1068.6147              1081.1030              1103.1769
 Red. masses --     9.3293                 6.8639                 8.2778
 Frc consts  --     0.0000                 0.0000                 0.0000
 IR Inten    --    44.0499                 0.5785               112.1451
 Raman Activ --     0.0000                 0.0000                 0.0000
 Depolar     --     0.0000                 0.0000                 0.0000
 Atom AN      X      Y      Z        X      Y      Z        X      Y      Z
   1   6    -0.10  -0.13  -0.32    -0.01   0.01   0.33     0.06   0.13  -0.15
   2   6     0.26   0.28   0.27    -0.06  -0.05  -0.38    -0.14  -0.26   0.28
   3   8    -0.20   0.00   0.06    -0.00  -0.03   0.00     0.25  -0.00  -0.34
   4   6     0.26  -0.28   0.27     0.06  -0.05   0.38    -0.14   0.26   0.28
   5   6    -0.10   0.13  -0.32     0.01   0.01  -0.33     0.06  -0.13  -0.15
   6   1     0.04   0.05   0.08    -0.14  -0.11  -0.21     0.15   0.06   0.19
   7   1    -0.17  -0.11  -0.10     0.17   0.14   0.03    -0.03  -0.06   0.08
   8   1    -0.15  -0.09  -0.07     0.24   0.15   0.10    -0.18  -0.14  -0.09
   9   1     0.00  -0.01   0.12     0.03  -0.01  -0.05     0.03   0.07  -0.05
  10   1     0.09   0.06   0.05     0.06   0.03  -0.11    -0.20  -0.11   0.11
  11   1     0.00   0.01   0.12    -0.03  -0.01   0.05     0.03  -0.07  -0.05
  12   1     0.09  -0.06   0.05    -0.06   0.03   0.11    -0.20   0.11   0.11
  13   1     0.04  -0.05   0.08     0.14  -0.11   0.21     0.15  -0.06   0.19
  14   1    -0.17   0.11  -0.10    -0.17   0.14  -0.03    -0.03   0.06   0.08
  15   1    -0.15   0.09  -0.07    -0.24   0.15  -0.10    -0.18   0.14  -0.09
                     16                     17                     18
                        a                      a                      a 
 Frequencies --  1124.0005              1182.0398              1251.9884
 Red. masses --     6.8301                 6.7368                 2.3595
 Frc consts  --     0.0000                 0.0000                 0.0000
 IR Inten    --    58.8573                18.1499                 2.6009
 Raman Activ --     0.0000                 0.0000                 0.0000
 Depolar     --     0.0000                 0.0000                 0.0000
 Atom AN      X      Y      Z        X      Y      Z        X      Y      Z
   1   6    -0.16   0.13  -0.00     0.14  -0.21  -0.02    -0.11   0.17  -0.02
   2   6     0.32  -0.13  -0.06    -0.16   0.34  -0.01     0.03  -0.09   0.02
   3   8    -0.34   0.00   0.15    -0.00  -0.28   0.00     0.14  -0.00  -0.01
   4   6     0.32   0.13  -0.06     0.16   0.34   0.01     0.03   0.09   0.02
   5   6    -0.16  -0.13  -0.00    -0.14  -0.21   0.02    -0.11  -0.17  -0.02
   6   1    -0.01  -0.13  -0.07    -0.03   0.10   0.01     0.03  -0.05   0.01
   7   1     0.19   0.08   0.15    -0.19  -0.08  -0.19     0.11   0.05   0.13
   8   1    -0.04  -0.12  -0.14     0.07   0.15   0.15    -0.07  -0.11  -0.12
   9   1     0.14   0.16  -0.20     0.06  -0.01   0.23    -0.38  -0.25  -0.07
  10   1    -0.15   0.01   0.18     0.11  -0.04  -0.20     0.32   0.24   0.06
  11   1     0.14  -0.16  -0.20    -0.06  -0.01  -0.23    -0.38   0.25  -0.07
  12   1    -0.15  -0.01   0.18    -0.11  -0.04   0.20     0.32  -0.24   0.06
  13   1    -0.01   0.13  -0.07     0.03   0.10  -0.01     0.03   0.05   0.01
  14   1     0.19  -0.08   0.15     0.19  -0.08   0.19     0.11  -0.05   0.13
  15   1    -0.04   0.12  -0.14    -0.07   0.15  -0.15    -0.07   0.11  -0.12
                     19                     20                     21
                        a                      a                      a 
 Frequencies --  1282.4461              1325.4778              1326.5379
 Red. masses --     2.6681                 3.0839                 3.5404
 Frc consts  --     0.0000                 0.0000                 0.0000
 IR Inten    --     2.1882                25.3945                20.5970
 Raman Activ --     0.0000                 0.0000                 0.0000
 Depolar     --     0.0000                 0.0000                 0.0000
 Atom AN      X      Y      Z        X      Y      Z        X      Y      Z
   1   6     0.05  -0.12   0.04    -0.00   0.01   0.12    -0.02  -0.00   0.10
   2   6     0.04  -0.04   0.00     0.20   0.14   0.04     0.23   0.21   0.02
   3   8     0.00   0.28  -0.00     0.06  -0.00  -0.15     0.00  -0.08  -0.00
   4   6    -0.04  -0.04  -0.00     0.20  -0.14   0.04    -0.23   0.21  -0.02
   5   6    -0.05  -0.12  -0.04    -0.00  -0.01   0.12     0.02  -0.00  -0.10
   6   1    -0.03   0.03  -0.01    -0.07  -0.07  -0.12    -0.07  -0.04  -0.10
   7   1    -0.05  -0.01  -0.09    -0.04   0.01  -0.04    -0.03   0.03  -0.05
   8   1     0.06   0.06   0.07     0.01  -0.04  -0.02     0.01  -0.05  -0.03
   9   1     0.29   0.22  -0.03    -0.34  -0.24  -0.02    -0.40  -0.28  -0.00
  10   1    -0.44  -0.30   0.00    -0.37  -0.26  -0.02    -0.28  -0.20  -0.03
  11   1    -0.29   0.22   0.03    -0.34   0.24  -0.02     0.40  -0.28   0.00
  12   1     0.44  -0.30   0.00    -0.37   0.26  -0.02     0.28  -0.20   0.03
  13   1     0.03   0.03   0.01    -0.07   0.07  -0.12     0.07  -0.04   0.10
  14   1     0.05  -0.01   0.09    -0.04  -0.01  -0.04     0.03   0.03   0.05
  15   1    -0.06   0.06  -0.07     0.01   0.04  -0.02    -0.01  -0.05   0.03
                     22                     23                     24
                        a                      a                      a 
 Frequencies --  1392.3518              1394.6632              1457.9708
 Red. masses --     3.1652                 3.1263                 1.8719
 Frc consts  --     0.0000                 0.0000                 0.0000
 IR Inten    --     4.8288                15.0943                 1.3712
 Raman Activ --     0.0000                 0.0000                 0.0000
 Depolar     --     0.0000                 0.0000                 0.0000
 Atom AN      X      Y      Z        X      Y      Z        X      Y      Z
   1   6     0.21   0.14   0.17     0.21   0.14   0.17    -0.00   0.05  -0.01
   2   6    -0.05  -0.04   0.02    -0.05  -0.04  -0.01    -0.01  -0.02  -0.18
   3   8    -0.00   0.01   0.00    -0.02   0.00   0.04     0.05  -0.00  -0.05
   4   6     0.05  -0.04  -0.02    -0.05   0.04  -0.01    -0.01   0.02  -0.18
   5   6    -0.21   0.14  -0.17     0.21  -0.14   0.17    -0.00  -0.05  -0.01
   6   1    -0.14  -0.10  -0.32    -0.15  -0.09  -0.31     0.06  -0.13  -0.01
   7   1    -0.29  -0.09  -0.14    -0.29  -0.07  -0.16    -0.08  -0.07   0.03
   8   1    -0.24  -0.26  -0.10    -0.24  -0.27  -0.12     0.05   0.01  -0.02
   9   1     0.05   0.09  -0.08     0.07   0.06  -0.02     0.12  -0.20   0.40
  10   1     0.08  -0.00  -0.05     0.09   0.05  -0.01    -0.19   0.23   0.35
  11   1    -0.05   0.09   0.08     0.07  -0.06  -0.02     0.12   0.20   0.40
  12   1    -0.08  -0.00   0.05     0.09  -0.05  -0.01    -0.19  -0.23   0.35
  13   1     0.14  -0.10   0.32    -0.15   0.09  -0.31     0.06   0.13  -0.01
  14   1     0.29  -0.09   0.14    -0.29   0.07  -0.16    -0.08   0.07   0.03
  15   1     0.24  -0.26   0.10    -0.24   0.27  -0.12     0.05  -0.01  -0.02
                     25                     26                     27
                        a                      a                      a 
 Frequencies --  1461.0224              1484.0299              1485.9169
 Red. masses --     1.7922                 1.5772                 1.5623
 Frc consts  --     0.0000                 0.0000                 0.0000
 IR Inten    --     0.0308                 2.5404                 3.4646
 Raman Activ --     0.0000                 0.0000                 0.0000
 Depolar     --     0.0000                 0.0000                 0.0000
 Atom AN      X      Y      Z        X      Y      Z        X      Y      Z
   1   6    -0.05   0.03  -0.02    -0.09   0.11   0.05    -0.07   0.12   0.05
   2   6    -0.01   0.03   0.17    -0.03   0.02   0.04    -0.03   0.01  -0.06
   3   8     0.00  -0.01   0.00    -0.01   0.00   0.01     0.00   0.01  -0.00
   4   6     0.01   0.03  -0.17    -0.03  -0.02   0.04     0.03   0.01   0.06
   5   6     0.05   0.03   0.02    -0.09  -0.11   0.05     0.07   0.12  -0.05
   6   1     0.11  -0.16   0.06     0.24  -0.34   0.13     0.23  -0.36   0.10
   7   1    -0.04  -0.06   0.07    -0.24  -0.07  -0.11    -0.26  -0.10  -0.09
   8   1     0.14   0.08  -0.00     0.37  -0.03  -0.21     0.33  -0.02  -0.19
   9   1    -0.12   0.19  -0.37    -0.01   0.06  -0.07     0.06  -0.05   0.14
  10   1     0.17  -0.24  -0.34     0.06  -0.05  -0.10    -0.07   0.08   0.11
  11   1     0.12   0.19   0.37    -0.01  -0.06  -0.08    -0.06  -0.05  -0.14
  12   1    -0.17  -0.24   0.34     0.06   0.05  -0.10     0.07   0.08  -0.11
  13   1    -0.11  -0.16  -0.06     0.24   0.34   0.13    -0.23  -0.36  -0.10
  14   1     0.04  -0.06  -0.07    -0.24   0.07  -0.11     0.26  -0.10   0.09
  15   1    -0.14   0.08   0.00     0.37   0.02  -0.21    -0.33  -0.02   0.19
                     28                     29                     30
                        a                      a                      a 
 Frequencies --  1491.2582              1494.4067              2894.5032
 Red. masses --     1.5492                 1.5837                 1.7588
 Frc consts  --     0.0000                 0.0000                 0.0000
 IR Inten    --     1.7451                 0.6559               101.7718
 Raman Activ --     0.0000                 0.0000                 0.0000
 Depolar     --     0.0000                 0.0000                 0.0000
 Atom AN      X      Y      Z        X      Y      Z        X      Y      Z
   1   6     0.05   0.08  -0.12    -0.05  -0.07   0.12    -0.00  -0.00   0.00
   2   6     0.02   0.02   0.01    -0.03  -0.02   0.05    -0.09   0.13  -0.10
   3   8    -0.01   0.00   0.01    -0.00  -0.00   0.00     0.01  -0.00  -0.01
   4   6     0.02  -0.02   0.01     0.03  -0.02  -0.05    -0.09  -0.13  -0.10
   5   6     0.05  -0.08  -0.12     0.05  -0.07  -0.12    -0.00   0.00   0.00
   6   1     0.04  -0.26  -0.15    -0.01   0.22   0.16     0.00  -0.00  -0.00
   7   1    -0.12  -0.30   0.38     0.09   0.29  -0.39     0.00  -0.00   0.00
   8   1    -0.12   0.22   0.24     0.15  -0.23  -0.27    -0.01   0.02  -0.02
   9   1    -0.03   0.03  -0.06    -0.01   0.05  -0.06     0.03  -0.04  -0.06
  10   1     0.03  -0.04  -0.07     0.08  -0.01  -0.05     0.28  -0.44   0.43
  11   1    -0.03  -0.03  -0.06     0.01   0.05   0.06     0.03   0.04  -0.06
  12   1     0.03   0.04  -0.07    -0.08  -0.01   0.05     0.28   0.44   0.43
  13   1     0.04   0.26  -0.15     0.01   0.22  -0.16     0.00   0.00  -0.00
  14   1    -0.12   0.30   0.38    -0.09   0.29   0.39     0.00   0.00   0.00
  15   1    -0.12  -0.22   0.24    -0.15  -0.23   0.27    -0.01  -0.02  -0.02
                     31                     32                     33
                        a                      a                      a 
 Frequencies --  2896.8216              2964.5939              2965.0236
 Red. masses --     1.7540                 1.6663                 1.6609
 Frc consts  --     0.0000                 0.0000                 0.0000
 IR Inten    --    58.3279                29.4296                68.2388
 Raman Activ --     0.0000                 0.0000                 0.0000
 Depolar     --     0.0000                 0.0000                 0.0000
 Atom AN      X      Y      Z        X      Y      Z        X      Y      Z
   1   6    -0.00   0.01   0.00     0.01  -0.00  -0.00    -0.01   0.01   0.01
   2   6     0.09  -0.12   0.10    -0.08   0.12   0.10     0.08  -0.11  -0.10
   3   8    -0.00  -0.02   0.00     0.00  -0.00  -0.00     0.02  -0.00  -0.01
   4   6    -0.09  -0.12  -0.10     0.08   0.12  -0.10     0.08   0.11  -0.10
   5   6     0.00   0.01  -0.00    -0.01  -0.00   0.00    -0.01  -0.01   0.01
   6   1    -0.01  -0.00   0.01    -0.01  -0.01   0.01     0.02   0.01  -0.01
   7   1     0.01  -0.02  -0.01    -0.02   0.03   0.02     0.02  -0.04  -0.02
   8   1     0.01  -0.01   0.02    -0.00   0.00  -0.01     0.00  -0.00   0.01
   9   1    -0.02   0.03   0.05     0.35  -0.47  -0.33    -0.35   0.47   0.33
  10   1    -0.28   0.44  -0.44    -0.04   0.07  -0.03     0.05  -0.07   0.04
  11   1     0.02   0.03  -0.05    -0.35  -0.47   0.33    -0.35  -0.47   0.33
  12   1     0.28   0.44   0.44     0.04   0.07   0.03     0.05   0.07   0.04
  13   1     0.01  -0.00  -0.01     0.01  -0.01  -0.01     0.02  -0.01  -0.01
  14   1    -0.01  -0.02   0.01     0.02   0.03  -0.02     0.02   0.04  -0.02
  15   1    -0.01  -0.01  -0.02     0.00   0.00   0.01     0.00   0.00   0.01
                     34                     35                     36
                        a                      a                      a 
 Frequencies --  3036.7974              3036.9735              3043.1682
 Red. masses --     1.9113                 1.9084                 1.6400
 Frc consts  --     0.0000                 0.0000                 0.0000
 IR Inten    --    45.7991                73.8533                 7.3620
 Raman Activ --     0.0000                 0.0000                 0.0000
 Depolar     --     0.0000                 0.0000                 0.0000
 Atom AN      X      Y      Z        X      Y      Z        X      Y      Z
   1   6     0.12  -0.16  -0.05    -0.12   0.15   0.05    -0.01   0.07  -0.15
   2   6     0.01  -0.01  -0.01    -0.01   0.02   0.00    -0.00   0.00  -0.01
   3   8     0.00  -0.00  -0.00     0.00   0.00  -0.00     0.00  -0.00   0.00
   4   6     0.01   0.01  -0.01     0.01   0.02  -0.00     0.00   0.00   0.01
   5   6     0.12   0.15  -0.05     0.12   0.16  -0.05     0.01   0.07   0.15
   6   1    -0.06  -0.06   0.05     0.06   0.06  -0.05    -0.06  -0.02   0.02
   7   1    -0.30   0.48   0.28     0.30  -0.48  -0.28    -0.11   0.18   0.08
   8   1    -0.06   0.13  -0.17     0.06  -0.13   0.17     0.22  -0.42   0.44
   9   1    -0.03   0.04   0.03     0.03  -0.03  -0.02    -0.00   0.01   0.00
  10   1     0.00  -0.00  -0.00     0.01  -0.02   0.02     0.01  -0.01   0.01
  11   1    -0.03  -0.04   0.03    -0.03  -0.03   0.02     0.00   0.01  -0.00
  12   1     0.00   0.00  -0.00    -0.01  -0.02  -0.02    -0.01  -0.01  -0.01
  13   1    -0.06   0.06   0.05    -0.06   0.06   0.05     0.06  -0.02  -0.02
  14   1    -0.30  -0.47   0.28    -0.30  -0.48   0.29     0.11   0.18  -0.08
  15   1    -0.06  -0.13  -0.17    -0.06  -0.13  -0.17    -0.22  -0.41  -0.44
                     37                     38                     39
                        a                      a                      a 
 Frequencies --  3043.3780              3053.1537              3053.4375
 Red. masses --     1.6396                 1.6089                 1.6047
 Frc consts  --     0.0000                 0.0000                 0.0000
 IR Inten    --    70.7438                15.8736                46.5361
 Raman Activ --     0.0000                 0.0000                 0.0000
 Depolar     --     0.0000                 0.0000                 0.0000
 Atom AN      X      Y      Z        X      Y      Z        X      Y      Z
   1   6    -0.01   0.07  -0.15    -0.13  -0.08   0.07    -0.12  -0.08   0.07
   2   6    -0.00   0.00  -0.01    -0.00  -0.00   0.01    -0.00   0.00   0.00
   3   8     0.00   0.00   0.00    -0.00  -0.00  -0.00    -0.00  -0.00  -0.00
   4   6    -0.00  -0.00  -0.01     0.00  -0.00  -0.01    -0.00  -0.00   0.00
   5   6    -0.01  -0.07  -0.15     0.13  -0.08  -0.07    -0.12   0.08   0.07
   6   1    -0.06  -0.02   0.02     0.52   0.24  -0.36     0.52   0.24  -0.35
   7   1    -0.11   0.18   0.08    -0.07   0.08   0.06    -0.08   0.08   0.07
   8   1     0.22  -0.41   0.44    -0.00  -0.04   0.04    -0.00  -0.03   0.04
   9   1    -0.01   0.01   0.00     0.01  -0.01  -0.01     0.01  -0.01  -0.01
  10   1     0.01  -0.02   0.01    -0.01   0.01  -0.01    -0.00   0.00  -0.00
  11   1    -0.01  -0.01   0.00    -0.01  -0.01   0.01     0.01   0.01  -0.01
  12   1     0.01   0.02   0.02     0.01   0.01   0.01    -0.00  -0.00  -0.00
  13   1    -0.06   0.02   0.02    -0.52   0.24   0.35     0.52  -0.24  -0.35
  14   1    -0.11  -0.18   0.08     0.07   0.08  -0.06    -0.08  -0.08   0.07
  15   1     0.22   0.42   0.44     0.00  -0.04  -0.04    -0.00   0.03   0.04
