      -----------------------------------------------------------      
     |                   =====================                   |     
     |                           x T B                           |     
     |                   =====================                   |     
     |                         S. Grimme                         |     
     |          Mulliken Center for Theoretical Chemistry        |     
     |                    University of Bonn                     |     
      -----------------------------------------------------------      

   * xtb version 6.7.1 (edcfbbe) compiled by 'albert@albert-system' on 2024-07-22

   xtb is free software: you can redistribute it and/or modify it under
   the terms of the GNU Lesser General Public License as published by
   the Free Software Foundation, either version 3 of the License, or
   (at your option) any later version.
   
   xtb is distributed in the hope that it will be useful,
   but WITHOUT ANY WARRANTY; without even the implied warranty of
   MERCHANTABILITY or FITNESS FOR A PARTICULAR PURPOSE.  See the
   GNU Lesser General Public License for more details.
   
   Cite this work as:
   * C. Bannwarth, E. Caldeweyher, S. Ehlert, A. Hansen, P. Pracht,
     J. Seibert, S. Spicher, S. Grimme, WIREs Comput. Mol. Sci., 2020, 11,
     e01493. DOI: 10.1002/wcms.1493
   
   for GFN2-xTB:
   * C. Bannwarth, S. Ehlert and S. Grimme., J. Chem. Theory Comput., 2019,
     15, 1652-1671. DOI: 10.1021/acs.jctc.8b01176
   for GFN1-xTB:
   * S. Grimme, C. Bannwarth, P. Shushkov, J. Chem. Theory Comput., 2017,
     13, 1989-2009. DOI: 10.1021/acs.jctc.7b00118
   for GFN0-xTB:
   * P. Pracht, E. Caldeweyher, S. Ehlert, S. Grimme, ChemRxiv, 2019, preprint.
     DOI: 10.26434/chemrxiv.8326202.v1
   for GFN-FF:
   * S. Spicher and S. Grimme, Angew. Chem. Int. Ed., 2020, 59, 15665-15673.
     DOI: 10.1002/anie.202004239
   
   for ALPB and GBSA implicit solvation:
   * S. Ehlert, M. Stahn, S. Spicher, S. Grimme, J. Chem. Theory Comput.,
     2021, 17, 4250-4261. DOI: 10.1021/acs.jctc.1c00471
   
   for ddCOSMO and CPCM-X implicit solvation:
   * M. Stahn, S. Ehlert, S. Grimme, J. Phys. Chem. A,
     2023, XX, XXXX-XXXX. DOI: 10.1021/acs.jpca.3c04382
   
   for DFT-D4:
   * E. Caldeweyher, C. Bannwarth and S. Grimme, J. Chem. Phys., 2017,
     147, 034112. DOI: 10.1063/1.4993215
   * E. Caldeweyher, S. Ehlert, A. Hansen, H. Neugebauer, S. Spicher,
     C. Bannwarth and S. Grimme, J. Chem. Phys., 2019, 150, 154122.
     DOI: 10.1063/1.5090222
   * E. Caldeweyher, J.-M. Mewes, S. Ehlert and S. Grimme, Phys. Chem. Chem. Phys.
     2020, 22, 8499-8512. DOI: 10.1039/D0CP00502A
   
   for sTDA-xTB:
   * S. Grimme and C. Bannwarth, J. Chem. Phys., 2016, 145, 054103.
     DOI: 10.1063/1.4959605
   
   in the mass-spec context:
   * V. Asgeirsson, C. Bauer and S. Grimme, Chem. Sci., 2017, 8, 4879.
     DOI: 10.1039/c7sc00601b
   * J. Koopman and S. Grimme, ACS Omega 2019, 4, 12, 15120-15133.
     DOI: 10.1021/acsomega.9b02011
   
   for metadynamics refer to:
   * S. Grimme, J. Chem. Theory Comput., 2019, 155, 2847-2862
     DOI: 10.1021/acs.jctc.9b00143
   
   for SPH calculations refer to:
   * S. Spicher and S. Grimme, J. Chem. Theory Comput., 2021, 17, 1701-1714
     DOI: 10.1021/acs.jctc.0c01306
   
   for ONIOM refer to:
   * C. Plett, A. Katbashev, S. Ehlert, S. Grimme, M. Bursch,
     Phys. Chem. Chem. Phys., 2023, 25, 17860-17868. DOI: 10.1039/D3CP02178E
   
   for DIPRO refer to:
   * J. Kohn, N. Gildemeister, S. Grimme, D. Fazzi, A. Hansen,
     J. Chem. Phys., 2023, just accepted.
   
   for PTB refer to:
   * S. Grimme, M. Mueller, A. Hansen, J. Chem. Phys., 2023, 158, 124111.
     DOI: 10.1063/5.0137838
   
   with help from (in alphabetical order)
   P. Atkinson, C. Bannwarth, F. Bohle, G. Brandenburg, E. Caldeweyher
   M. Checinski, S. Dohm, S. Ehlert, S. Ehrlich, I. Gerasimov, C. Hölzer
   A. Katbashev, J. Kohn, J. Koopman, C. Lavigne, S. Lehtola, F. März, M. Müller,
   F. Musil, H. Neugebauer, J. Pisarek, C. Plett, P. Pracht, F. Pultar,
   J. Seibert, P. Shushkov, S. Spicher, M. Stahn, M. Steiner, T. Strunk,
   J. Stückrath, T. Rose, and J. Unsleber
   
 * started run on 2025/04/07 at 02:45:59.838     
   ID    Z sym.   atoms
    1    6 C      1, 2, 4, 5
    2    8 O      3
    3    1 H      6-15

           -------------------------------------------------
          |                Calculation Setup                |
           -------------------------------------------------

          program call               : /srv/scratch/z5358697/.xtb/bin/xtb xtb_rrho.coord --gfn2 --bhess vtight --chrg 0 --enso --norestart -I rrho-xcontrol-inp --parallel 1 --alpb water
          hostname                   : k140
          coordinate file            : xtb_rrho.coord
          omp threads                :                     1


           -------------------------------------------------
          |                 G F N 2 - x T B                 |
           -------------------------------------------------

        Reference                      10.1021/acs.jctc.8b01176
      * Hamiltonian:
        H0-scaling (s, p, d)           1.850000    2.230000    2.230000
        zeta-weighting                 0.500000
      * Dispersion:
        s8                             2.700000
        a1                             0.520000
        a2                             5.000000
        s9                             5.000000
      * Repulsion:
        kExp                           1.500000    1.000000
        rExp                           1.000000
      * Coulomb:
        alpha                          2.000000
        third order                    shell-resolved
        anisotropic                    true
        a3                             3.000000
        a5                             4.000000
        cn-shift                       1.200000
        cn-exp                         4.000000
        max-rad                        5.000000

      * Solvation model:               ALPB
        Solvent                        water
        Parameter file                 internal GFN2-xTB/ALPB
        Dielectric constant                8.0200E+01
        Reference state                gsolv [1 M gas/solution]
        Free energy shift                  1.0808E-03 Eh       6.7819E-01 kcal/mol
        Temperature                        2.9815E+02 K
        Density                            1.0000E+00 kg/L
        Solvent mass                       1.8000E+01 g/mol
        Interaction kernel             P16
        Born radius scaling (c1)           1.4744E+00
        Born radii integrator          GBOBC
        Born offset                        0.0000E+00 a0       0.0000E+00 AA
        H-bond correction              true
        Ion screening                  false
        Surface tension                    1.0000E-05 Eh       1.5569E+01 dyn/cm
        Grid points                               974 per atom

          ...................................................
          :                      SETUP                      :
          :.................................................:
          :  # basis functions                  30          :
          :  # atomic orbitals                  30          :
          :  # shells                           20          :
          :  # electrons                        32          :
          :  max. iterations                   250          :
          :  Hamiltonian                  GFN2-xTB          :
          :  restarted?                      false          :
          :  GBSA solvation                   true          :
          :  PC potential                    false          :
          :  electronic temp.          300.0000000     K    :
          :  accuracy                    1.0000000          :
          :  -> integral cutoff          0.2500000E+02      :
          :  -> integral neglect         0.1000000E-07      :
          :  -> SCF convergence          0.1000000E-05 Eh   :
          :  -> wf. convergence          0.1000000E-03 e    :
          :  Broyden damping             0.4000000          :
          :  net charge                          0          :
          :  unpaired electrons                  0          :
          ...................................................

 iter      E             dE          RMSdq      gap      omega  full diag
   1    -17.8843276 -0.178843E+02  0.354E+00   11.33       0.0  T
   2    -17.9230996 -0.387720E-01  0.171E+00   10.91       1.0  T
   3    -17.9237686 -0.669037E-03  0.711E-01   10.97       1.0  T
   4    -17.9239299 -0.161264E-03  0.117E-01   10.99       1.0  T
   5    -17.9239468 -0.169114E-04  0.629E-02   11.01       1.0  T
   6    -17.9239481 -0.124656E-05  0.739E-03   11.02       3.5  T
   7    -17.9239482 -0.145137E-06  0.242E-03   11.02      10.7  T
   8    -17.9239482 -0.542559E-08  0.114E-03   11.02      22.6  T
   9    -17.9239482 -0.483766E-08  0.153E-04   11.02     168.8  T
  10    -17.9239482  0.762199E-10  0.117E-04   11.02     221.4  T

   *** convergence criteria satisfied after 10 iterations ***

         #    Occupation            Energy/Eh            Energy/eV
      -------------------------------------------------------------
         1        2.0000           -0.6923278             -18.8392
       ...           ...                  ...                  ...
        10        2.0000           -0.4921806             -13.3929
        11        2.0000           -0.4685566             -12.7501
        12        2.0000           -0.4615473             -12.5593
        13        2.0000           -0.4588559             -12.4861
        14        2.0000           -0.4442629             -12.0890
        15        2.0000           -0.4260721             -11.5940
        16        2.0000           -0.4005634             -10.8999 (HOMO)
        17                          0.0042402               0.1154 (LUMO)
        18                          0.0738890               2.0106
        19                          0.1135561               3.0900
        20                          0.1164629               3.1691
        21                          0.1238162               3.3692
       ...                                ...                  ...
        30                          0.2863821               7.7929
      -------------------------------------------------------------
                  HL-Gap            0.4048035 Eh           11.0153 eV
             Fermi-level           -0.1981616 Eh           -5.3923 eV

 SCC (total)                   0 d,  0 h,  0 min,  0.029 sec
 SCC setup                      ...        0 min,  0.001 sec (  2.424%)
 Dispersion                     ...        0 min,  0.000 sec (  0.180%)
 classical contributions        ...        0 min,  0.000 sec (  0.038%)
 integral evaluation            ...        0 min,  0.001 sec (  2.394%)
 iterations                     ...        0 min,  0.025 sec ( 88.421%)
 molecular gradient             ...        0 min,  0.002 sec (  6.184%)
 printout                       ...        0 min,  0.000 sec (  0.318%)

         :::::::::::::::::::::::::::::::::::::::::::::::::::::
         ::                     SUMMARY                     ::
         :::::::::::::::::::::::::::::::::::::::::::::::::::::
         :: total energy             -17.721612022738 Eh    ::
         :: total w/o Gsasa/hb       -17.721915648811 Eh    ::
         :: gradient norm              0.026014651765 Eh/a0 ::
         :: HOMO-LUMO gap             11.015265180115 eV    ::
         ::.................................................::
         :: SCC energy               -17.923936747299 Eh    ::
         :: -> isotropic ES            0.027430869469 Eh    ::
         :: -> anisotropic ES          0.004122211920 Eh    ::
         :: -> anisotropic XC          0.006689554111 Eh    ::
         :: -> dispersion             -0.007131381650 Eh    ::
         :: -> Gsolv                  -0.003547074882 Eh    ::
         ::    -> Gelec               -0.003850700955 Eh    ::
         ::    -> Gsasa                0.000196180614 Eh    ::
         ::    -> Ghb                 -0.000973314238 Eh    ::
         ::    -> Gshift               0.001080759698 Eh    ::
         :: repulsion energy           0.202324724561 Eh    ::
         :: add. restraining           0.000000000000 Eh    ::
         :: total charge              -0.000000000000 e     ::
         :::::::::::::::::::::::::::::::::::::::::::::::::::::

metadynamics with 1 initial structures loaded
           -------------------------------------------------
          |           Optimal kpush determination           |
           -------------------------------------------------
      ----------------------------------------------------------- 
     |                   =====================                   |
     |                        A N C O P T                        |
     |                   =====================                   |
     |               Approximate Normal Coordinate               |
     |                Rational Function Optimizer                |
      ----------------------------------------------------------- 
target rmsd / Å         0.100000
unbiased initial rmsd   0.047236
 
iter. min.        max.        rmsd       kpush
final kpush:  0.000000
           -------------------------------------------------
          |            Biased Numerical Hessian             |
           -------------------------------------------------
kpush                :   0.00000
alpha                :   1.00000
step length          :   0.00500
SCC accuracy         :   0.30000
Hessian scale factor :   1.00000
frozen atoms in %    :   0.00000    0
RMS gradient         :   0.00001
estimated CPU  time      0.01 min
estimated wall time      0.01 min

writing file <hessian>.

 projected vibrational frequencies (cm⁻¹)
eigval :       -0.00    -0.00    -0.00     0.00     0.00     0.00
eigval :       10.25   127.91   198.76   257.98   294.72   443.71
eigval :      467.14   806.88   814.31   865.59   937.92  1046.54
eigval :     1068.61  1081.10  1103.18  1124.00  1182.04  1251.99
eigval :     1282.45  1325.48  1326.54  1392.35  1394.66  1457.97
eigval :     1461.02  1484.03  1485.92  1491.26  1494.41  2894.50
eigval :     2896.82  2964.59  2965.02  3036.80  3036.97  3043.17
eigval :     3043.38  3053.15  3053.44
           -------------------------------------------------
          |                Property Printout                |
           -------------------------------------------------

    * Orbital Energies and Occupations

         #    Occupation            Energy/Eh            Energy/eV
      -------------------------------------------------------------
         1        2.0000           -0.6967010             -18.9582
       ...           ...                  ...                  ...
         4        2.0000           -0.5960499             -16.2193
         5        2.0000           -0.5660013             -15.4017
         6        2.0000           -0.5491946             -14.9443
         7        2.0000           -0.5453443             -14.8396
         8        2.0000           -0.5162291             -14.0473
         9        2.0000           -0.4955699             -13.4851
        10        2.0000           -0.4931381             -13.4190
        11        2.0000           -0.4678170             -12.7299
        12        2.0000           -0.4626743             -12.5900
        13        2.0000           -0.4601328             -12.5209
        14        2.0000           -0.4439164             -12.0796
        15        2.0000           -0.4257648             -11.5857
        16        2.0000           -0.3989971             -10.8573 (HOMO)
        17                          0.0226966               0.6176 (LUMO)
        18                          0.0883966               2.4054
        19                          0.1181128               3.2140
        20                          0.1214184               3.3040
        21                          0.1232639               3.3542
        22                          0.1493799               4.0648
        23                          0.1688439               4.5945
        24                          0.1967865               5.3548
        25                          0.2010759               5.4716
        26                          0.2034467               5.5361
        27                          0.2464603               6.7065
       ...                                ...                  ...
        30                          0.2972930               8.0898
      -------------------------------------------------------------
                  HL-Gap            0.4216936 Eh           11.4749 eV
             Fermi-level           -0.1881503 Eh           -5.1198 eV

     #   Z          covCN         q      C6AA      α(0)
     1   6 C        3.750    -0.126    22.977     6.836
     2   6 C        3.685     0.077    19.484     6.319
     3   8 O        1.698    -0.370    20.257     6.077
     4   6 C        3.685     0.077    19.484     6.319
     5   6 C        3.750    -0.126    22.977     6.836
     6   1 H        0.925     0.054     2.271     2.357
     7   1 H        0.925     0.047     2.364     2.404
     8   1 H        0.925     0.052     2.298     2.371
     9   1 H        0.924     0.052     2.299     2.371
    10   1 H        0.924     0.030     2.593     2.518
    11   1 H        0.924     0.052     2.299     2.371
    12   1 H        0.924     0.030     2.593     2.518
    13   1 H        0.925     0.054     2.271     2.357
    14   1 H        0.925     0.047     2.364     2.404
    15   1 H        0.925     0.052     2.298     2.371

 Mol. C6AA /au·bohr⁶  :       1459.579175
 Mol. C8AA /au·bohr⁸  :      29709.759389
 Mol. α(0) /au        :         56.429469


Wiberg/Mayer (AO) data.
largest (>0.10) Wiberg bond orders for each atom

 ---------------------------------------------------------------------------
     #   Z sym  total        # sym  WBO       # sym  WBO       # sym  WBO
 ---------------------------------------------------------------------------
     1   6 C    3.994 --     2 C    1.010     8 H    0.987     7 H    0.985
                             6 H    0.984
     2   6 C    3.948 --     1 C    1.010     3 O    0.973     9 H    0.971
                            10 H    0.969
     3   8 O    2.047 --     4 C    0.973     2 C    0.973
     4   6 C    3.948 --     5 C    1.010     3 O    0.973    11 H    0.971
                            12 H    0.969
     5   6 C    3.994 --     4 C    1.010    15 H    0.987    14 H    0.985
                            13 H    0.984
     6   1 H    0.997 --     1 C    0.984
     7   1 H    0.998 --     1 C    0.985
     8   1 H    0.997 --     1 C    0.987
     9   1 H    0.997 --     2 C    0.971
    10   1 H    0.999 --     2 C    0.969
    11   1 H    0.997 --     4 C    0.971
    12   1 H    0.999 --     4 C    0.969
    13   1 H    0.997 --     5 C    0.984
    14   1 H    0.998 --     5 C    0.985
    15   1 H    0.997 --     5 C    0.987
 ---------------------------------------------------------------------------

Topologies differ in total number of bonds
Writing topology from bond orders to xtbtopo.mol

molecular dipole:
                 x           y           z       tot (Debye)
 q only:        0.000       0.618      -0.000
   full:        0.000       0.739      -0.000       1.878
molecular quadrupole (traceless):
                xx          xy          yy          xz          yz          zz
 q only:        2.955      -0.001      -2.743      -1.112       0.002      -0.213
  q+dip:        2.100      -0.001      -2.466      -0.867       0.002       0.366
   full:        2.545      -0.001      -2.772      -1.162       0.002       0.227

           -------------------------------------------------
          |                Geometry Summary                 |
           -------------------------------------------------

      molecular mass/u    :       74.1217560
   center of mass at/Å    :        0.0000087      -0.0026992       0.0000795
  moments of inertia/u·Å² :        0.5269300E+02   0.1760913E+03   0.1833458E+03
rotational constants/cm⁻¹ :        0.3199217E+00   0.9573233E-01   0.9194445E-01

 * 14 selected distances

     #   Z          #   Z                                           value/Å
     1   6 C        2   6 C                                       1.5271883 (max)
     2   6 C        3   8 O                                       1.4196898
     3   8 O        4   6 C                                       1.4196897
     4   6 C        5   6 C                                       1.5271881
     1   6 C        6   1 H                                       1.0856233 (min)
     1   6 C        7   1 H                                       1.0870130
     1   6 C        8   1 H                                       1.0870954
     2   6 C        9   1 H                                       1.0927486
     2   6 C       10   1 H                                       1.0968798
     4   6 C       11   1 H                                       1.0927486
     4   6 C       12   1 H                                       1.0968800
     5   6 C       13   1 H                                       1.0856235
     5   6 C       14   1 H                                       1.0870131
     5   6 C       15   1 H                                       1.0870955

 * 3 distinct bonds (by element types)

   Z      Z             #   av. dist./Å        max./Å        min./Å
   1 H    6 C          10     1.0898721     1.0968800     1.0856233
   6 C    6 C           2     1.5271882     1.5271883     1.5271881
   6 C    8 O           2     1.4196898     1.4196898     1.4196897

           -------------------------------------------------
          |               Frequency Printout                |
           -------------------------------------------------
 projected vibrational frequencies (cm⁻¹)
eigval :       -0.00    -0.00    -0.00     0.00     0.00     0.00
eigval :       10.25   127.91   198.76   257.98   294.72   443.71
eigval :      467.14   806.88   814.31   865.59   937.92  1046.54
eigval :     1068.61  1081.10  1103.18  1124.00  1182.04  1251.99
eigval :     1282.45  1325.48  1326.54  1392.35  1394.66  1457.97
eigval :     1461.02  1484.03  1485.92  1491.26  1494.41  2894.50
eigval :     2896.82  2964.59  2965.02  3036.80  3036.97  3043.17
eigval :     3043.38  3053.15  3053.44
 reduced masses (amu)
   1: 10.84   2:  8.98   3: 10.09   4: 11.45   5: 10.65   6:  9.89   7:  7.74   8:  5.04
   9:  1.49  10:  4.87  11:  8.20  12: 10.80  13:  8.95  14:  2.18  15:  5.14  16:  6.50
  17:  8.26  18:  8.22  19:  9.33  20:  6.86  21:  8.28  22:  6.83  23:  6.74  24:  2.36
  25:  2.67  26:  3.08  27:  3.54  28:  3.17  29:  3.13  30:  1.87  31:  1.79  32:  1.58
  33:  1.56  34:  1.55  35:  1.58  36:  1.76  37:  1.75  38:  1.67  39:  1.66  40:  1.91
  41:  1.91  42:  1.64  43:  1.64  44:  1.61  45:  1.60
 IR intensities (km·mol⁻¹)
   1:  0.39   2:  2.04   3:  0.49   4:  0.22   5:  0.50   6:  0.04   7:  0.07   8:  4.85
   9:  0.34  10:  3.03  11:  0.32  12: 16.72  13:  6.80  14:  9.09  15: 22.11  16:  3.54
  17: 12.02  18: 25.48  19: 44.05  20:  0.58  21:112.15  22: 58.86  23: 18.15  24:  2.60
  25:  2.19  26: 25.39  27: 20.60  28:  4.83  29: 15.09  30:  1.37  31:  0.03  32:  2.54
  33:  3.46  34:  1.75  35:  0.66  36:101.77  37: 58.33  38: 29.43  39: 68.24  40: 45.80
  41: 73.85  42:  7.36  43: 70.74  44: 15.87  45: 46.54
 Raman intensities (Ä⁴*amu⁻¹)
   1:  0.00   2:  0.00   3:  0.00   4:  0.00   5:  0.00   6:  0.00   7:  0.00   8:  0.00
   9:  0.00  10:  0.00  11:  0.00  12:  0.00  13:  0.00  14:  0.00  15:  0.00  16:  0.00
  17:  0.00  18:  0.00  19:  0.00  20:  0.00  21:  0.00  22:  0.00  23:  0.00  24:  0.00
  25:  0.00  26:  0.00  27:  0.00  28:  0.00  29:  0.00  30:  0.00  31:  0.00  32:  0.00
  33:  0.00  34:  0.00  35:  0.00  36:  0.00  37:  0.00  38:  0.00  39:  0.00  40:  0.00
  41:  0.00  42:  0.00  43:  0.00  44:  0.00  45:  0.00
 output can be read by thermo (or use thermo option).
 writing <g98.out> molden fake output.
 recommended (thermochemical) frequency scaling factor: 1.0
           -------------------------------------------------
          |             Thermodynamic Functions             |
           -------------------------------------------------

Molecule has the following symmetry elements: (C2) 
It seems to be the C2 point group
c2  symmetry found (for desy threshold:  0.10E+00) used in thermo

          ...................................................
          :                      SETUP                      :
          :.................................................:
          :  # frequencies                          39      :
          :  # imaginary freq.                       0      :
          :  linear?                             false      :
          :  only rotor calc.                    false      :
          :  symmetry                               c2      :
          :  rotational number                       2      :
          :  scaling factor                  1.0000000      :
          :  rotor cutoff                    0.0000000 cm⁻¹ :
          :  imag. cutoff                 -100.0000000 cm⁻¹ :
          :.................................................:

    mode    ω/cm⁻¹     T·S(HO)/kcal·mol⁻¹    T·S(FR)/kcal·mol⁻¹   T·S(vib)
   ------------------------------------------------------------------------
       1     10.25    -2.37373 (100.00%)    -1.52243 (  0.00%)    -2.37373
       2    127.91    -0.88765 (100.00%)    -0.77800 (  0.00%)    -0.88765
       3    198.76    -0.63940 (100.00%)    -0.64754 (  0.00%)    -0.63940
       4    257.98    -0.49951 (100.00%)    -0.57031 (  0.00%)    -0.49951
       5    294.72    -0.43133 (100.00%)    -0.53089 (  0.00%)    -0.43133
   ------------------------------------------------------------------------

   temp. (K)  partition function   enthalpy   heat capacity  entropy
                                   cal/mol     cal/K/mol   cal/K/mol   J/K/mol
 298.15  VIB   191.                 2567.005     17.143     19.049
         ROT  0.498E+05              888.752      2.981     24.475
         INT  0.952E+07             3455.758     20.124     43.524
         TR   0.617E+27             1481.254      4.968     38.808
         TOT                        4937.0115    25.0917    82.3319   344.4765

       T/K    H(0)-H(T)+PV         H(T)/Eh          T*S/Eh         G(T)/Eh
   ------------------------------------------------------------------------
    298.15    0.786763E-02    0.141520E+00    0.391185E-01    0.102401E+00
   ------------------------------------------------------------------------

         :::::::::::::::::::::::::::::::::::::::::::::::::::::
         ::                  THERMODYNAMIC                  ::
         :::::::::::::::::::::::::::::::::::::::::::::::::::::
         :: total free energy         -17.620264984901 Eh   ::
         ::.................................................::
         :: total energy              -17.722666391188 Eh   ::
         :: zero point energy           0.133652304689 Eh   ::
         :: G(RRHO) w/o ZPVE           -0.031250898402 Eh   ::
         :: G(RRHO) contrib.            0.102401406287 Eh   ::
         :::::::::::::::::::::::::::::::::::::::::::::::::::::

optimized geometry written to: xtbopt.coord


           -------------------------------------------------
          | TOTAL ENERGY              -17.722666391188 Eh   |
          | TOTAL ENTHALPY            -17.581146457861 Eh   |
          | TOTAL FREE ENERGY         -17.620264984901 Eh   |
          | GRADIENT NORM               0.000014759012 Eh/α |
          | HOMO-LUMO GAP              11.474867850106 eV   |
           -------------------------------------------------

------------------------------------------------------------------------
 * finished run on 2025/04/07 at 02:46:00.394     
------------------------------------------------------------------------
 total:
 * wall-time:     0 d,  0 h,  0 min,  0.556 sec
 *  cpu-time:     0 d,  0 h,  0 min,  0.462 sec
 * ratio c/w:     0.832 speedup
 SCF:
 * wall-time:     0 d,  0 h,  0 min,  0.029 sec
 *  cpu-time:     0 d,  0 h,  0 min,  0.007 sec
 * ratio c/w:     0.249 speedup
 analytical hessian:
 * wall-time:     0 d,  0 h,  0 min,  0.403 sec
 *  cpu-time:     0 d,  0 h,  0 min,  0.393 sec
 * ratio c/w:     0.975 speedup

