! r2scan-3c def2/J RI DEFGRID2 scfconv6 printgap
%output
    printlevel normal
end
* xyz 0 1
C -1.0119620237 -1.8042719179 -6.4171e-06
C 0.3582999876 -1.6170664772 3.77067e-05
C 0.8747968825 -0.3205542038 -1.64728e-05
C 0.0115541095 0.7776167856 1.33149e-05
C -1.3614778084 0.5836574126 6.26398e-05
C -1.8682946383 -0.7185564272 -1.82731e-05
O -2.2446964874 1.6067384052 -1.72204e-05
C 2.3154354389 -0.1025997785 1.05739e-05
O 2.8670651091 0.9802685981 -2.16647e-05
H -1.4207706817 -2.8021054877 -0.0001459111
H 1.0299199986 -2.460918261 -7.32326e-05
H 0.4434321092 1.7682302675 4.19352e-05
H -2.9384712562 -0.8500887932 -0.0001218614
H -1.788482869 2.4623103227 -6.9637e-05
H 2.9178876462 -1.0292096878 -3.9518e-06
*
