! pbe def2-sv(p) def2/J RI DEFGRID1 loosescf d4 GCP(DFT/SV(P)) printgap
%output
    printlevel normal
end
* xyz 0 1
C -1.8194455922 -0.1009926394 0.3528183664
C -0.6055994308 0.5126269429 -0.3349457675
C 0.5883803115 -0.4548771921 -0.4044311375
N 1.7084167018 0.0569895928 0.3782786911
H -2.1666026814 -0.9755809287 -0.1929811501
H -1.5655140257 -0.402082402 1.3657091188
H -2.6322657005 0.6197900148 0.3995972967
H -0.2931595603 1.3974474543 0.2214032028
H -0.885493257 0.8311212879 -1.3405822382
H 0.3074592067 -1.4178567322 0.0298589063
H 0.8604935888 -0.6371093733 -1.4582200474
H 2.0484295497 0.9176265158 -0.0382459389
H 2.4717909596 -0.6100163436 0.3630408327
*
