      -----------------------------------------------------------      
     |                   =====================                   |     
     |                           x T B                           |     
     |                   =====================                   |     
     |                         S. Grimme                         |     
     |          Mulliken Center for Theoretical Chemistry        |     
     |                    University of Bonn                     |     
      -----------------------------------------------------------      

   * xtb version 6.7.1 (edcfbbe) compiled by 'albert@albert-system' on 2024-07-22

   xtb is free software: you can redistribute it and/or modify it under
   the terms of the GNU Lesser General Public License as published by
   the Free Software Foundation, either version 3 of the License, or
   (at your option) any later version.
   
   xtb is distributed in the hope that it will be useful,
   but WITHOUT ANY WARRANTY; without even the implied warranty of
   MERCHANTABILITY or FITNESS FOR A PARTICULAR PURPOSE.  See the
   GNU Lesser General Public License for more details.
   
   Cite this work as:
   * C. Bannwarth, E. Caldeweyher, S. Ehlert, A. Hansen, P. Pracht,
     J. Seibert, S. Spicher, S. Grimme, WIREs Comput. Mol. Sci., 2020, 11,
     e01493. DOI: 10.1002/wcms.1493
   
   for GFN2-xTB:
   * C. Bannwarth, S. Ehlert and S. Grimme., J. Chem. Theory Comput., 2019,
     15, 1652-1671. DOI: 10.1021/acs.jctc.8b01176
   for GFN1-xTB:
   * S. Grimme, C. Bannwarth, P. Shushkov, J. Chem. Theory Comput., 2017,
     13, 1989-2009. DOI: 10.1021/acs.jctc.7b00118
   for GFN0-xTB:
   * P. Pracht, E. Caldeweyher, S. Ehlert, S. Grimme, ChemRxiv, 2019, preprint.
     DOI: 10.26434/chemrxiv.8326202.v1
   for GFN-FF:
   * S. Spicher and S. Grimme, Angew. Chem. Int. Ed., 2020, 59, 15665-15673.
     DOI: 10.1002/anie.202004239
   
   for ALPB and GBSA implicit solvation:
   * S. Ehlert, M. Stahn, S. Spicher, S. Grimme, J. Chem. Theory Comput.,
     2021, 17, 4250-4261. DOI: 10.1021/acs.jctc.1c00471
   
   for ddCOSMO and CPCM-X implicit solvation:
   * M. Stahn, S. Ehlert, S. Grimme, J. Phys. Chem. A,
     2023, XX, XXXX-XXXX. DOI: 10.1021/acs.jpca.3c04382
   
   for DFT-D4:
   * E. Caldeweyher, C. Bannwarth and S. Grimme, J. Chem. Phys., 2017,
     147, 034112. DOI: 10.1063/1.4993215
   * E. Caldeweyher, S. Ehlert, A. Hansen, H. Neugebauer, S. Spicher,
     C. Bannwarth and S. Grimme, J. Chem. Phys., 2019, 150, 154122.
     DOI: 10.1063/1.5090222
   * E. Caldeweyher, J.-M. Mewes, S. Ehlert and S. Grimme, Phys. Chem. Chem. Phys.
     2020, 22, 8499-8512. DOI: 10.1039/D0CP00502A
   
   for sTDA-xTB:
   * S. Grimme and C. Bannwarth, J. Chem. Phys., 2016, 145, 054103.
     DOI: 10.1063/1.4959605
   
   in the mass-spec context:
   * V. Asgeirsson, C. Bauer and S. Grimme, Chem. Sci., 2017, 8, 4879.
     DOI: 10.1039/c7sc00601b
   * J. Koopman and S. Grimme, ACS Omega 2019, 4, 12, 15120-15133.
     DOI: 10.1021/acsomega.9b02011
   
   for metadynamics refer to:
   * S. Grimme, J. Chem. Theory Comput., 2019, 155, 2847-2862
     DOI: 10.1021/acs.jctc.9b00143
   
   for SPH calculations refer to:
   * S. Spicher and S. Grimme, J. Chem. Theory Comput., 2021, 17, 1701-1714
     DOI: 10.1021/acs.jctc.0c01306
   
   for ONIOM refer to:
   * C. Plett, A. Katbashev, S. Ehlert, S. Grimme, M. Bursch,
     Phys. Chem. Chem. Phys., 2023, 25, 17860-17868. DOI: 10.1039/D3CP02178E
   
   for DIPRO refer to:
   * J. Kohn, N. Gildemeister, S. Grimme, D. Fazzi, A. Hansen,
     J. Chem. Phys., 2023, just accepted.
   
   for PTB refer to:
   * S. Grimme, M. Mueller, A. Hansen, J. Chem. Phys., 2023, 158, 124111.
     DOI: 10.1063/5.0137838
   
   with help from (in alphabetical order)
   P. Atkinson, C. Bannwarth, F. Bohle, G. Brandenburg, E. Caldeweyher
   M. Checinski, S. Dohm, S. Ehlert, S. Ehrlich, I. Gerasimov, C. Hölzer
   A. Katbashev, J. Kohn, J. Koopman, C. Lavigne, S. Lehtola, F. März, M. Müller,
   F. Musil, H. Neugebauer, J. Pisarek, C. Plett, P. Pracht, F. Pultar,
   J. Seibert, P. Shushkov, S. Spicher, M. Stahn, M. Steiner, T. Strunk,
   J. Stückrath, T. Rose, and J. Unsleber
   
 * started run on 2025/04/07 at 03:32:48.922     
   ID    Z sym.   atoms
    1    6 C      1, 3, 5-10
    2    8 O      2, 4, 12, 13
    3    7 N      11
    4    1 H      14-20

           -------------------------------------------------
          |                Calculation Setup                |
           -------------------------------------------------

          program call               : /srv/scratch/z5358697/.xtb/bin/xtb gas.coord --gfn2 --sp --chrg 0 --norestart --parallel 1
          hostname                   : k147
          coordinate file            : gas.coord
          omp threads                :                     1


           -------------------------------------------------
          |                 G F N 2 - x T B                 |
           -------------------------------------------------

        Reference                      10.1021/acs.jctc.8b01176
      * Hamiltonian:
        H0-scaling (s, p, d)           1.850000    2.230000    2.230000
        zeta-weighting                 0.500000
      * Dispersion:
        s8                             2.700000
        a1                             0.520000
        a2                             5.000000
        s9                             5.000000
      * Repulsion:
        kExp                           1.500000    1.000000
        rExp                           1.000000
      * Coulomb:
        alpha                          2.000000
        third order                    shell-resolved
        anisotropic                    true
        a3                             3.000000
        a5                             4.000000
        cn-shift                       1.200000
        cn-exp                         4.000000
        max-rad                        5.000000


          ...................................................
          :                      SETUP                      :
          :.................................................:
          :  # basis functions                  59          :
          :  # atomic orbitals                  59          :
          :  # shells                           33          :
          :  # electrons                        68          :
          :  max. iterations                   250          :
          :  Hamiltonian                  GFN2-xTB          :
          :  restarted?                      false          :
          :  GBSA solvation                  false          :
          :  PC potential                    false          :
          :  electronic temp.          300.0000000     K    :
          :  accuracy                    1.0000000          :
          :  -> integral cutoff          0.2500000E+02      :
          :  -> integral neglect         0.1000000E-07      :
          :  -> SCF convergence          0.1000000E-05 Eh   :
          :  -> wf. convergence          0.1000000E-03 e    :
          :  Broyden damping             0.4000000          :
          :  net charge                          0          :
          :  unpaired electrons                  0          :
          ...................................................

 iter      E             dE          RMSdq      gap      omega  full diag
   1    -40.0795637 -0.400796E+02  0.623E+00    3.21       0.0  T
   2    -40.2304734 -0.150910E+00  0.312E+00    2.74       1.0  T
   3    -40.2325947 -0.212129E-02  0.161E+00    2.80       1.0  T
   4    -40.2331868 -0.592133E-03  0.534E-01    2.52       1.0  T
   5    -40.2365116 -0.332477E-02  0.117E-01    2.65       1.0  T
   6    -40.2366519 -0.140281E-03  0.596E-02    2.65       1.0  T
   7    -40.2366615 -0.958810E-05  0.179E-02    2.67       1.2  T
   8    -40.2366629 -0.141195E-05  0.889E-03    2.67       2.5  T
   9    -40.2366634 -0.460485E-06  0.270E-03    2.66       8.3  T
  10    -40.2366634 -0.365146E-07  0.135E-03    2.66      16.6  T
  11    -40.2366634 -0.852354E-08  0.636E-04    2.66      35.2  T
  12    -40.2366634 -0.269706E-08  0.256E-04    2.66      87.5  T

   *** convergence criteria satisfied after 12 iterations ***

         #    Occupation            Energy/Eh            Energy/eV
      -------------------------------------------------------------
         1        2.0000           -0.7785279             -21.1848
       ...           ...                  ...                  ...
        28        2.0000           -0.4678113             -12.7298
        29        2.0000           -0.4668821             -12.7045
        30        2.0000           -0.4594777             -12.5030
        31        2.0000           -0.4557014             -12.4003
        32        2.0000           -0.4551204             -12.3845
        33        2.0000           -0.4494811             -12.2310
        34        2.0000           -0.4368033             -11.8860 (HOMO)
        35                         -0.3389382              -9.2230 (LUMO)
        36                         -0.2830197              -7.7014
        37                         -0.2723468              -7.4109
        38                         -0.2106225              -5.7313
        39                         -0.1248366              -3.3970
       ...                                ...                  ...
        59                          0.6551630              17.8279
      -------------------------------------------------------------
                  HL-Gap            0.0978650 Eh            2.6630 eV
             Fermi-level           -0.3878707 Eh          -10.5545 eV

 SCC (total)                   0 d,  0 h,  0 min,  0.028 sec
 SCC setup                      ...        0 min,  0.000 sec (  0.674%)
 Dispersion                     ...        0 min,  0.000 sec (  0.451%)
 classical contributions        ...        0 min,  0.000 sec (  0.079%)
 integral evaluation            ...        0 min,  0.002 sec (  7.285%)
 iterations                     ...        0 min,  0.020 sec ( 72.148%)
 molecular gradient             ...        0 min,  0.005 sec ( 18.838%)
 printout                       ...        0 min,  0.000 sec (  0.465%)

         :::::::::::::::::::::::::::::::::::::::::::::::::::::
         ::                     SUMMARY                     ::
         :::::::::::::::::::::::::::::::::::::::::::::::::::::
         :: total energy             -39.789587796462 Eh    ::
         :: gradient norm              0.032496718120 Eh/a0 ::
         :: HOMO-LUMO gap              2.663043189560 eV    ::
         ::.................................................::
         :: SCC energy               -40.236729821485 Eh    ::
         :: -> isotropic ES            0.092292951841 Eh    ::
         :: -> anisotropic ES          0.005885913165 Eh    ::
         :: -> anisotropic XC          0.003340586814 Eh    ::
         :: -> dispersion             -0.017229897010 Eh    ::
         :: repulsion energy           0.447142025023 Eh    ::
         :: add. restraining           0.000000000000 Eh    ::
         :: total charge               0.000000000000 e     ::
         :::::::::::::::::::::::::::::::::::::::::::::::::::::

           -------------------------------------------------
          |                Property Printout                |
           -------------------------------------------------

    * Orbital Energies and Occupations

         #    Occupation            Energy/Eh            Energy/eV
      -------------------------------------------------------------
         1        2.0000           -0.7785279             -21.1848
       ...           ...                  ...                  ...
        22        2.0000           -0.5294728             -14.4077
        23        2.0000           -0.5221322             -14.2079
        24        2.0000           -0.5217123             -14.1965
        25        2.0000           -0.5026916             -13.6789
        26        2.0000           -0.4939621             -13.4414
        27        2.0000           -0.4766634             -12.9707
        28        2.0000           -0.4678113             -12.7298
        29        2.0000           -0.4668821             -12.7045
        30        2.0000           -0.4594777             -12.5030
        31        2.0000           -0.4557014             -12.4003
        32        2.0000           -0.4551204             -12.3845
        33        2.0000           -0.4494811             -12.2310
        34        2.0000           -0.4368033             -11.8860 (HOMO)
        35                         -0.3389382              -9.2230 (LUMO)
        36                         -0.2830197              -7.7014
        37                         -0.2723468              -7.4109
        38                         -0.2106225              -5.7313
        39                         -0.1248366              -3.3970
        40                         -0.0173465              -0.4720
        41                         -0.0155065              -0.4220
        42                          0.0853199               2.3217
        43                          0.1157004               3.1484
        44                          0.1195521               3.2532
        45                          0.1296731               3.5286
       ...                                ...                  ...
        59                          0.6551630              17.8279
      -------------------------------------------------------------
                  HL-Gap            0.0978650 Eh            2.6630 eV
             Fermi-level           -0.3878707 Eh          -10.5545 eV

     #   Z          covCN         q      C6AA      α(0)
     1   6 C        3.653     0.028    20.411     6.488
     2   8 O        1.704    -0.250    18.136     5.750
     3   6 C        2.727     0.352    21.022     7.506
     4   8 O        0.856    -0.408    21.847     6.267
     5   6 C        2.973    -0.004    28.130     8.700
     6   6 C        2.924    -0.014    28.364     8.734
     7   6 C        2.917    -0.018    28.451     8.747
     8   6 C        2.917     0.012    27.740     8.637
     9   6 C        2.917    -0.019    28.474     8.750
    10   6 C        2.920    -0.018    28.460     8.748
    11   7 N        2.761     0.543    13.560     5.469
    12   8 O        0.929    -0.381    21.276     6.186
    13   8 O        0.929    -0.380    21.252     6.183
    14   1 H        0.924     0.071     2.071     2.250
    15   1 H        0.924     0.071     2.077     2.254
    16   1 H        0.925     0.076     2.022     2.224
    17   1 H        0.926     0.085     1.927     2.171
    18   1 H        0.926     0.091     1.874     2.141
    19   1 H        0.926     0.088     1.894     2.152
    20   1 H        0.926     0.075     2.028     2.227

 Mol. C6AA /au·bohr⁶  :       5253.084182
 Mol. C8AA /au·bohr⁸  :     124346.999602
 Mol. α(0) /au        :        111.582178


Wiberg/Mayer (AO) data.
largest (>0.10) Wiberg bond orders for each atom

 ---------------------------------------------------------------------------
     #   Z sym  total        # sym  WBO       # sym  WBO       # sym  WBO
 ---------------------------------------------------------------------------
     1   6 C    3.917 --    16 H    0.982    14 H    0.976    15 H    0.976
                             2 O    0.948
     2   8 O    2.324 --     3 C    1.148     1 C    0.948     4 O    0.178
     3   6 C    3.924 --     4 O    1.721     2 O    1.148     5 C    0.990
     4   8 O    2.026 --     3 C    1.721     2 O    0.178
     5   6 C    3.989 --     6 C    1.388    10 C    1.386     3 C    0.990
     6   6 C    3.985 --     7 C    1.460     5 C    1.388    17 H    0.962
                             9 C    0.104
     7   6 C    3.984 --     6 C    1.460     8 C    1.377    18 H    0.959
                            10 C    0.104
     8   6 C    3.965 --     7 C    1.377     9 C    1.376    11 N    0.974
     9   6 C    3.985 --    10 C    1.462     8 C    1.376    19 H    0.959
                             6 C    0.104
    10   6 C    3.988 --     9 C    1.462     5 C    1.386    20 H    0.964
                             7 C    0.104
    11   7 N    3.912 --    13 O    1.449    12 O    1.448     8 C    0.974
    12   8 O    1.932 --    11 N    1.448    13 O    0.367
    13   8 O    1.934 --    11 N    1.449    12 O    0.367
    14   1 H    0.995 --     1 C    0.976
    15   1 H    0.995 --     1 C    0.976
    16   1 H    0.994 --     1 C    0.982
    17   1 H    0.992 --     6 C    0.962
    18   1 H    0.991 --     7 C    0.959
    19   1 H    0.992 --     9 C    0.959
    20   1 H    0.994 --    10 C    0.964
 ---------------------------------------------------------------------------

Topologies differ in total number of bonds
Writing topology from bond orders to xtbtopo.mol

molecular dipole:
                 x           y           z       tot (Debye)
 q only:       -1.935      -0.643      -0.002
   full:       -2.005      -0.720      -0.001       5.415
molecular quadrupole (traceless):
                xx          xy          yy          xz          yz          zz
 q only:      -10.665      10.926       4.805       0.023      -0.006       5.860
  q+dip:      -12.094      11.583       5.303       0.014      -0.013       6.790
   full:      -13.347      11.764       3.137       0.015      -0.010      10.210


           -------------------------------------------------
          | TOTAL ENERGY              -39.789587796462 Eh   |
          | GRADIENT NORM               0.032496718120 Eh/α |
          | HOMO-LUMO GAP               2.663043189560 eV   |
           -------------------------------------------------

------------------------------------------------------------------------
 * finished run on 2025/04/07 at 03:32:48.994     
------------------------------------------------------------------------
 total:
 * wall-time:     0 d,  0 h,  0 min,  0.071 sec
 *  cpu-time:     0 d,  0 h,  0 min,  0.025 sec
 * ratio c/w:     0.349 speedup
 SCF:
 * wall-time:     0 d,  0 h,  0 min,  0.028 sec
 *  cpu-time:     0 d,  0 h,  0 min,  0.016 sec
 * ratio c/w:     0.571 speedup

