      -----------------------------------------------------------      
     |                   =====================                   |     
     |                           x T B                           |     
     |                   =====================                   |     
     |                         S. Grimme                         |     
     |          Mulliken Center for Theoretical Chemistry        |     
     |                    University of Bonn                     |     
      -----------------------------------------------------------      

   * xtb version 6.7.1 (edcfbbe) compiled by 'albert@albert-system' on 2024-07-22

   xtb is free software: you can redistribute it and/or modify it under
   the terms of the GNU Lesser General Public License as published by
   the Free Software Foundation, either version 3 of the License, or
   (at your option) any later version.
   
   xtb is distributed in the hope that it will be useful,
   but WITHOUT ANY WARRANTY; without even the implied warranty of
   MERCHANTABILITY or FITNESS FOR A PARTICULAR PURPOSE.  See the
   GNU Lesser General Public License for more details.
   
   Cite this work as:
   * C. Bannwarth, E. Caldeweyher, S. Ehlert, A. Hansen, P. Pracht,
     J. Seibert, S. Spicher, S. Grimme, WIREs Comput. Mol. Sci., 2020, 11,
     e01493. DOI: 10.1002/wcms.1493
   
   for GFN2-xTB:
   * C. Bannwarth, S. Ehlert and S. Grimme., J. Chem. Theory Comput., 2019,
     15, 1652-1671. DOI: 10.1021/acs.jctc.8b01176
   for GFN1-xTB:
   * S. Grimme, C. Bannwarth, P. Shushkov, J. Chem. Theory Comput., 2017,
     13, 1989-2009. DOI: 10.1021/acs.jctc.7b00118
   for GFN0-xTB:
   * P. Pracht, E. Caldeweyher, S. Ehlert, S. Grimme, ChemRxiv, 2019, preprint.
     DOI: 10.26434/chemrxiv.8326202.v1
   for GFN-FF:
   * S. Spicher and S. Grimme, Angew. Chem. Int. Ed., 2020, 59, 15665-15673.
     DOI: 10.1002/anie.202004239
   
   for ALPB and GBSA implicit solvation:
   * S. Ehlert, M. Stahn, S. Spicher, S. Grimme, J. Chem. Theory Comput.,
     2021, 17, 4250-4261. DOI: 10.1021/acs.jctc.1c00471
   
   for ddCOSMO and CPCM-X implicit solvation:
   * M. Stahn, S. Ehlert, S. Grimme, J. Phys. Chem. A,
     2023, XX, XXXX-XXXX. DOI: 10.1021/acs.jpca.3c04382
   
   for DFT-D4:
   * E. Caldeweyher, C. Bannwarth and S. Grimme, J. Chem. Phys., 2017,
     147, 034112. DOI: 10.1063/1.4993215
   * E. Caldeweyher, S. Ehlert, A. Hansen, H. Neugebauer, S. Spicher,
     C. Bannwarth and S. Grimme, J. Chem. Phys., 2019, 150, 154122.
     DOI: 10.1063/1.5090222
   * E. Caldeweyher, J.-M. Mewes, S. Ehlert and S. Grimme, Phys. Chem. Chem. Phys.
     2020, 22, 8499-8512. DOI: 10.1039/D0CP00502A
   
   for sTDA-xTB:
   * S. Grimme and C. Bannwarth, J. Chem. Phys., 2016, 145, 054103.
     DOI: 10.1063/1.4959605
   
   in the mass-spec context:
   * V. Asgeirsson, C. Bauer and S. Grimme, Chem. Sci., 2017, 8, 4879.
     DOI: 10.1039/c7sc00601b
   * J. Koopman and S. Grimme, ACS Omega 2019, 4, 12, 15120-15133.
     DOI: 10.1021/acsomega.9b02011
   
   for metadynamics refer to:
   * S. Grimme, J. Chem. Theory Comput., 2019, 155, 2847-2862
     DOI: 10.1021/acs.jctc.9b00143
   
   for SPH calculations refer to:
   * S. Spicher and S. Grimme, J. Chem. Theory Comput., 2021, 17, 1701-1714
     DOI: 10.1021/acs.jctc.0c01306
   
   for ONIOM refer to:
   * C. Plett, A. Katbashev, S. Ehlert, S. Grimme, M. Bursch,
     Phys. Chem. Chem. Phys., 2023, 25, 17860-17868. DOI: 10.1039/D3CP02178E
   
   for DIPRO refer to:
   * J. Kohn, N. Gildemeister, S. Grimme, D. Fazzi, A. Hansen,
     J. Chem. Phys., 2023, just accepted.
   
   for PTB refer to:
   * S. Grimme, M. Mueller, A. Hansen, J. Chem. Phys., 2023, 158, 124111.
     DOI: 10.1063/5.0137838
   
   with help from (in alphabetical order)
   P. Atkinson, C. Bannwarth, F. Bohle, G. Brandenburg, E. Caldeweyher
   M. Checinski, S. Dohm, S. Ehlert, S. Ehrlich, I. Gerasimov, C. Hölzer
   A. Katbashev, J. Kohn, J. Koopman, C. Lavigne, S. Lehtola, F. März, M. Müller,
   F. Musil, H. Neugebauer, J. Pisarek, C. Plett, P. Pracht, F. Pultar,
   J. Seibert, P. Shushkov, S. Spicher, M. Stahn, M. Steiner, T. Strunk,
   J. Stückrath, T. Rose, and J. Unsleber
   
 * started run on 2025/04/07 at 03:32:49.027     
   ID    Z sym.   atoms
    1    6 C      1, 3, 5-10
    2    8 O      2, 4, 12, 13
    3    7 N      11
    4    1 H      14-20

           -------------------------------------------------
          |                Calculation Setup                |
           -------------------------------------------------

          program call               : /srv/scratch/z5358697/.xtb/bin/xtb solv.coord --gfn2 --sp --chrg 0 --norestart --parallel 1 --alpb water reference -I xtb_sp-xcontrol-inp
          hostname                   : k147
          coordinate file            : solv.coord
          omp threads                :                     1


           -------------------------------------------------
          |                 G F N 2 - x T B                 |
           -------------------------------------------------

        Reference                      10.1021/acs.jctc.8b01176
      * Hamiltonian:
        H0-scaling (s, p, d)           1.850000    2.230000    2.230000
        zeta-weighting                 0.500000
      * Dispersion:
        s8                             2.700000
        a1                             0.520000
        a2                             5.000000
        s9                             5.000000
      * Repulsion:
        kExp                           1.500000    1.000000
        rExp                           1.000000
      * Coulomb:
        alpha                          2.000000
        third order                    shell-resolved
        anisotropic                    true
        a3                             3.000000
        a5                             4.000000
        cn-shift                       1.200000
        cn-exp                         4.000000
        max-rad                        5.000000

      * Solvation model:               ALPB
        Solvent                        water
        Parameter file                 internal GFN2-xTB/ALPB
        Dielectric constant                8.0200E+01
        Reference state                gsolv=reference [X=1]
        Free energy shift                  2.8945E-03 Eh       1.8164E+00 kcal/mol
        Temperature                        2.9815E+02 K
        Density                            1.0000E+00 kg/L
        Solvent mass                       1.8000E+01 g/mol
        Interaction kernel             P16
        Born radius scaling (c1)           1.4744E+00
        Born radii integrator          GBOBC
        Born offset                        0.0000E+00 a0       0.0000E+00 AA
        H-bond correction              true
        Ion screening                  false
        Surface tension                    1.0000E-05 Eh       1.5569E+01 dyn/cm
        Grid points                               974 per atom

          ...................................................
          :                      SETUP                      :
          :.................................................:
          :  # basis functions                  59          :
          :  # atomic orbitals                  59          :
          :  # shells                           33          :
          :  # electrons                        68          :
          :  max. iterations                   250          :
          :  Hamiltonian                  GFN2-xTB          :
          :  restarted?                      false          :
          :  GBSA solvation                   true          :
          :  PC potential                    false          :
          :  electronic temp.          300.0000000     K    :
          :  accuracy                    1.0000000          :
          :  -> integral cutoff          0.2500000E+02      :
          :  -> integral neglect         0.1000000E-07      :
          :  -> SCF convergence          0.1000000E-05 Eh   :
          :  -> wf. convergence          0.1000000E-03 e    :
          :  Broyden damping             0.4000000          :
          :  net charge                          0          :
          :  unpaired electrons                  0          :
          ...................................................

 iter      E             dE          RMSdq      gap      omega  full diag
   1    -40.1144218 -0.401144E+02  0.642E+00    3.33       0.0  T
   2    -40.2431439 -0.128722E+00  0.316E+00    2.85       1.0  T
   3    -40.2462683 -0.312440E-02  0.146E+00    2.63       1.0  T
   4    -40.2467922 -0.523968E-03  0.410E-01    2.54       1.0  T
   5    -40.2481952 -0.140301E-02  0.110E-01    2.57       1.0  T
   6    -40.2482635 -0.682858E-04  0.583E-02    2.58       1.0  T
   7    -40.2482693 -0.582684E-05  0.139E-02    2.59       1.6  T
   8    -40.2482700 -0.609964E-06  0.568E-03    2.59       3.9  T
   9    -40.2482700 -0.614464E-07  0.274E-03    2.59       8.1  T
  10    -40.2482701 -0.530952E-07  0.115E-03    2.59      19.5  T
  11    -40.2482701 -0.353840E-08  0.463E-04    2.59      48.3  T
  12    -40.2482701 -0.607955E-09  0.210E-04    2.59     106.6  T

   *** convergence criteria satisfied after 12 iterations ***

         #    Occupation            Energy/Eh            Energy/eV
      -------------------------------------------------------------
         1        2.0000           -0.7867645             -21.4090
       ...           ...                  ...                  ...
        28        2.0000           -0.4672196             -12.7137
        29        2.0000           -0.4582689             -12.4701
        30        2.0000           -0.4553655             -12.3911
        31        2.0000           -0.4520086             -12.2998
        32        2.0000           -0.4506004             -12.2615
        33        2.0000           -0.4442929             -12.0898
        34        2.0000           -0.4356406             -11.8544 (HOMO)
        35                         -0.3403739              -9.2620 (LUMO)
        36                         -0.2805385              -7.6338
        37                         -0.2606166              -7.0917
        38                         -0.2054438              -5.5904
        39                         -0.1150180              -3.1298
       ...                                ...                  ...
        59                          0.6600499              17.9609
      -------------------------------------------------------------
                  HL-Gap            0.0952667 Eh            2.5923 eV
             Fermi-level           -0.3880072 Eh          -10.5582 eV

 SCC (total)                   0 d,  0 h,  0 min,  0.032 sec
 SCC setup                      ...        0 min,  0.001 sec (  3.171%)
 Dispersion                     ...        0 min,  0.000 sec (  0.416%)
 classical contributions        ...        0 min,  0.000 sec (  0.062%)
 integral evaluation            ...        0 min,  0.002 sec (  6.338%)
 iterations                     ...        0 min,  0.022 sec ( 71.030%)
 molecular gradient             ...        0 min,  0.006 sec ( 18.485%)
 printout                       ...        0 min,  0.000 sec (  0.439%)

         :::::::::::::::::::::::::::::::::::::::::::::::::::::
         ::                     SUMMARY                     ::
         :::::::::::::::::::::::::::::::::::::::::::::::::::::
         :: total energy             -39.801194471567 Eh    ::
         :: total w/o Gsasa/hb       -39.804307695459 Eh    ::
         :: gradient norm              0.000082605836 Eh/a0 ::
         :: HOMO-LUMO gap              2.592338713875 eV    ::
         ::.................................................::
         :: SCC energy               -40.248336496590 Eh    ::
         :: -> isotropic ES            0.114049339186 Eh    ::
         :: -> anisotropic ES          0.002752212195 Eh    ::
         :: -> anisotropic XC          0.005119298237 Eh    ::
         :: -> dispersion             -0.017125297132 Eh    ::
         :: -> Gsolv                  -0.015192273567 Eh    ::
         ::    -> Gelec               -0.018305497459 Eh    ::
         ::    -> Gsasa                0.004470100940 Eh    ::
         ::    -> Ghb                 -0.004251426208 Eh    ::
         ::    -> Gshift               0.002894549160 Eh    ::
         :: repulsion energy           0.447142025023 Eh    ::
         :: add. restraining           0.000000000000 Eh    ::
         :: total charge              -0.000000000000 e     ::
         :::::::::::::::::::::::::::::::::::::::::::::::::::::

           -------------------------------------------------
          |                Property Printout                |
           -------------------------------------------------

    * Orbital Energies and Occupations

         #    Occupation            Energy/Eh            Energy/eV
      -------------------------------------------------------------
         1        2.0000           -0.7867645             -21.4090
       ...           ...                  ...                  ...
        22        2.0000           -0.5163961             -14.0519
        23        2.0000           -0.5134664             -13.9721
        24        2.0000           -0.5087497             -13.8438
        25        2.0000           -0.4928217             -13.4104
        26        2.0000           -0.4886003             -13.2955
        27        2.0000           -0.4786330             -13.0243
        28        2.0000           -0.4672196             -12.7137
        29        2.0000           -0.4582689             -12.4701
        30        2.0000           -0.4553655             -12.3911
        31        2.0000           -0.4520086             -12.2998
        32        2.0000           -0.4506004             -12.2615
        33        2.0000           -0.4442929             -12.0898
        34        2.0000           -0.4356406             -11.8544 (HOMO)
        35                         -0.3403739              -9.2620 (LUMO)
        36                         -0.2805385              -7.6338
        37                         -0.2606166              -7.0917
        38                         -0.2054438              -5.5904
        39                         -0.1150180              -3.1298
        40                         -0.0135429              -0.3685
        41                         -0.0041296              -0.1124
        42                          0.0971470               2.6435
        43                          0.1324372               3.6038
        44                          0.1383098               3.7636
        45                          0.1440223               3.9190
       ...                                ...                  ...
        59                          0.6600499              17.9609
      -------------------------------------------------------------
                  HL-Gap            0.0952667 Eh            2.5923 eV
             Fermi-level           -0.3880072 Eh          -10.5582 eV

     #   Z          covCN         q      C6AA      α(0)
     1   6 C        3.653     0.005    20.808     6.551
     2   8 O        1.704    -0.250    18.146     5.751
     3   6 C        2.727     0.361    20.881     7.481
     4   8 O        0.856    -0.469    23.102     6.444
     5   6 C        2.973     0.001    28.005     8.680
     6   6 C        2.924    -0.014    28.364     8.734
     7   6 C        2.917    -0.015    28.392     8.738
     8   6 C        2.917     0.021    27.548     8.607
     9   6 C        2.917    -0.016    28.402     8.739
    10   6 C        2.920    -0.018    28.449     8.747
    11   7 N        2.761     0.577    13.197     5.395
    12   8 O        0.929    -0.430    22.243     6.325
    13   8 O        0.929    -0.431    22.272     6.329
    14   1 H        0.924     0.081     1.966     2.193
    15   1 H        0.924     0.082     1.963     2.191
    16   1 H        0.925     0.108     1.710     2.045
    17   1 H        0.926     0.094     1.841     2.122
    18   1 H        0.926     0.104     1.752     2.070
    19   1 H        0.926     0.106     1.727     2.055
    20   1 H        0.926     0.103     1.760     2.074

 Mol. C6AA /au·bohr⁶  :       5231.763756
 Mol. C8AA /au·bohr⁸  :     124168.883995
 Mol. α(0) /au        :        111.270531


Wiberg/Mayer (AO) data.
largest (>0.10) Wiberg bond orders for each atom

 ---------------------------------------------------------------------------
     #   Z sym  total        # sym  WBO       # sym  WBO       # sym  WBO
 ---------------------------------------------------------------------------
     1   6 C    3.896 --    16 H    0.975    14 H    0.974    15 H    0.974
                             2 O    0.936
     2   8 O    2.334 --     3 C    1.171     1 C    0.936     4 O    0.177
     3   6 C    3.918 --     4 O    1.682     2 O    1.171     5 C    0.993
     4   8 O    1.983 --     3 C    1.682     2 O    0.177
     5   6 C    3.988 --     6 C    1.384    10 C    1.383     3 C    0.993
     6   6 C    3.983 --     7 C    1.462     5 C    1.384    17 H    0.960
                             9 C    0.103
     7   6 C    3.980 --     6 C    1.462     8 C    1.367    18 H    0.956
                            10 C    0.103
     8   6 C    3.955 --     7 C    1.367     9 C    1.366    11 N    0.981
     9   6 C    3.980 --    10 C    1.464     8 C    1.366    19 H    0.956
                             6 C    0.103
    10   6 C    3.982 --     9 C    1.464     5 C    1.383    20 H    0.959
                             7 C    0.103
    11   7 N    3.908 --    13 O    1.439    12 O    1.439     8 C    0.981
    12   8 O    1.903 --    11 N    1.439    13 O    0.338
    13   8 O    1.903 --    11 N    1.439    12 O    0.338
    14   1 H    0.993 --     1 C    0.974
    15   1 H    0.993 --     1 C    0.974
    16   1 H    0.988 --     1 C    0.975
    17   1 H    0.991 --     6 C    0.960
    18   1 H    0.989 --     7 C    0.956
    19   1 H    0.988 --     9 C    0.956
    20   1 H    0.989 --    10 C    0.959
 ---------------------------------------------------------------------------

Topologies differ in total number of bonds
Writing topology from bond orders to xtbtopo.mol

molecular dipole:
                 x           y           z       tot (Debye)
 q only:       -2.358      -0.952      -0.001
   full:       -2.336      -0.937      -0.001       6.398
molecular quadrupole (traceless):
                xx          xy          yy          xz          yz          zz
 q only:      -13.255      13.832       6.505       0.019      -0.003       6.750
  q+dip:      -14.224      13.733       6.664       0.010      -0.010       7.560
   full:      -15.480      13.886       4.484       0.012      -0.008      10.996


           -------------------------------------------------
          | TOTAL ENERGY              -39.801194471567 Eh   |
          | GRADIENT NORM               0.000082605836 Eh/α |
          | HOMO-LUMO GAP               2.592338713875 eV   |
           -------------------------------------------------

------------------------------------------------------------------------
 * finished run on 2025/04/07 at 03:32:49.091     
------------------------------------------------------------------------
 total:
 * wall-time:     0 d,  0 h,  0 min,  0.064 sec
 *  cpu-time:     0 d,  0 h,  0 min,  0.027 sec
 * ratio c/w:     0.426 speedup
 SCF:
 * wall-time:     0 d,  0 h,  0 min,  0.032 sec
 *  cpu-time:     0 d,  0 h,  0 min,  0.019 sec
 * ratio c/w:     0.589 speedup

