 Entering Gaussian System
 *********************************************
 Gaussian 98:
 frequency output generated by the xtb code
 *********************************************
                         Standard orientation:
 --------------------------------------------------------------------
  Center     Atomic     Atomic              Coordinates (Angstroms)
  Number     Number      Type              X           Y           Z
 --------------------------------------------------------------------
    1          6             0       -2.714511    0.131696   -0.084624
    2          6             0       -1.988985   -1.000148   -0.415005
    3          6             0       -0.611870   -1.019307   -0.262163
    4          6             0        0.027902    0.113179    0.218296
    5          6             0       -0.690847    1.249259    0.563037
    6          6             0       -2.065687    1.252368    0.409213
    7          8             0        1.411687    0.149708    0.421610
    8          6             0        2.228767   -0.358383   -0.474185
    9          8             0        3.419444   -0.405713   -0.315289
   10          1             0       -3.785969    0.138085   -0.204876
   11          1             0       -2.491589   -1.878425   -0.787515
   12          1             0       -0.046758   -1.909396   -0.492629
   13          1             0       -0.162336    2.108137    0.943303
   14          1             0       -2.628232    2.133093    0.674202
   15          1             0        1.739069   -0.728026   -1.394548
 --------------------------------------------------------------------
     1 basis functions        1 primitive gaussians
     1 alpha electrons        1 beta electrons
 
 Harmonic frequencies (cm**-1), IR intensities (km*mol⁻¹),
 Raman scattering activities (A**4/amu), Raman depolarization ratios,
 reduced masses (AMU), force constants (mDyne/A) and normal coordinates:
                      1                      2                      3
                        a                      a                      a 
 Frequencies --    81.9327               125.6711               173.5446
 Red. masses --    12.9466                12.3993                 9.3528
 Frc consts  --     0.0000                 0.0000                 0.0000
 IR Inten    --     0.5759                11.2606                21.7233
 Raman Activ --     0.0000                 0.0000                 0.0000
 Depolar     --     0.0000                 0.0000                 0.0000
 Atom AN      X      Y      Z        X      Y      Z        X      Y      Z
   1   6     0.06   0.13  -0.25    -0.09   0.13   0.16     0.04   0.06  -0.26
   2   6    -0.02  -0.00   0.02    -0.24   0.06   0.06     0.08   0.05  -0.12
   3   6    -0.05  -0.15   0.26    -0.22  -0.11  -0.12     0.04  -0.01   0.15
   4   6    -0.01  -0.18   0.26    -0.04  -0.19  -0.18     0.01   0.01   0.16
   5   6     0.08  -0.06   0.04     0.11  -0.10  -0.13    -0.06  -0.06   0.25
   6   6     0.11   0.10  -0.23     0.10   0.07   0.04    -0.03  -0.03   0.06
   7   8    -0.00  -0.37   0.36    -0.06  -0.22  -0.15     0.05   0.32  -0.14
   8   6    -0.09   0.17  -0.05     0.18  -0.18   0.09    -0.09  -0.45   0.16
   9   8    -0.07   0.30  -0.36     0.23   0.56   0.19    -0.02   0.18  -0.25
  10   1     0.03   0.08  -0.14    -0.03   0.07   0.09     0.02   0.04  -0.16
  11   1    -0.02   0.01   0.00    -0.11   0.03   0.04     0.04   0.02  -0.07
  12   1    -0.03  -0.06   0.12    -0.11  -0.05  -0.06     0.00  -0.02   0.08
  13   1     0.03  -0.02   0.01     0.08  -0.05  -0.06    -0.03  -0.02   0.11
  14   1     0.05   0.06  -0.13     0.07   0.04   0.03    -0.02  -0.02   0.03
  15   1    -0.07   0.14  -0.03     0.11  -0.23   0.07    -0.07  -0.47   0.21
                      4                      5                      6
                        a                      a                      a 
 Frequencies --   280.5136               376.2449               379.4391
 Red. masses --    11.4733                11.5597                10.1508
 Frc consts  --     0.0000                 0.0000                 0.0000
 IR Inten    --     4.5895                 4.1490                 1.6724
 Raman Activ --     0.0000                 0.0000                 0.0000
 Depolar     --     0.0000                 0.0000                 0.0000
 Atom AN      X      Y      Z        X      Y      Z        X      Y      Z
   1   6    -0.02   0.16  -0.29     0.27   0.05   0.06     0.18   0.01   0.06
   2   6    -0.12  -0.03   0.14     0.12   0.02  -0.24     0.04  -0.15   0.29
   3   6    -0.12  -0.18   0.27     0.06  -0.30   0.13     0.11  -0.01  -0.41
   4   6    -0.03  -0.11   0.01    -0.04  -0.17  -0.06    -0.02  -0.10  -0.03
   5   6    -0.03  -0.19   0.29     0.23   0.01  -0.24     0.10  -0.16   0.30
   6   6     0.00   0.01   0.04     0.22  -0.01   0.26     0.20   0.16  -0.30
   7   8     0.01   0.17  -0.42    -0.21   0.21  -0.08    -0.13   0.18  -0.02
   8   6     0.16   0.22  -0.26    -0.27   0.10  -0.02    -0.20   0.02   0.04
   9   8     0.11  -0.10   0.26    -0.36   0.06   0.18    -0.25   0.04   0.07
  10   1     0.01   0.11  -0.21     0.08   0.03   0.03     0.05   0.01   0.03
  11   1    -0.05  -0.01   0.06    -0.01   0.06  -0.14    -0.03  -0.06   0.19
  12   1    -0.05  -0.06   0.10     0.01  -0.11   0.11     0.04   0.03  -0.23
  13   1     0.00  -0.08   0.13     0.15  -0.01  -0.16     0.06  -0.11   0.19
  14   1     0.02   0.01   0.01     0.06  -0.03   0.14     0.07   0.09  -0.20
  15   1     0.11   0.15  -0.15    -0.07   0.02  -0.01    -0.06  -0.03   0.03
                      7                      8                      9
                        a                      a                      a 
 Frequencies --   425.7826               494.8956               586.8635
 Red. masses --    12.8543                10.0556                11.2639
 Frc consts  --     0.0000                 0.0000                 0.0000
 IR Inten    --     4.5456                 8.5737                 0.2619
 Raman Activ --     0.0000                 0.0000                 0.0000
 Depolar     --     0.0000                 0.0000                 0.0000
 Atom AN      X      Y      Z        X      Y      Z        X      Y      Z
   1   6    -0.20   0.06   0.10    -0.06  -0.14   0.32    -0.01  -0.17  -0.06
   2   6    -0.18   0.11  -0.06     0.04   0.10  -0.24    -0.36  -0.30  -0.16
   3   6    -0.12  -0.17  -0.09     0.00   0.05   0.07    -0.35   0.25   0.06
   4   6     0.06  -0.29   0.07    -0.04  -0.16   0.58     0.02   0.13   0.04
   5   6    -0.00  -0.28  -0.15    -0.03   0.02   0.07     0.33   0.22   0.12
   6   6    -0.00  -0.00  -0.06     0.00   0.08  -0.25     0.37  -0.33  -0.08
   7   8     0.17   0.51   0.21     0.05  -0.00  -0.26     0.03   0.12   0.02
   8   6     0.10   0.22   0.23     0.02  -0.06  -0.22    -0.01   0.05   0.04
   9   8     0.17  -0.20  -0.23    -0.02   0.04   0.15    -0.01  -0.01  -0.01
  10   1    -0.06   0.03   0.05    -0.02  -0.05   0.11    -0.01   0.11   0.04
  11   1    -0.07   0.06  -0.06     0.05   0.09  -0.25    -0.05  -0.11  -0.05
  12   1    -0.11  -0.08  -0.09     0.02   0.06  -0.12    -0.05   0.09   0.03
  13   1     0.03  -0.08  -0.09    -0.01   0.07  -0.12     0.04   0.09   0.04
  14   1     0.07   0.05  -0.03     0.01   0.09  -0.26     0.06  -0.11  -0.04
  15   1    -0.06   0.05   0.11     0.05  -0.03  -0.08    -0.02   0.00   0.02
                     10                     11                     12
                        a                      a                      a 
 Frequencies --   628.1565               660.0280               762.6766
 Red. masses --    12.2771                 9.9112                 4.3066
 Frc consts  --     0.0000                 0.0000                 0.0000
 IR Inten    --    14.7915                 1.9764                44.1448
 Raman Activ --     0.0000                 0.0000                 0.0000
 Depolar     --     0.0000                 0.0000                 0.0000
 Atom AN      X      Y      Z        X      Y      Z        X      Y      Z
   1   6     0.33  -0.06   0.17    -0.16  -0.09   0.25    -0.07  -0.06   0.16
   2   6    -0.01  -0.19  -0.22     0.06   0.21  -0.29     0.03   0.02   0.14
   3   6    -0.07  -0.24   0.06    -0.00  -0.04   0.30     0.01  -0.03   0.19
   4   6    -0.37   0.05  -0.11     0.17   0.15  -0.43     0.06   0.13  -0.34
   5   6    -0.09   0.21   0.21     0.00  -0.21   0.22     0.01  -0.10   0.15
   6   6    -0.04   0.29  -0.04     0.07   0.03  -0.35     0.02  -0.10   0.10
   7   8    -0.27   0.00  -0.03     0.06  -0.02   0.04    -0.06  -0.04   0.04
   8   6     0.19   0.08   0.20    -0.06  -0.00  -0.02    -0.03  -0.01   0.09
   9   8     0.31  -0.13  -0.21    -0.10   0.04   0.04    -0.02   0.01  -0.03
  10   1     0.09  -0.02   0.07    -0.06  -0.08   0.23     0.04   0.15  -0.43
  11   1    -0.08  -0.00  -0.08     0.03   0.01   0.01     0.07   0.14  -0.36
  12   1     0.07  -0.02   0.04    -0.04  -0.08   0.24     0.03   0.11  -0.30
  13   1     0.05   0.01   0.06    -0.04  -0.11   0.23     0.03   0.10  -0.29
  14   1    -0.10   0.04  -0.06     0.05  -0.01   0.01     0.07   0.13  -0.35
  15   1     0.05   0.02   0.05    -0.03   0.00   0.00    -0.00   0.03   0.01
                     13                     14                     15
                        a                      a                      a 
 Frequencies --   849.8680               871.1267               898.7341
 Red. masses --    12.9780                 3.3647                 3.5422
 Frc consts  --     0.0000                 0.0000                 0.0000
 IR Inten    --    51.8875                 1.3030                 0.8868
 Raman Activ --     0.0000                 0.0000                 0.0000
 Depolar     --     0.0000                 0.0000                 0.0000
 Atom AN      X      Y      Z        X      Y      Z        X      Y      Z
   1   6    -0.25   0.01  -0.08     0.01   0.00   0.02    -0.06  -0.10   0.26
   2   6     0.21   0.31   0.11    -0.00   0.03  -0.18    -0.00  -0.01   0.09
   3   6     0.14   0.11   0.02     0.02   0.07  -0.26     0.04   0.08  -0.23
   4   6    -0.10  -0.05   0.11     0.01   0.01  -0.02    -0.02  -0.03   0.06
   5   6     0.13  -0.03   0.01    -0.04  -0.10   0.24     0.04   0.09  -0.23
   6   6     0.20  -0.28  -0.08    -0.04  -0.04   0.18     0.01  -0.03   0.03
   7   8    -0.59  -0.06  -0.20     0.04  -0.01   0.02    -0.05  -0.01  -0.02
   8   6     0.06   0.09   0.24     0.00   0.04  -0.04     0.02   0.07  -0.03
   9   8     0.16  -0.08  -0.14    -0.00  -0.01   0.02     0.02  -0.02   0.00
  10   1    -0.08  -0.04   0.08     0.01   0.02  -0.03     0.04   0.16  -0.41
  11   1     0.14   0.01   0.10    -0.05  -0.12   0.33     0.03   0.08  -0.23
  12   1     0.04   0.02   0.06    -0.05  -0.16   0.49    -0.04  -0.15   0.46
  13   1     0.02   0.01  -0.04     0.04   0.17  -0.46    -0.04  -0.17   0.46
  14   1     0.12  -0.05   0.02     0.04   0.14  -0.35     0.03   0.05  -0.15
  15   1     0.05   0.04   0.03    -0.02  -0.04   0.02    -0.01  -0.07   0.03
                     16                     17                     18
                        a                      a                      a 
 Frequencies --   924.7794               929.3350               950.5214
 Red. masses --     4.1062                 3.2627                 5.6931
 Frc consts  --     0.0000                 0.0000                 0.0000
 IR Inten    --     0.7055                 0.1090                13.9070
 Raman Activ --     0.0000                 0.0000                 0.0000
 Depolar     --     0.0000                 0.0000                 0.0000
 Atom AN      X      Y      Z        X      Y      Z        X      Y      Z
   1   6    -0.00   0.02  -0.04    -0.04  -0.11   0.29     0.00   0.01   0.01
   2   6    -0.04  -0.11   0.29     0.02   0.07  -0.18    -0.04  -0.04   0.02
   3   6     0.03   0.06  -0.19     0.00  -0.00   0.00     0.00   0.02  -0.06
   4   6     0.00   0.01  -0.01    -0.01  -0.03   0.07     0.01  -0.00   0.02
   5   6    -0.02  -0.08   0.22    -0.00  -0.01   0.04    -0.01  -0.03  -0.01
   6   6     0.03   0.10  -0.27     0.03   0.08  -0.23    -0.00   0.02   0.00
   7   8     0.00  -0.02   0.01    -0.01   0.01  -0.01     0.02   0.16  -0.07
   8   6     0.01   0.06  -0.03    -0.00  -0.03   0.02    -0.04  -0.53   0.24
   9   8     0.00  -0.02   0.01     0.00   0.01  -0.01     0.02   0.15  -0.07
  10   1    -0.01  -0.02   0.07     0.06   0.20  -0.55    -0.00   0.01   0.02
  11   1     0.05   0.17  -0.48    -0.04  -0.14   0.38    -0.01   0.02  -0.07
  12   1    -0.03  -0.10   0.30     0.01   0.03  -0.11     0.02  -0.02   0.15
  13   1     0.03   0.13  -0.34     0.02   0.06  -0.15     0.01  -0.02   0.00
  14   1    -0.05  -0.16   0.43    -0.05  -0.17   0.45     0.01   0.02  -0.01
  15   1    -0.01  -0.07   0.03     0.01   0.04  -0.02     0.06   0.68  -0.31
                     19                     20                     21
                        a                      a                      a 
 Frequencies --   983.3763              1072.2941              1108.5039
 Red. masses --    11.1216                 6.1704                 3.6707
 Frc consts  --     0.0000                 0.0000                 0.0000
 IR Inten    --    25.6953                 3.4012                 1.5294
 Raman Activ --     0.0000                 0.0000                 0.0000
 Depolar     --     0.0000                 0.0000                 0.0000
 Atom AN      X      Y      Z        X      Y      Z        X      Y      Z
   1   6    -0.36   0.01  -0.04    -0.44  -0.02  -0.06    -0.06   0.18   0.06
   2   6     0.03   0.14   0.05    -0.04  -0.29  -0.11    -0.11  -0.18  -0.08
   3   6     0.19  -0.51  -0.15     0.14   0.02   0.03     0.22  -0.14  -0.02
   4   6    -0.19   0.02  -0.05    -0.04  -0.01  -0.00     0.01   0.10   0.04
   5   6     0.16   0.48   0.20     0.17   0.02   0.03    -0.17  -0.12  -0.07
   6   6     0.04  -0.15  -0.04    -0.09   0.32   0.11     0.12  -0.08  -0.02
   7   8     0.22   0.03   0.07     0.02  -0.01  -0.01    -0.04  -0.01   0.02
   8   6    -0.01  -0.06  -0.07    -0.01   0.02   0.01     0.00   0.00  -0.03
   9   8    -0.03   0.03   0.04    -0.01  -0.00  -0.00     0.01  -0.01  -0.00
  10   1    -0.10   0.00  -0.01    -0.13  -0.04  -0.03    -0.03   0.39   0.14
  11   1    -0.08   0.08   0.02     0.25  -0.23  -0.05    -0.20   0.03  -0.01
  12   1    -0.01  -0.17  -0.07     0.28   0.14   0.06     0.42   0.16   0.07
  13   1     0.00   0.16   0.05     0.40  -0.19  -0.03    -0.43   0.18   0.03
  14   1    -0.07  -0.07  -0.04     0.18   0.21   0.10     0.30   0.12   0.08
  15   1    -0.01   0.02  -0.03     0.01  -0.03   0.01     0.03  -0.05  -0.00
                     22                     23                     24
                        a                      a                      a 
 Frequencies --  1148.7815              1174.5047              1179.1452
 Red. masses --     9.9724                 1.6387                 6.3965
 Frc consts  --     0.0000                 0.0000                 0.0000
 IR Inten    --   141.9333                 2.4022               302.9730
 Raman Activ --     0.0000                 0.0000                 0.0000
 Depolar     --     0.0000                 0.0000                 0.0000
 Atom AN      X      Y      Z        X      Y      Z        X      Y      Z
   1   6    -0.07  -0.02  -0.01     0.01  -0.08  -0.03     0.02   0.02   0.01
   2   6    -0.07  -0.15  -0.07    -0.00   0.05   0.02    -0.07   0.10   0.02
   3   6     0.04  -0.08  -0.03    -0.12   0.01  -0.01     0.05   0.05   0.02
   4   6     0.45  -0.06   0.05    -0.10   0.05   0.01    -0.08  -0.01   0.01
   5   6     0.09   0.13   0.05     0.08  -0.01   0.00     0.04  -0.06  -0.02
   6   6    -0.09   0.21   0.07     0.05   0.01   0.01    -0.07  -0.11  -0.05
   7   8     0.02  -0.19  -0.37     0.01   0.04   0.06     0.30  -0.16  -0.28
   8   6    -0.11   0.20   0.42     0.01  -0.03  -0.06    -0.11   0.18   0.34
   9   8    -0.10  -0.02  -0.06     0.01   0.00   0.01    -0.12  -0.01  -0.04
  10   1    -0.02  -0.12  -0.04     0.03  -0.68  -0.25     0.01  -0.02  -0.00
  11   1     0.02  -0.07  -0.02    -0.33   0.19   0.03    -0.36   0.21   0.04
  12   1    -0.20  -0.15  -0.06     0.11   0.09   0.04     0.38   0.22   0.11
  13   1    -0.30   0.22   0.07    -0.11   0.07   0.01     0.25  -0.16  -0.03
  14   1     0.03   0.09   0.04     0.41   0.22   0.13    -0.27  -0.17  -0.09
  15   1    -0.03   0.06   0.08     0.01  -0.01  -0.01     0.01   0.01   0.06
                     25                     26                     27
                        a                      a                      a 
 Frequencies --  1200.5728              1264.8289              1317.2592
 Red. masses --     9.5965                 3.6440                11.9682
 Frc consts  --     0.0000                 0.0000                 0.0000
 IR Inten    --   402.6582                 2.9456                 0.4483
 Raman Activ --     0.0000                 0.0000                 0.0000
 Depolar     --     0.0000                 0.0000                 0.0000
 Atom AN      X      Y      Z        X      Y      Z        X      Y      Z
   1   6    -0.10  -0.02  -0.02     0.01  -0.15  -0.06    -0.02   0.38   0.14
   2   6    -0.15  -0.09  -0.05     0.08  -0.11  -0.03     0.36  -0.20  -0.03
   3   6     0.16  -0.03   0.02     0.18   0.05   0.04    -0.34  -0.19  -0.11
   4   6     0.52   0.00   0.05     0.01   0.26   0.11     0.02   0.38   0.15
   5   6     0.13   0.05   0.03    -0.19   0.05  -0.00     0.37  -0.19  -0.03
   6   6    -0.11   0.10   0.02    -0.08  -0.11  -0.05    -0.35  -0.17  -0.11
   7   8    -0.44   0.11   0.18     0.00  -0.06  -0.07    -0.04   0.00  -0.01
   8   6     0.09  -0.11  -0.23    -0.01   0.03   0.05    -0.01   0.01   0.01
   9   8     0.09  -0.01   0.01     0.00  -0.00  -0.00     0.01  -0.00  -0.01
  10   1    -0.03  -0.05  -0.02    -0.01   0.25   0.09    -0.00   0.00   0.00
  11   1    -0.38   0.16   0.01    -0.35   0.17   0.02     0.00  -0.00  -0.01
  12   1     0.10   0.02  -0.00    -0.38  -0.23  -0.11    -0.01  -0.01  -0.00
  13   1     0.11  -0.02   0.00     0.35  -0.21  -0.04     0.01  -0.00   0.01
  14   1    -0.30  -0.11  -0.07     0.35   0.17   0.11    -0.02  -0.01  -0.00
  15   1     0.01  -0.03  -0.04    -0.04   0.02   0.02     0.05  -0.01  -0.02
                     28                     29                     30
                        a                      a                      a 
 Frequencies --  1370.6786              1432.0147              1450.8116
 Red. masses --     2.1622                 9.0993                 8.8516
 Frc consts  --     0.0000                 0.0000                 0.0000
 IR Inten    --    17.6163                 4.1359                42.8336
 Raman Activ --     0.0000                 0.0000                 0.0000
 Depolar     --     0.0000                 0.0000                 0.0000
 Atom AN      X      Y      Z        X      Y      Z        X      Y      Z
   1   6    -0.00   0.04   0.02    -0.02   0.36   0.13     0.25   0.03   0.04
   2   6     0.02  -0.01  -0.00    -0.32  -0.10  -0.07    -0.23   0.24   0.06
   3   6    -0.02  -0.02  -0.00     0.29  -0.11  -0.01    -0.19  -0.27  -0.12
   4   6    -0.02   0.02   0.01    -0.03   0.38   0.14     0.38   0.01   0.04
   5   6     0.01  -0.01  -0.01    -0.24  -0.14  -0.08    -0.25   0.27   0.07
   6   6    -0.01  -0.02  -0.01     0.33  -0.08   0.01    -0.18  -0.26  -0.12
   7   8    -0.03  -0.05  -0.12    -0.00  -0.05  -0.03    -0.06  -0.01  -0.01
   8   6     0.13  -0.06  -0.10    -0.01   0.01   0.02     0.01   0.01   0.02
   9   8     0.13   0.04   0.12     0.01  -0.00  -0.01    -0.02  -0.00  -0.01
  10   1     0.00  -0.01  -0.00     0.01  -0.34  -0.12     0.08  -0.02   0.00
  11   1     0.01  -0.01  -0.00     0.11  -0.14  -0.04     0.26  -0.10  -0.01
  12   1     0.06   0.04  -0.01    -0.10  -0.14  -0.06     0.24   0.08   0.05
  13   1    -0.00  -0.00   0.00     0.07  -0.13  -0.04     0.24  -0.10  -0.01
  14   1    -0.01  -0.01  -0.00    -0.13  -0.15  -0.07     0.24   0.08   0.06
  15   1    -0.86   0.23   0.34     0.02  -0.01  -0.00     0.02  -0.01   0.00
                     31                     32                     33
                        a                      a                      a 
 Frequencies --  1584.9258              1590.6102              1716.9251
 Red. masses --    11.5022                11.6056                13.4951
 Frc consts  --     0.0000                 0.0000                 0.0000
 IR Inten    --    15.1882                 8.0591              1193.3063
 Raman Activ --     0.0000                 0.0000                 0.0000
 Depolar     --     0.0000                 0.0000                 0.0000
 Atom AN      X      Y      Z        X      Y      Z        X      Y      Z
   1   6     0.21   0.10   0.06     0.07  -0.49  -0.17    -0.00   0.01   0.00
   2   6    -0.41   0.08  -0.02    -0.23   0.30   0.08     0.01  -0.01  -0.00
   3   6     0.44   0.16   0.11    -0.04  -0.25  -0.09    -0.01   0.00   0.00
   4   6    -0.20  -0.10  -0.06    -0.05   0.47   0.17     0.04  -0.02  -0.02
   5   6     0.40  -0.05   0.03     0.23  -0.29  -0.08    -0.02   0.02   0.00
   6   6    -0.47  -0.18  -0.12     0.02   0.24   0.09     0.00  -0.00  -0.00
   7   8    -0.01   0.01   0.01    -0.01  -0.02  -0.02     0.03  -0.01  -0.01
   8   6    -0.01  -0.01  -0.02    -0.02   0.00   0.00    -0.76   0.04  -0.07
   9   8     0.02  -0.00   0.01     0.03  -0.00   0.00     0.62  -0.02   0.09
  10   1     0.06  -0.02  -0.00     0.01   0.11   0.04     0.00  -0.00  -0.00
  11   1     0.06  -0.07  -0.02     0.09  -0.00   0.01    -0.00   0.00   0.00
  12   1    -0.08  -0.06  -0.03     0.07  -0.02  -0.00     0.00   0.00  -0.00
  13   1    -0.05   0.08   0.02    -0.08   0.00  -0.01     0.01  -0.00   0.00
  14   1     0.09   0.07   0.04    -0.06   0.03   0.01     0.00  -0.00  -0.00
  15   1    -0.01   0.00  -0.00    -0.00  -0.01   0.00    -0.04  -0.03  -0.08
                     34                     35                     36
                        a                      a                      a 
 Frequencies --  2784.4632              3091.4787              3099.3100
 Red. masses --     1.6720                 1.7987                 1.7779
 Frc consts  --     0.0000                 0.0000                 0.0000
 IR Inten    --   119.2895                20.0058                 3.4276
 Raman Activ --     0.0000                 0.0000                 0.0000
 Depolar     --     0.0000                 0.0000                 0.0000
 Atom AN      X      Y      Z        X      Y      Z        X      Y      Z
   1   6    -0.00   0.00   0.00     0.02  -0.00   0.00    -0.18   0.00  -0.02
   2   6     0.00  -0.00   0.00    -0.05  -0.09  -0.04     0.04   0.08   0.03
   3   6     0.00  -0.00  -0.00    -0.13   0.20   0.05    -0.03   0.06   0.01
   4   6     0.00  -0.00  -0.00    -0.01   0.00  -0.00    -0.00   0.00   0.00
   5   6    -0.00   0.00   0.00     0.01   0.01   0.00     0.02   0.03   0.01
   6   6     0.00  -0.00  -0.00     0.00   0.00   0.00     0.08  -0.12  -0.04
   7   8    -0.00   0.01   0.02     0.00  -0.00   0.00     0.00  -0.00   0.00
   8   6     0.12   0.08   0.20     0.00   0.00   0.00    -0.00   0.00   0.00
   9   8     0.01   0.00   0.01    -0.00   0.00  -0.00     0.00  -0.00  -0.00
  10   1    -0.00   0.00  -0.00    -0.10   0.00  -0.01     0.66  -0.00   0.07
  11   1    -0.00  -0.00  -0.00     0.19   0.32   0.14    -0.16  -0.28  -0.12
  12   1    -0.00   0.01  -0.00     0.45  -0.72  -0.19     0.12  -0.19  -0.05
  13   1     0.00   0.00   0.00    -0.01  -0.02  -0.01    -0.08  -0.13  -0.06
  14   1     0.00  -0.00  -0.00     0.00  -0.00  -0.00    -0.28   0.44   0.13
  15   1    -0.42  -0.33  -0.81    -0.00  -0.00  -0.00    -0.00  -0.00  -0.00
                     37                     38                     39
                        a                      a                      a 
 Frequencies --  3104.4514              3111.9025              3117.7630
 Red. masses --     1.8404                 1.8805                 1.9127
 Frc consts  --     0.0000                 0.0000                 0.0000
 IR Inten    --    41.7803                56.9078                18.0397
 Raman Activ --     0.0000                 0.0000                 0.0000
 Depolar     --     0.0000                 0.0000                 0.0000
 Atom AN      X      Y      Z        X      Y      Z        X      Y      Z
   1   6     0.05   0.00   0.01     0.16  -0.00   0.02     0.11   0.00   0.01
   2   6    -0.08  -0.14  -0.06     0.07   0.13   0.05     0.03   0.05   0.02
   3   6     0.04  -0.07  -0.02    -0.03   0.04   0.01    -0.01   0.02   0.01
   4   6     0.01   0.00   0.00     0.00  -0.00  -0.00    -0.01   0.00  -0.00
   5   6     0.04   0.07   0.03     0.08   0.13   0.06    -0.10  -0.16  -0.07
   6   6     0.09  -0.14  -0.04     0.02  -0.03  -0.01     0.08  -0.12  -0.04
   7   8    -0.00  -0.00  -0.00     0.00  -0.00   0.00     0.00  -0.00  -0.00
   8   6    -0.00  -0.00  -0.00    -0.00   0.00   0.00    -0.00   0.00   0.00
   9   8     0.00  -0.00   0.00     0.00  -0.00  -0.00     0.00  -0.00   0.00
  10   1    -0.17   0.00  -0.02    -0.55   0.00  -0.06    -0.36   0.00  -0.04
  11   1     0.27   0.47   0.20    -0.24  -0.42  -0.18    -0.10  -0.17  -0.07
  12   1    -0.15   0.24   0.06     0.08  -0.13  -0.03     0.04  -0.06  -0.02
  13   1    -0.15  -0.25  -0.11    -0.27  -0.44  -0.20     0.34   0.56   0.25
  14   1    -0.32   0.50   0.15    -0.06   0.10   0.03    -0.26   0.41   0.12
  15   1     0.00   0.00   0.00    -0.00  -0.00  -0.00    -0.00   0.00   0.00
