      -----------------------------------------------------------      
     |                   =====================                   |     
     |                           x T B                           |     
     |                   =====================                   |     
     |                         S. Grimme                         |     
     |          Mulliken Center for Theoretical Chemistry        |     
     |                    University of Bonn                     |     
      -----------------------------------------------------------      

   * xtb version 6.7.1 (edcfbbe) compiled by 'albert@albert-system' on 2024-07-22

   xtb is free software: you can redistribute it and/or modify it under
   the terms of the GNU Lesser General Public License as published by
   the Free Software Foundation, either version 3 of the License, or
   (at your option) any later version.
   
   xtb is distributed in the hope that it will be useful,
   but WITHOUT ANY WARRANTY; without even the implied warranty of
   MERCHANTABILITY or FITNESS FOR A PARTICULAR PURPOSE.  See the
   GNU Lesser General Public License for more details.
   
   Cite this work as:
   * C. Bannwarth, E. Caldeweyher, S. Ehlert, A. Hansen, P. Pracht,
     J. Seibert, S. Spicher, S. Grimme, WIREs Comput. Mol. Sci., 2020, 11,
     e01493. DOI: 10.1002/wcms.1493
   
   for GFN2-xTB:
   * C. Bannwarth, S. Ehlert and S. Grimme., J. Chem. Theory Comput., 2019,
     15, 1652-1671. DOI: 10.1021/acs.jctc.8b01176
   for GFN1-xTB:
   * S. Grimme, C. Bannwarth, P. Shushkov, J. Chem. Theory Comput., 2017,
     13, 1989-2009. DOI: 10.1021/acs.jctc.7b00118
   for GFN0-xTB:
   * P. Pracht, E. Caldeweyher, S. Ehlert, S. Grimme, ChemRxiv, 2019, preprint.
     DOI: 10.26434/chemrxiv.8326202.v1
   for GFN-FF:
   * S. Spicher and S. Grimme, Angew. Chem. Int. Ed., 2020, 59, 15665-15673.
     DOI: 10.1002/anie.202004239
   
   for ALPB and GBSA implicit solvation:
   * S. Ehlert, M. Stahn, S. Spicher, S. Grimme, J. Chem. Theory Comput.,
     2021, 17, 4250-4261. DOI: 10.1021/acs.jctc.1c00471
   
   for ddCOSMO and CPCM-X implicit solvation:
   * M. Stahn, S. Ehlert, S. Grimme, J. Phys. Chem. A,
     2023, XX, XXXX-XXXX. DOI: 10.1021/acs.jpca.3c04382
   
   for DFT-D4:
   * E. Caldeweyher, C. Bannwarth and S. Grimme, J. Chem. Phys., 2017,
     147, 034112. DOI: 10.1063/1.4993215
   * E. Caldeweyher, S. Ehlert, A. Hansen, H. Neugebauer, S. Spicher,
     C. Bannwarth and S. Grimme, J. Chem. Phys., 2019, 150, 154122.
     DOI: 10.1063/1.5090222
   * E. Caldeweyher, J.-M. Mewes, S. Ehlert and S. Grimme, Phys. Chem. Chem. Phys.
     2020, 22, 8499-8512. DOI: 10.1039/D0CP00502A
   
   for sTDA-xTB:
   * S. Grimme and C. Bannwarth, J. Chem. Phys., 2016, 145, 054103.
     DOI: 10.1063/1.4959605
   
   in the mass-spec context:
   * V. Asgeirsson, C. Bauer and S. Grimme, Chem. Sci., 2017, 8, 4879.
     DOI: 10.1039/c7sc00601b
   * J. Koopman and S. Grimme, ACS Omega 2019, 4, 12, 15120-15133.
     DOI: 10.1021/acsomega.9b02011
   
   for metadynamics refer to:
   * S. Grimme, J. Chem. Theory Comput., 2019, 155, 2847-2862
     DOI: 10.1021/acs.jctc.9b00143
   
   for SPH calculations refer to:
   * S. Spicher and S. Grimme, J. Chem. Theory Comput., 2021, 17, 1701-1714
     DOI: 10.1021/acs.jctc.0c01306
   
   for ONIOM refer to:
   * C. Plett, A. Katbashev, S. Ehlert, S. Grimme, M. Bursch,
     Phys. Chem. Chem. Phys., 2023, 25, 17860-17868. DOI: 10.1039/D3CP02178E
   
   for DIPRO refer to:
   * J. Kohn, N. Gildemeister, S. Grimme, D. Fazzi, A. Hansen,
     J. Chem. Phys., 2023, just accepted.
   
   for PTB refer to:
   * S. Grimme, M. Mueller, A. Hansen, J. Chem. Phys., 2023, 158, 124111.
     DOI: 10.1063/5.0137838
   
   with help from (in alphabetical order)
   P. Atkinson, C. Bannwarth, F. Bohle, G. Brandenburg, E. Caldeweyher
   M. Checinski, S. Dohm, S. Ehlert, S. Ehrlich, I. Gerasimov, C. Hölzer
   A. Katbashev, J. Kohn, J. Koopman, C. Lavigne, S. Lehtola, F. März, M. Müller,
   F. Musil, H. Neugebauer, J. Pisarek, C. Plett, P. Pracht, F. Pultar,
   J. Seibert, P. Shushkov, S. Spicher, M. Stahn, M. Steiner, T. Strunk,
   J. Stückrath, T. Rose, and J. Unsleber
   
 * started run on 2025/04/07 at 01:04:33.553     
   ID    Z sym.   atoms
    1    6 C      1-6, 8
    2    8 O      7, 9
    3    1 H      10-15

           -------------------------------------------------
          |                Calculation Setup                |
           -------------------------------------------------

          program call               : /srv/scratch/z5358697/.xtb/bin/xtb xtb_rrho.coord --gfn2 --ohess vtight --chrg 0 --enso --norestart -I rrho-xcontrol-inp --parallel 1 --alpb water
          hostname                   : k157
          coordinate file            : xtb_rrho.coord
          omp threads                :                     1


           -------------------------------------------------
          |                 G F N 2 - x T B                 |
           -------------------------------------------------

        Reference                      10.1021/acs.jctc.8b01176
      * Hamiltonian:
        H0-scaling (s, p, d)           1.850000    2.230000    2.230000
        zeta-weighting                 0.500000
      * Dispersion:
        s8                             2.700000
        a1                             0.520000
        a2                             5.000000
        s9                             5.000000
      * Repulsion:
        kExp                           1.500000    1.000000
        rExp                           1.000000
      * Coulomb:
        alpha                          2.000000
        third order                    shell-resolved
        anisotropic                    true
        a3                             3.000000
        a5                             4.000000
        cn-shift                       1.200000
        cn-exp                         4.000000
        max-rad                        5.000000

      * Solvation model:               ALPB
        Solvent                        water
        Parameter file                 internal GFN2-xTB/ALPB
        Dielectric constant                8.0200E+01
        Reference state                gsolv [1 M gas/solution]
        Free energy shift                  1.0808E-03 Eh       6.7819E-01 kcal/mol
        Temperature                        2.9815E+02 K
        Density                            1.0000E+00 kg/L
        Solvent mass                       1.8000E+01 g/mol
        Interaction kernel             P16
        Born radius scaling (c1)           1.4744E+00
        Born radii integrator          GBOBC
        Born offset                        0.0000E+00 a0       0.0000E+00 AA
        H-bond correction              true
        Ion screening                  false
        Surface tension                    1.0000E-05 Eh       1.5569E+01 dyn/cm
        Grid points                               974 per atom

          ...................................................
          :                      SETUP                      :
          :.................................................:
          :  # basis functions                  42          :
          :  # atomic orbitals                  42          :
          :  # shells                           24          :
          :  # electrons                        46          :
          :  max. iterations                   250          :
          :  Hamiltonian                  GFN2-xTB          :
          :  restarted?                      false          :
          :  GBSA solvation                   true          :
          :  PC potential                    false          :
          :  electronic temp.          300.0000000     K    :
          :  accuracy                    1.0000000          :
          :  -> integral cutoff          0.2500000E+02      :
          :  -> integral neglect         0.1000000E-07      :
          :  -> SCF convergence          0.1000000E-05 Eh   :
          :  -> wf. convergence          0.1000000E-03 e    :
          :  Broyden damping             0.4000000          :
          :  net charge                          0          :
          :  unpaired electrons                  0          :
          ...................................................

 iter      E             dE          RMSdq      gap      omega  full diag
   1    -26.4663417 -0.264663E+02  0.570E+00    4.29       0.0  T
   2    -26.5144842 -0.481425E-01  0.305E+00    3.68       1.0  T
   3    -26.5142943  0.189943E-03  0.141E+00    4.13       1.0  T
   4    -26.5182494 -0.395515E-02  0.300E-01    3.98       1.0  T
   5    -26.5188614 -0.611993E-03  0.101E-01    3.93       1.0  T
   6    -26.5188948 -0.333893E-04  0.429E-02    3.90       1.0  T
   7    -26.5188995 -0.462296E-05  0.178E-02    3.90       1.5  T
   8    -26.5189006 -0.116629E-05  0.597E-03    3.90       4.3  T
   9    -26.5189009 -0.281635E-06  0.237E-03    3.90      10.9  T
  10    -26.5189009  0.140158E-08  0.125E-03    3.90      20.7  T
  11    -26.5189009 -0.138071E-07  0.304E-04    3.90      85.0  T
  12    -26.5189009 -0.430518E-09  0.170E-04    3.90     151.8  T

   *** convergence criteria satisfied after 12 iterations ***

         #    Occupation            Energy/Eh            Energy/eV
      -------------------------------------------------------------
         1        2.0000           -0.7613963             -20.7186
       ...           ...                  ...                  ...
        17        2.0000           -0.4910475             -13.3621
        18        2.0000           -0.4789005             -13.0315
        19        2.0000           -0.4527814             -12.3208
        20        2.0000           -0.4456630             -12.1271
        21        2.0000           -0.4346644             -11.8278
        22        2.0000           -0.4206881             -11.4475
        23        2.0000           -0.4154766             -11.3057 (HOMO)
        24                         -0.2720646              -7.4033 (LUMO)
        25                         -0.2424123              -6.5964
        26                         -0.2367115              -6.4412
        27                         -0.1127202              -3.0673
        28                          0.0039512               0.1075
       ...                                ...                  ...
        42                          0.6332351              17.2312
      -------------------------------------------------------------
                  HL-Gap            0.1434120 Eh            3.9024 eV
             Fermi-level           -0.3437706 Eh           -9.3545 eV

 SCC (total)                   0 d,  0 h,  0 min,  0.025 sec
 SCC setup                      ...        0 min,  0.001 sec (  3.489%)
 Dispersion                     ...        0 min,  0.000 sec (  0.393%)
 classical contributions        ...        0 min,  0.000 sec (  0.077%)
 integral evaluation            ...        0 min,  0.001 sec (  5.848%)
 iterations                     ...        0 min,  0.019 sec ( 75.096%)
 molecular gradient             ...        0 min,  0.004 sec ( 14.496%)
 printout                       ...        0 min,  0.000 sec (  0.535%)

         :::::::::::::::::::::::::::::::::::::::::::::::::::::
         ::                     SUMMARY                     ::
         :::::::::::::::::::::::::::::::::::::::::::::::::::::
         :: total energy             -26.160214606897 Eh    ::
         :: total w/o Gsasa/hb       -26.161520334189 Eh    ::
         :: gradient norm              0.045003494316 Eh/a0 ::
         :: HOMO-LUMO gap              3.902438530478 eV    ::
         ::.................................................::
         :: SCC energy               -26.518890372025 Eh    ::
         :: -> isotropic ES            0.049555733517 Eh    ::
         :: -> anisotropic ES         -0.000016474639 Eh    ::
         :: -> anisotropic XC          0.010387621451 Eh    ::
         :: -> dispersion             -0.011385815838 Eh    ::
         :: -> Gsolv                  -0.007820105530 Eh    ::
         ::    -> Gelec               -0.009125832821 Eh    ::
         ::    -> Gsasa                0.002061212005 Eh    ::
         ::    -> Ghb                 -0.001836244412 Eh    ::
         ::    -> Gshift               0.001080759698 Eh    ::
         :: repulsion energy           0.358675765128 Eh    ::
         :: add. restraining           0.000000000000 Eh    ::
         :: total charge              -0.000000000000 e     ::
         :::::::::::::::::::::::::::::::::::::::::::::::::::::

      ----------------------------------------------------------- 
     |                   =====================                   |
     |                        A N C O P T                        |
     |                   =====================                   |
     |               Approximate Normal Coordinate               |
     |                Rational Function Optimizer                |
      ----------------------------------------------------------- 
      ----------------------------------------------------------- 
     |                   =====================                   |
     |                        A N C O P T                        |
     |                   =====================                   |
     |               Approximate Normal Coordinate               |
     |                Rational Function Optimizer                |
      ----------------------------------------------------------- 

          ...................................................
          :                      SETUP                      :
          :.................................................:
          :   optimization level         verytight          :
          :   max. optcycles                   300          :
          :   ANC micro-cycles                  20          :
          :   degrees of freedom                39          :
          :.................................................:
          :   RF solver                   davidson          :
          :   write xtbopt.log                true          :
          :   linear?                        false          :
          :   energy convergence         0.1000000E-06 Eh   :
          :   grad. convergence          0.2000000E-03 Eh/α :
          :   maxmium RF displ.          1.0000000          :
          :   Hlow (freq-cutoff)         0.1000000E-01      :
          :   Hmax (freq-cutoff)         5.0000000          :
          :   S6 in model hess.         20.0000000          :
          ...................................................

generating ANC from exact Hessian ...
Using Lindh-Hessian (1995)
 Shifting diagonal of input Hessian by   6.486832652591292E-003
 Lowest  eigenvalues of input Hessian
    0.000000    0.000000    0.000000    0.000000    0.000000    0.000000
    0.010000    0.011131    0.015221    0.021085    0.022655    0.031226
    0.037934    0.048578    0.074085    0.076619    0.094257    0.100226
 Highest eigenvalues
    1.608914    1.706479    1.869284    1.992298    2.014731    2.319399
 

........................................................................
.............................. CYCLE    1 ..............................
........................................................................

 iter      E             dE          RMSdq      gap      omega  full diag
   1    -26.5189009 -0.265189E+02  0.217E-05    3.90       0.0  T
   2    -26.5189009 -0.394351E-12  0.135E-05    3.90    1907.7  T
   3    -26.5189009  0.213163E-13  0.827E-06    3.90    3123.4  T
     SCC iter.                  ...        0 min,  0.001 sec
     gradient                   ...        0 min,  0.003 sec
 * total energy  :   -26.1602146 Eh     change       -0.7365841E-10 Eh
   gradient norm :     0.0450037 Eh/α   predicted     0.0000000E+00 (-100.00%)
   displ. norm   :     0.1072841 α      lambda       -0.2210686E-02
   maximum displ.:     0.0540015 α      in ANC's #2, #1, #21, ...

........................................................................
.............................. CYCLE    2 ..............................
........................................................................

 iter      E             dE          RMSdq      gap      omega  full diag
   1    -26.5347243 -0.265347E+02  0.157E-01    4.06       0.0  T
   2    -26.5347660 -0.416550E-04  0.889E-02    4.05       1.0  T
   3    -26.5347667 -0.733475E-06  0.395E-02    4.06       1.0  T
   4    -26.5347693 -0.253863E-05  0.943E-03    4.05       2.7  T
   5    -26.5347697 -0.491439E-06  0.396E-03    4.05       6.5  T
   6    -26.5347698 -0.727698E-07  0.225E-03    4.05      11.5  T
   7    -26.5347698 -0.863496E-08  0.677E-04    4.05      38.2  T
   8    -26.5347698 -0.198167E-08  0.346E-04    4.05      74.7  T
     SCC iter.                  ...        0 min,  0.003 sec
     gradient                   ...        0 min,  0.003 sec
 * total energy  :   -26.1617478 Eh     change       -0.1533236E-02 Eh
   gradient norm :     0.0239676 Eh/α   predicted    -0.1118066E-02 ( -27.08%)
   displ. norm   :     0.1148309 α      lambda       -0.8881425E-03
   maximum displ.:     0.0696109 α      in ANC's #1, #2, #3, ...

........................................................................
.............................. CYCLE    3 ..............................
........................................................................

 iter      E             dE          RMSdq      gap      omega  full diag
   1    -26.5412188 -0.265412E+02  0.160E-01    4.12       0.0  T
   2    -26.5412828 -0.639347E-04  0.868E-02    4.12       1.0  T
   3    -26.5412842 -0.143158E-05  0.415E-02    4.13       1.0  T
   4    -26.5412855 -0.132666E-05  0.132E-02    4.13       2.0  T
   5    -26.5412866 -0.109992E-05  0.356E-03    4.13       7.3  T
   6    -26.5412867 -0.661449E-07  0.207E-03    4.13      12.5  T
   7    -26.5412867 -0.741291E-08  0.759E-04    4.13      34.0  T
   8    -26.5412867 -0.294111E-08  0.315E-04    4.13      82.0  T
     SCC iter.                  ...        0 min,  0.003 sec
     gradient                   ...        0 min,  0.004 sec
 * total energy  :   -26.1622083 Eh     change       -0.4604605E-03 Eh
   gradient norm :     0.0082360 Eh/α   predicted    -0.4499277E-03 (  -2.29%)
   displ. norm   :     0.1798420 α      lambda       -0.5235719E-03
   maximum displ.:     0.1319488 α      in ANC's #1, #2, #8, ...

........................................................................
.............................. CYCLE    4 ..............................
........................................................................

 iter      E             dE          RMSdq      gap      omega  full diag
   1    -26.5415857 -0.265416E+02  0.238E-01    4.16       0.0  T
   2    -26.5416123 -0.265422E-04  0.140E-01    4.16       1.0  T
   3    -26.5416115  0.789273E-06  0.274E-02    4.17       1.0  T
   4    -26.5416141 -0.260392E-05  0.752E-03    4.16       3.4  T
   5    -26.5416145 -0.433208E-06  0.336E-03    4.16       7.7  T
   6    -26.5416146 -0.175126E-07  0.192E-03    4.16      13.5  T
   7    -26.5416146 -0.945511E-08  0.482E-04    4.16      53.6  T
   8    -26.5416146 -0.949225E-09  0.270E-04    4.16      95.7  T
     SCC iter.                  ...        0 min,  0.003 sec
     gradient                   ...        0 min,  0.004 sec
 * total energy  :   -26.1620109 Eh     change        0.1974279E-03 Eh
   gradient norm :     0.0173185 Eh/α   predicted    -0.2702546E-03 (-236.89%)
   displ. norm   :     0.0642584 α      lambda       -0.7289455E-03
   maximum displ.:     0.0461409 α      in ANC's #8, #2, #1, ...

........................................................................
.............................. CYCLE    5 ..............................
........................................................................

 iter      E             dE          RMSdq      gap      omega  full diag
   1    -26.5393149 -0.265393E+02  0.101E-01    4.12       0.0  T
   2    -26.5393219 -0.701469E-05  0.593E-02    4.12       1.0  T
   3    -26.5393218  0.828942E-07  0.162E-02    4.12       1.6  T
   4    -26.5393225 -0.661970E-06  0.330E-03    4.12       7.8  T
   5    -26.5393225 -0.539796E-07  0.167E-03    4.12      15.5  T
   6    -26.5393225 -0.450633E-08  0.972E-04    4.12      26.6  T
   7    -26.5393225 -0.284367E-08  0.285E-04    4.12      90.6  T
     SCC iter.                  ...        0 min,  0.002 sec
     gradient                   ...        0 min,  0.003 sec
 * total energy  :   -26.1623974 Eh     change       -0.3865159E-03 Eh
   gradient norm :     0.0029773 Eh/α   predicted    -0.3659766E-03 (  -5.31%)
   displ. norm   :     0.0635010 α      lambda       -0.5189426E-04
   maximum displ.:     0.0578168 α      in ANC's #1, #2, #5, ...

........................................................................
.............................. CYCLE    6 ..............................
........................................................................

 iter      E             dE          RMSdq      gap      omega  full diag
   1    -26.5384099 -0.265384E+02  0.585E-02    4.10       0.0  T
   2    -26.5384101 -0.238239E-06  0.346E-02    4.10       1.0  T
   3    -26.5384100  0.124877E-06  0.462E-03    4.10       5.6  T
   4    -26.5384102 -0.218420E-06  0.119E-03    4.10      21.7  T
   5    -26.5384102 -0.217851E-08  0.729E-04    4.10      35.4  T
   6    -26.5384102 -0.831282E-09  0.143E-04    4.10     180.5  T
     SCC iter.                  ...        0 min,  0.002 sec
     gradient                   ...        0 min,  0.004 sec
 * total energy  :   -26.1624402 Eh     change       -0.4279632E-04 Eh
   gradient norm :     0.0022175 Eh/α   predicted    -0.2605122E-04 ( -39.13%)
   displ. norm   :     0.1173721 α      lambda       -0.7179436E-04
   maximum displ.:     0.1079828 α      in ANC's #1, #2, #5, ...

........................................................................
.............................. CYCLE    7 ..............................
........................................................................

 iter      E             dE          RMSdq      gap      omega  full diag
   1    -26.5376097 -0.265376E+02  0.109E-01    4.08       0.0  T
   2    -26.5376103 -0.668266E-06  0.645E-02    4.08       1.0  T
   3    -26.5376100  0.301681E-06  0.789E-03    4.08       3.3  T
   4    -26.5376107 -0.610697E-06  0.227E-03    4.08      11.4  T
   5    -26.5376107 -0.514545E-08  0.134E-03    4.08      19.3  T
   6    -26.5376107 -0.353165E-08  0.176E-04    4.08     146.3  T
   7    -26.5376107 -0.258108E-09  0.766E-05    4.08     336.9  T
     SCC iter.                  ...        0 min,  0.002 sec
     gradient                   ...        0 min,  0.003 sec
 * total energy  :   -26.1624909 Eh     change       -0.5072405E-04 Eh
   gradient norm :     0.0023303 Eh/α   predicted    -0.3639026E-04 ( -28.26%)
   displ. norm   :     0.0779060 α      lambda       -0.3119445E-04
   maximum displ.:     0.0726330 α      in ANC's #1, #2, #15, ...

........................................................................
.............................. CYCLE    8 ..............................
........................................................................

 iter      E             dE          RMSdq      gap      omega  full diag
   1    -26.5377360 -0.265377E+02  0.746E-02    4.06       0.0  T
   2    -26.5377363 -0.264431E-06  0.441E-02    4.07       1.0  T
   3    -26.5377361  0.116977E-06  0.503E-03    4.07       5.1  T
   4    -26.5377364 -0.247461E-06  0.148E-03    4.07      17.4  T
   5    -26.5377364 -0.110026E-08  0.792E-04    4.07      32.6  T
   6    -26.5377364 -0.133131E-08  0.221E-04    4.07     116.8  T
     SCC iter.                  ...        0 min,  0.002 sec
     gradient                   ...        0 min,  0.003 sec
 * total energy  :   -26.1625155 Eh     change       -0.2457312E-04 Eh
   gradient norm :     0.0022138 Eh/α   predicted    -0.1568922E-04 ( -36.15%)
   displ. norm   :     0.0791781 α      lambda       -0.2869705E-04
   maximum displ.:     0.0748483 α      in ANC's #1, #3, #2, ...

........................................................................
.............................. CYCLE    9 ..............................
........................................................................

 iter      E             dE          RMSdq      gap      omega  full diag
   1    -26.5382917 -0.265383E+02  0.756E-02    4.06       0.0  T
   2    -26.5382920 -0.252620E-06  0.447E-02    4.06       1.0  T
   3    -26.5382919  0.106643E-06  0.495E-03    4.06       5.2  T
   4    -26.5382921 -0.234782E-06  0.148E-03    4.06      17.4  T
   5    -26.5382921 -0.117474E-08  0.760E-04    4.06      34.0  T
   6    -26.5382921 -0.102750E-08  0.249E-04    4.06     103.6  T
     SCC iter.                  ...        0 min,  0.002 sec
     gradient                   ...        0 min,  0.003 sec
 * total energy  :   -26.1625363 Eh     change       -0.2082795E-04 Eh
   gradient norm :     0.0013360 Eh/α   predicted    -0.1444034E-04 ( -30.67%)
   displ. norm   :     0.0876678 α      lambda       -0.1179201E-04
   maximum displ.:     0.0834099 α      in ANC's #1, #3, #15, ...

........................................................................
.............................. CYCLE   10 ..............................
........................................................................

 iter      E             dE          RMSdq      gap      omega  full diag
   1    -26.5387542 -0.265388E+02  0.825E-02    4.05       0.0  T
   2    -26.5387544 -0.243499E-06  0.487E-02    4.05       1.0  T
   3    -26.5387543  0.945767E-07  0.504E-03    4.05       5.1  T
   4    -26.5387545 -0.236462E-06  0.158E-03    4.05      16.4  T
   5    -26.5387545 -0.155914E-09  0.694E-04    4.05      37.2  T
   6    -26.5387546 -0.226247E-08  0.128E-04    4.05     202.0  T
     SCC iter.                  ...        0 min,  0.002 sec
     gradient                   ...        0 min,  0.004 sec
 * total energy  :   -26.1625447 Eh     change       -0.8363792E-05 Eh
   gradient norm :     0.0004726 Eh/α   predicted    -0.5917685E-05 ( -29.25%)
   displ. norm   :     0.0088599 α      lambda       -0.5735361E-06
   maximum displ.:     0.0081478 α      in ANC's #2, #3, #1, ...

........................................................................
.............................. CYCLE   11 ..............................
........................................................................

 iter      E             dE          RMSdq      gap      omega  full diag
   1    -26.5388318 -0.265388E+02  0.104E-02    4.05       0.0  T
   2    -26.5388318 -0.172017E-07  0.617E-03    4.05       4.2  T
   3    -26.5388318 -0.419949E-09  0.544E-04    4.05      47.4  T
   4    -26.5388318 -0.154517E-08  0.210E-04    4.05     122.7  T
     SCC iter.                  ...        0 min,  0.002 sec
     gradient                   ...        0 min,  0.003 sec
 * total energy  :   -26.1625449 Eh     change       -0.2035969E-06 Eh
   gradient norm :     0.0004498 Eh/α   predicted    -0.2863667E-06 (  40.65%)
   displ. norm   :     0.0030252 α      lambda       -0.3005164E-06
   maximum displ.:     0.0021405 α      in ANC's #1, #3, #8, ...

........................................................................
.............................. CYCLE   12 ..............................
........................................................................

 iter      E             dE          RMSdq      gap      omega  full diag
   1    -26.5387270 -0.265387E+02  0.280E-03    4.05       0.0  T
   2    -26.5387270 -0.134398E-08  0.167E-03    4.05      15.5  T
   3    -26.5387270  0.556739E-09  0.288E-04    4.05      89.5  T
   4    -26.5387270 -0.789534E-09  0.530E-05    4.05     487.1  T
     SCC iter.                  ...        0 min,  0.002 sec
     gradient                   ...        0 min,  0.004 sec
 * total energy  :   -26.1625451 Eh     change       -0.2377603E-06 Eh
   gradient norm :     0.0001172 Eh/α   predicted    -0.1513366E-06 ( -36.35%)
   displ. norm   :     0.0016750 α      lambda       -0.2446082E-07
   maximum displ.:     0.0014042 α      in ANC's #2, #1, #5, ...

........................................................................
.............................. CYCLE   13 ..............................
........................................................................

 iter      E             dE          RMSdq      gap      omega  full diag
   1    -26.5387326 -0.265387E+02  0.139E-03    4.05       0.0  T
   2    -26.5387326 -0.153200E-09  0.820E-04    4.05      31.5  T
   3    -26.5387326  0.418332E-10  0.809E-05    4.05     319.0  T
     SCC iter.                  ...        0 min,  0.001 sec
     gradient                   ...        0 min,  0.003 sec
 * total energy  :   -26.1625451 Eh     change       -0.2438753E-07 Eh
   gradient norm :     0.0000447 Eh/α   predicted    -0.1194966E-07 ( -51.00%)
   displ. norm   :     0.0018255 α      lambda       -0.1406324E-07
   maximum displ.:     0.0014645 α      in ANC's #2, #1, #3, ...

   *** GEOMETRY OPTIMIZATION CONVERGED AFTER 13 ITERATIONS ***

------------------------------------------------------------------------
 total energy gain   :        -0.0023305 Eh       -1.4624 kcal/mol
 total RMSD          :         0.1858521 a0        0.0983 Å
 total power (kW/mol):        -0.4706785 (step)  -54.3924 (real)
------------------------------------------------------------------------

 ANCopt (total)                0 d,  0 h,  0 min,  0.113 sec
 optimizer setup                ...        0 min,  0.000 sec (  0.260%)
 model hessian                  ...        0 min,  0.002 sec (  1.379%)
 ANC generation                 ...        0 min,  0.000 sec (  0.249%)
 coordinate transformation      ...        0 min,  0.000 sec (  0.079%)
 single point calculation       ...        0 min,  0.102 sec ( 91.049%)
 optimization log               ...        0 min,  0.006 sec (  5.077%)
 hessian update                 ...        0 min,  0.000 sec (  0.084%)
 rational function              ...        0 min,  0.001 sec (  1.285%)

================
 final structure:
================
$coord
       -5.12968233721454        0.24884329284637       -0.15993289533290      C
       -3.75862314870053       -1.89002312266317       -0.78426230121703      C
       -1.15625394925708       -1.92621671655305       -0.49542422084182      C
        0.05272472189628        0.21387632011985        0.41252104963796      C
       -1.30552778868982        2.36074931850425        1.06398513371962      C
       -3.90359652192089        2.36661139673093        0.77329164051324      C
        2.66769766750358        0.28291957856240        0.79673638287948      O
        4.21176563610509       -0.67722238398945       -0.89606636627184      C
        6.46181813409315       -0.76665079814459       -0.59578770074460      O
       -7.15444437332688        0.26090582397524       -0.38718400053996      H
       -4.70839628606803       -3.54973136736575       -1.48820968849716      H
       -0.08833771720753       -3.60823372052608       -0.93094106317172      H
       -0.30679686319454        3.98379633076870        1.78259060748357      H
       -4.96666334578138        4.03093232756902        1.27404679246662      H
        3.28638091095463       -1.37574813511189       -2.63530472603376      H
$end
 
 Bond Distances (Angstroems)
 ---------------------------
C1-C2=1.3844         C1-C6=1.3859         C1-H10=1.0782        C2-C1=1.3844         C2-C3=1.3857         C2-H11=1.0783        
C3-C2=1.3857         C3-C4=1.3866         C3-H12=1.0792        C4-C3=1.3866         C4-C5=1.3878         C4-O7=1.3991         
C5-C4=1.3878         C5-C6=1.3834         C5-H13=1.0778        C6-C1=1.3859         C6-C5=1.3834         C6-H14=1.0781        
O7-C4=1.3991         O7-C8=1.3146         C8-O7=1.3146         C8-O9=1.2022         C8-H15=1.1061        O9-C8=1.2022         
H10-C1=1.0782        H11-C2=1.0783        H12-C3=1.0792        H13-C5=1.0778        H14-C6=1.0781        H15-C8=1.1061        
 C  H  Rav=1.0830 sigma=0.0104  Rmin=1.0778  Rmax=1.1061     6
 C  C  Rav=1.3857 sigma=0.0014  Rmin=1.3834  Rmax=1.3878     6
 O  C  Rav=1.3053 sigma=0.0807  Rmin=1.2022  Rmax=1.3991     3
 
 selected bond angles (degree)
 --------------------
C6-C1-C2=120.05                H10-C1-C2=119.93               H10-C1-C6=120.01               C3-C2-C1=120.38                
H11-C2-C1=120.27               H11-C2-C3=119.34               C4-C3-C2=119.04                H12-C3-C2=120.55               
H12-C3-C4=120.40               C5-C4-C3=121.04                O7-C4-C3=121.87                O7-C4-C5=117.05                
C6-C5-C4=119.27                H13-C5-C4=119.08               H13-C5-C6=121.65               C5-C6-C1=120.20                
H14-C6-C1=120.26               H14-C6-C5=119.54               C8-O7-C4=120.37                O9-C8-O7=122.73                
H15-C8-O7=114.90               H15-C8-O9=122.36               
 
 selected dihedral angles (degree)
 ---------------------------------
C3-C2-C1-C6=359.64            C3-C2-C1-H10=180.10           H11-C2-C1-C6=179.21           H11-C2-C1-H10=359.67          
C4-C3-C2-C1=359.62            C4-C3-C2-H11=180.05           H12-C3-C2-C1=178.27           H12-C3-C2-H11=358.70          
C5-C4-C3-C2=  0.93            C5-C4-C3-H12=182.27           O7-C4-C3-C2=178.66            O7-C4-C3-H12=  0.00           
C6-C5-C4-C3=359.28            C6-C5-C4-O7=181.44            H13-C5-C4-C3=179.35           H13-C5-C4-O7=  1.51           
C5-C6-C1-C2=  0.57            C5-C6-C1-H10=180.11           H14-C6-C1-C2=180.44           H14-C6-C1-H10=  0.00          
C1-C6-C5-C4=359.97            C1-C6-C5-H13=179.90           H14-C6-C5-C4=180.09           H14-C6-C5-H13=  0.03          
C8-O7-C4-C3= 43.44            C8-O7-C4-C5=221.26            O9-C8-O7-C4=183.54            H15-C8-O7-C4=  4.34           
           -------------------------------------------------
          |                Final Singlepoint                |
           -------------------------------------------------

          ...................................................
          :                      SETUP                      :
          :.................................................:
          :  # basis functions                  42          :
          :  # atomic orbitals                  42          :
          :  # shells                           24          :
          :  # electrons                        46          :
          :  max. iterations                   250          :
          :  Hamiltonian                  GFN2-xTB          :
          :  restarted?                      false          :
          :  GBSA solvation                   true          :
          :  PC potential                    false          :
          :  electronic temp.          300.0000000     K    :
          :  accuracy                    1.0000000          :
          :  -> integral cutoff          0.2500000E+02      :
          :  -> integral neglect         0.1000000E-07      :
          :  -> SCF convergence          0.1000000E-05 Eh   :
          :  -> wf. convergence          0.1000000E-03 e    :
          :  Broyden damping             0.4000000          :
          :  net charge                          0          :
          :  unpaired electrons                  0          :
          ...................................................

 iter      E             dE          RMSdq      gap      omega  full diag
   1    -26.5387326 -0.265387E+02  0.202E-05    4.05       0.0  T
   2    -26.5387326 -0.130385E-11  0.118E-05    4.05    2193.1  T
   3    -26.5387326 -0.429878E-12  0.733E-06    4.05    3524.9  T

   *** convergence criteria satisfied after 3 iterations ***

         #    Occupation            Energy/Eh            Energy/eV
      -------------------------------------------------------------
         1        2.0000           -0.7695784             -20.9413
       ...           ...                  ...                  ...
        17        2.0000           -0.4917844             -13.3821
        18        2.0000           -0.4814725             -13.1015
        19        2.0000           -0.4516066             -12.2888
        20        2.0000           -0.4443571             -12.0916
        21        2.0000           -0.4330824             -11.7848
        22        2.0000           -0.4220717             -11.4852
        23        2.0000           -0.4156577             -11.3106 (HOMO)
        24                         -0.2669625              -7.2644 (LUMO)
        25                         -0.2407461              -6.5510
        26                         -0.2307800              -6.2798
        27                         -0.1082706              -2.9462
        28                          0.0093282               0.2538
       ...                                ...                  ...
        42                          0.6549390              17.8218
      -------------------------------------------------------------
                  HL-Gap            0.1486952 Eh            4.0462 eV
             Fermi-level           -0.3413101 Eh           -9.2875 eV

 SCC (total)                   0 d,  0 h,  0 min,  0.008 sec
 SCC setup                      ...        0 min,  0.001 sec ( 10.524%)
 Dispersion                     ...        0 min,  0.000 sec (  0.742%)
 classical contributions        ...        0 min,  0.000 sec (  0.196%)
 integral evaluation            ...        0 min,  0.002 sec ( 21.463%)
 iterations                     ...        0 min,  0.001 sec ( 17.194%)
 molecular gradient             ...        0 min,  0.004 sec ( 47.901%)
 printout                       ...        0 min,  0.000 sec (  1.745%)

         :::::::::::::::::::::::::::::::::::::::::::::::::::::
         ::                     SUMMARY                     ::
         :::::::::::::::::::::::::::::::::::::::::::::::::::::
         :: total energy             -26.162545142630 Eh    ::
         :: total w/o Gsasa/hb       -26.163753597821 Eh    ::
         :: gradient norm              0.000045709603 Eh/a0 ::
         :: HOMO-LUMO gap              4.046202385391 eV    ::
         ::.................................................::
         :: SCC energy               -26.538724682046 Eh    ::
         :: -> isotropic ES            0.049973813501 Eh    ::
         :: -> anisotropic ES         -0.000356455504 Eh    ::
         :: -> anisotropic XC          0.009163733447 Eh    ::
         :: -> dispersion             -0.011403114211 Eh    ::
         :: -> Gsolv                  -0.008206875311 Eh    ::
         ::    -> Gelec               -0.009415330502 Eh    ::
         ::    -> Gsasa                0.001990418417 Eh    ::
         ::    -> Ghb                 -0.001862722924 Eh    ::
         ::    -> Gshift               0.001080759698 Eh    ::
         :: repulsion energy           0.376179539416 Eh    ::
         :: add. restraining           0.000000000000 Eh    ::
         :: total charge              -0.000000000000 e     ::
         :::::::::::::::::::::::::::::::::::::::::::::::::::::

           ------------------------------------------------- 
          |                Numerical Hessian                |
           ------------------------------------------------- 
step length          :   0.00500
SCC accuracy         :   0.30000
Hessian scale factor :   1.00000
frozen atoms in %    :   0.00000    0
RMS gradient         :   0.00005
estimated CPU  time      0.01 min
estimated wall time      0.01 min

writing file <hessian>.

 projected vibrational frequencies (cm⁻¹)
eigval :       -0.00    -0.00     0.00     0.00     0.00     0.00
eigval :       81.93   125.67   173.54   280.51   376.24   379.44
eigval :      425.78   494.90   586.86   628.16   660.03   762.68
eigval :      849.87   871.13   898.73   924.78   929.33   950.52
eigval :      983.38  1072.29  1108.50  1148.78  1174.50  1179.15
eigval :     1200.57  1264.83  1317.26  1370.68  1432.01  1450.81
eigval :     1584.93  1590.61  1716.93  2784.46  3091.48  3099.31
eigval :     3104.45  3111.90  3117.76
           -------------------------------------------------
          |                Property Printout                |
           -------------------------------------------------

    * Orbital Energies and Occupations

         #    Occupation            Energy/Eh            Energy/eV
      -------------------------------------------------------------
         1        2.0000           -0.7695785             -20.9413
       ...           ...                  ...                  ...
        11        2.0000           -0.5723876             -15.5755
        12        2.0000           -0.5379470             -14.6383
        13        2.0000           -0.5264960             -14.3267
        14        2.0000           -0.5223267             -14.2132
        15        2.0000           -0.5007502             -13.6261
        16        2.0000           -0.4977600             -13.5447
        17        2.0000           -0.4917844             -13.3821
        18        2.0000           -0.4814725             -13.1015
        19        2.0000           -0.4516066             -12.2888
        20        2.0000           -0.4443572             -12.0916
        21        2.0000           -0.4330824             -11.7848
        22        2.0000           -0.4220717             -11.4852
        23        2.0000           -0.4156577             -11.3106 (HOMO)
        24                         -0.2669625              -7.2644 (LUMO)
        25                         -0.2407461              -6.5510
        26                         -0.2307800              -6.2798
        27                         -0.1082706              -2.9462
        28                          0.0093282               0.2538
        29                          0.1058776               2.8811
        30                          0.1241953               3.3795
        31                          0.1451701               3.9503
        32                          0.1638769               4.4593
        33                          0.1807196               4.9176
        34                          0.1983031               5.3961
       ...                                ...                  ...
        42                          0.6549390              17.8218
      -------------------------------------------------------------
                  HL-Gap            0.1486952 Eh            4.0462 eV
             Fermi-level           -0.3413101 Eh           -9.2875 eV

     #   Z          covCN         q      C6AA      α(0)
     1   6 C        2.919    -0.034    28.845     8.807
     2   6 C        2.922    -0.030    28.742     8.792
     3   6 C        2.916    -0.052    29.290     8.875
     4   6 C        2.879     0.131    25.134     8.219
     5   6 C        2.917    -0.045    29.116     8.848
     6   6 C        2.922    -0.029    28.727     8.789
     7   8 O        1.707    -0.232    17.839     5.703
     8   6 C        2.662     0.352    21.024     7.502
     9   8 O        0.856    -0.430    22.282     6.329
    10   1 H        0.926     0.069     2.095     2.263
    11   1 H        0.926     0.069     2.099     2.266
    12   1 H        0.926     0.056     2.251     2.346
    13   1 H        0.926     0.071     2.070     2.250
    14   1 H        0.926     0.071     2.070     2.250
    15   1 H        0.922     0.031     2.567     2.505

 Mol. C6AA /au·bohr⁶  :       2937.017346
 Mol. C8AA /au·bohr⁸  :      71166.143077
 Mol. α(0) /au        :         85.743827


Wiberg/Mayer (AO) data.
largest (>0.10) Wiberg bond orders for each atom

 ---------------------------------------------------------------------------
     #   Z sym  total        # sym  WBO       # sym  WBO       # sym  WBO
 ---------------------------------------------------------------------------
     1   6 C    3.985 --     2 C    1.443     6 C    1.434    10 H    0.968
                             4 C    0.102
     2   6 C    3.988 --     1 C    1.443     3 C    1.436    11 H    0.967
                             5 C    0.112
     3   6 C    3.988 --     2 C    1.436     4 C    1.398    12 H    0.964
                             6 C    0.110
     4   6 C    3.889 --     3 C    1.398     5 C    1.389     7 O    0.939
                             1 C    0.102
     5   6 C    3.986 --     6 C    1.447     4 C    1.389    13 H    0.965
                             2 C    0.112
     6   6 C    3.987 --     5 C    1.447     1 C    1.434    14 H    0.967
                             3 C    0.110
     7   8 O    2.396 --     8 C    1.188     4 C    0.939     9 O    0.173
     8   6 C    3.909 --     9 O    1.755     7 O    1.188    15 H    0.917
     9   8 O    2.017 --     8 C    1.755     7 O    0.173
    10   1 H    0.995 --     1 C    0.968
    11   1 H    0.995 --     2 C    0.967
    12   1 H    0.997 --     3 C    0.964
    13   1 H    0.995 --     5 C    0.965
    14   1 H    0.994 --     6 C    0.967
    15   1 H    0.999 --     8 C    0.917
 ---------------------------------------------------------------------------

Topologies differ in total number of bonds
Writing topology from bond orders to xtbtopo.mol

molecular dipole:
                 x           y           z       tot (Debye)
 q only:       -2.483       0.129      -0.251
   full:       -2.439       0.049      -0.356       6.267
molecular quadrupole (traceless):
                xx          xy          yy          xz          yz          zz
 q only:       -9.974       0.679       6.827      -0.367       1.874       3.147
  q+dip:      -12.478       0.988      10.040       0.124       3.560       2.438
   full:      -13.438       1.067       9.334      -0.513       1.821       4.104

           -------------------------------------------------
          |                Geometry Summary                 |
           -------------------------------------------------

      molecular mass/u    :      122.1216056
   center of mass at/Å    :        0.0001282       0.0015918      -0.0009553
  moments of inertia/u·Å² :        0.9831945E+02   0.5183025E+03   0.6062339E+03
rotational constants/cm⁻¹ :        0.1714578E+00   0.3252470E-01   0.2780714E-01

 * 14 selected distances

     #   Z          #   Z                                           value/Å
     1   6 C        2   6 C                                       1.3844171
     2   6 C        3   6 C                                       1.3857033
     3   6 C        4   6 C                                       1.3866052
     4   6 C        5   6 C                                       1.3878494
     1   6 C        6   6 C                                       1.3859127
     5   6 C        6   6 C                                       1.3834214
     4   6 C        7   8 O                                       1.3991182 (max)
     7   8 O        8   6 C                                       1.3146194
     8   6 C        9   8 O                                       1.2021646
     1   6 C       10   1 H                                       1.0782043
     2   6 C       11   1 H                                       1.0783072
     3   6 C       12   1 H                                       1.0792234
     5   6 C       13   1 H                                       1.0777743 (min)
     6   6 C       14   1 H                                       1.0781240

 * 3 distinct bonds (by element types)

   Z      Z             #   av. dist./Å        max./Å        min./Å
   1 H    6 C           5     1.0783266     1.0792234     1.0777743
   6 C    6 C           6     1.3856515     1.3878494     1.3834214
   6 C    8 O           3     1.3053008     1.3991182     1.2021646

           -------------------------------------------------
          |               Frequency Printout                |
           -------------------------------------------------
 projected vibrational frequencies (cm⁻¹)
eigval :       -0.00    -0.00     0.00     0.00     0.00     0.00
eigval :       81.93   125.67   173.54   280.51   376.24   379.44
eigval :      425.78   494.90   586.86   628.16   660.03   762.68
eigval :      849.87   871.13   898.73   924.78   929.33   950.52
eigval :      983.38  1072.29  1108.50  1148.78  1174.50  1179.15
eigval :     1200.57  1264.83  1317.26  1370.68  1432.01  1450.81
eigval :     1584.93  1590.61  1716.93  2784.46  3091.48  3099.31
eigval :     3104.45  3111.90  3117.76
 reduced masses (amu)
   1: 12.46   2: 11.97   3: 13.59   4: 11.20   5: 12.85   6: 11.02   7: 12.95   8: 12.40
   9:  9.35  10: 11.47  11: 11.56  12: 10.15  13: 12.85  14: 10.06  15: 11.26  16: 12.28
  17:  9.91  18:  4.31  19: 12.98  20:  3.36  21:  3.54  22:  4.11  23:  3.26  24:  5.69
  25: 11.12  26:  6.17  27:  3.67  28:  9.97  29:  1.64  30:  6.40  31:  9.60  32:  3.64
  33: 11.97  34:  2.16  35:  9.10  36:  8.85  37: 11.50  38: 11.61  39: 13.50  40:  1.67
  41:  1.80  42:  1.78  43:  1.84  44:  1.88  45:  1.91
 IR intensities (km·mol⁻¹)
   1:  0.28   2:  1.53   3:  1.10   4:  1.33   5:  1.67   6:  0.62   7:  0.58   8: 11.26
   9: 21.72  10:  4.59  11:  4.15  12:  1.67  13:  4.55  14:  8.57  15:  0.26  16: 14.79
  17:  1.98  18: 44.14  19: 51.89  20:  1.30  21:  0.89  22:  0.71  23:  0.11  24: 13.91
  25: 25.70  26:  3.40  27:  1.53  28:141.93  29:  2.40  30:302.97  31:402.66  32:  2.95
  33:  0.45  34: 17.62  35:  4.14  36: 42.83  37: 15.19  38:  8.06  39:******  40:119.29
  41: 20.01  42:  3.43  43: 41.78  44: 56.91  45: 18.04
 Raman intensities (Ä⁴*amu⁻¹)
   1:  0.00   2:  0.00   3:  0.00   4:  0.00   5:  0.00   6:  0.00   7:  0.00   8:  0.00
   9:  0.00  10:  0.00  11:  0.00  12:  0.00  13:  0.00  14:  0.00  15:  0.00  16:  0.00
  17:  0.00  18:  0.00  19:  0.00  20:  0.00  21:  0.00  22:  0.00  23:  0.00  24:  0.00
  25:  0.00  26:  0.00  27:  0.00  28:  0.00  29:  0.00  30:  0.00  31:  0.00  32:  0.00
  33:  0.00  34:  0.00  35:  0.00  36:  0.00  37:  0.00  38:  0.00  39:  0.00  40:  0.00
  41:  0.00  42:  0.00  43:  0.00  44:  0.00  45:  0.00
 output can be read by thermo (or use thermo option).
 writing <g98.out> molden fake output.
 recommended (thermochemical) frequency scaling factor: 1.0
           -------------------------------------------------
          |             Thermodynamic Functions             |
           -------------------------------------------------

Molecule has no symmetry elements
It seems to be the C1 point group
c1  symmetry found (for desy threshold:  0.10E+00) used in thermo

          ...................................................
          :                      SETUP                      :
          :.................................................:
          :  # frequencies                          39      :
          :  # imaginary freq.                       0      :
          :  linear?                             false      :
          :  only rotor calc.                    false      :
          :  symmetry                               c1      :
          :  rotational number                       1      :
          :  scaling factor                  1.0000000      :
          :  rotor cutoff                    0.0000000 cm⁻¹ :
          :  imag. cutoff                 -100.0000000 cm⁻¹ :
          :.................................................:

    mode    ω/cm⁻¹     T·S(HO)/kcal·mol⁻¹    T·S(FR)/kcal·mol⁻¹   T·S(vib)
   ------------------------------------------------------------------------
       1     81.93    -1.14610 (100.00%)    -0.91009 (  0.00%)    -1.14610
       2    125.67    -0.89780 (100.00%)    -0.78342 (  0.00%)    -0.89780
       3    173.54    -0.71459 (100.00%)    -0.68783 (  0.00%)    -0.71459
       4    280.51    -0.45633 (100.00%)    -0.54561 (  0.00%)    -0.45633
   ------------------------------------------------------------------------

   temp. (K)  partition function   enthalpy   heat capacity  entropy
                                   cal/mol     cal/K/mol   cal/K/mol   J/K/mol
 298.15  VIB   38.7                 2982.712     22.428     17.270
         ROT  0.425E+06              888.752      2.981     28.734
         INT  0.164E+08             3871.464     25.409     46.003
         TR   0.131E+28             1481.254      4.968     40.295
         TOT                        5352.7179    30.3767    86.2987   361.0737

       T/K    H(0)-H(T)+PV         H(T)/Eh          T*S/Eh         G(T)/Eh
   ------------------------------------------------------------------------
    298.15    0.853010E-02    0.118576E+00    0.410033E-01    0.775730E-01
   ------------------------------------------------------------------------

         :::::::::::::::::::::::::::::::::::::::::::::::::::::
         ::                  THERMODYNAMIC                  ::
         :::::::::::::::::::::::::::::::::::::::::::::::::::::
         :: total free energy         -26.084972098940 Eh   ::
         ::.................................................::
         :: total energy              -26.162545142652 Eh   ::
         :: zero point energy           0.110046237820 Eh   ::
         :: G(RRHO) w/o ZPVE           -0.032473194108 Eh   ::
         :: G(RRHO) contrib.            0.077573043712 Eh   ::
         :::::::::::::::::::::::::::::::::::::::::::::::::::::

optimized geometry written to: xtbopt.coord


           -------------------------------------------------
          | TOTAL ENERGY              -26.162545142652 Eh   |
          | TOTAL ENTHALPY            -26.043968805873 Eh   |
          | TOTAL FREE ENERGY         -26.084972098940 Eh   |
          | GRADIENT NORM               0.000045777454 Eh/α |
          | HOMO-LUMO GAP               4.046201925781 eV   |
           -------------------------------------------------

------------------------------------------------------------------------
 * finished run on 2025/04/07 at 01:04:34.490     
------------------------------------------------------------------------
 total:
 * wall-time:     0 d,  0 h,  0 min,  0.936 sec
 *  cpu-time:     0 d,  0 h,  0 min,  0.853 sec
 * ratio c/w:     0.912 speedup
 SCF:
 * wall-time:     0 d,  0 h,  0 min,  0.025 sec
 *  cpu-time:     0 d,  0 h,  0 min,  0.013 sec
 * ratio c/w:     0.514 speedup
 ANC optimizer:
 * wall-time:     0 d,  0 h,  0 min,  0.131 sec
 *  cpu-time:     0 d,  0 h,  0 min,  0.117 sec
 * ratio c/w:     0.894 speedup
 analytical hessian:
 * wall-time:     0 d,  0 h,  0 min,  0.722 sec
 *  cpu-time:     0 d,  0 h,  0 min,  0.711 sec
 * ratio c/w:     0.985 speedup

