! wb97x-v def2-tzvp def2/J RIJCOSX DEFGRID2 scfconv7 GCP(DFT/TZ) printgap
%output
    printlevel normal
end
* xyz 0 1
C -1.7600827063244757 -1.464901619187022 0.14285683655532153
C -1.6332788174979265 -0.017681989424253045 -0.3236394747332917
C -2.9411539747458626 0.7474827827065106 -0.07796679473749912
C -0.5338560003330619 0.7352615268534728 0.40021962237365916
Br 1.2877498590798717 -0.003234117566030543 0.027264988199418222
H -1.9761574634433545 -1.5032601282899474 1.217246404328511
H -2.576932431227402 -1.9657967400866743 -0.38579776263651483
H -0.8409350586337299 -2.0288644210351428 -0.04073292123049911
H -1.4180203817300774 -0.0005578975042452667 -1.3992401800447716
H -2.8805625162563953 1.7768815431327138 -0.44484026580528413
H -3.1782705106337876 0.7761489360371557 0.9915899662966094
H -3.7676670136447132 0.24906101240348935 -0.5937262295196429
H -0.6420178130712281 0.6770457282056306 1.4849391837327555
H -0.47140826711786926 1.7768375587191736 0.08565322330598331
*
