! pbe def2-sv(p) def2/J RI DEFGRID1 loosescf d4 GCP(DFT/SV(P)) printgap
%output
    printlevel normal
end
* xyz 0 1
C -1.7202434402 -1.0388541359 -0.7206857697
C -1.069673814 -0.5055190624 0.5632725627
H -1.7773878022 -0.6406293171 1.3896432518
C -0.7480555969 0.9929753167 0.4681140976
H -1.6317748126 1.4947486794 0.0594523185
C 0.4765725889 1.262787958 -0.4312366258
H 0.7898542549 2.3017661147 -0.2315622132
C 1.6494003296 0.3501989964 -0.0265941666
H 2.3734242727 0.3434789711 -0.8515785983
C 1.2318410289 -1.1155002673 0.1884724474
H 2.0091218193 -1.5751527738 0.8201897875
O 0.0652626409 -1.2704032324 0.9540442608
O 1.1576421067 -1.7439913628 -1.0514008509
O 2.2313725356 0.7787901266 1.1816641931
O 0.2300059944 1.0869021603 -1.8017143324
O -0.5413333597 1.5564385204 1.7420154155
O -2.9479965235 -0.3651857851 -0.8981386624
H -1.8815020376 -2.1163171824 -0.5906620927
H -1.0498589862 -0.8716747562 -1.5705174075
H 1.0627229099 -2.700910315 -0.9301915311
H 2.7400007334 1.5895012945 1.0333377253
H -0.4203510816 1.7406628708 -2.0971155677
H 0.2297310704 1.1267403162 2.1476636172
H -3.3917417706 -0.7252071982 -1.6789170637
*
