! wb97x-v def2-tzvp def2/J RIJCOSX DEFGRID2 scfconv7 GCP(DFT/TZ) printgap
%output
    printlevel normal
end
* xyz 0 1
C -2.1857876553974904 0.3059819049478045 -0.4216380337473623
C -1.0277900439057797 0.1839809697915979 0.57622377744875
C -0.0006659393565430622 -0.8038527701138298 0.11318514553121853
C 1.2884024316314688 -0.5782156003817203 -0.16547735153994858
C 2.0315935639636455 0.7154730895520356 -0.06531253017694195
H -1.8288831008334638 0.6747164194179227 -1.3889206057729149
H -2.949462726244139 0.9983832555979465 -0.053163974900780946
H -2.6632431712928253 -0.6657676134778857 -0.5878436140158821
H -0.5812545541742591 1.1679768183479378 0.7464612179512726
H -1.4323725840144848 -0.15063653981244737 1.5413498333708575
H -0.37437103604482497 -1.819766242168404 -0.02464288003045298
H 1.883436291185052 -1.4268549231420482 -0.5037018567527509
H 1.3974305769888518 1.5506221733839243 0.23915829335411584
H 2.492159678812743 0.9691079674192922 -1.0279111535816405
H 2.854557951527406 0.6327513656148182 0.655687903703796
*
