 Entering Gaussian System
 *********************************************
 Gaussian 98:
 frequency output generated by the xtb code
 *********************************************
                         Standard orientation:
 --------------------------------------------------------------------
  Center     Atomic     Atomic              Coordinates (Angstroms)
  Number     Number      Type              X           Y           Z
 --------------------------------------------------------------------
    1          6             0        1.881729    0.643369   -0.295888
    2          6             0        1.021912   -0.196821    0.645353
    3          8             0       -0.000094   -0.941661   -0.000014
    4          6             0       -1.021994   -0.196772   -0.645493
    5          6             0       -1.881679    0.643696    0.295620
    6          1             0        2.233978    0.031223   -1.122432
    7          1             0        1.322953    1.486422   -0.694218
    8          1             0        2.737495    1.025098    0.252339
    9          1             0        0.591841    0.437271    1.430943
   10          1             0        1.634860   -0.966666    1.120402
   11          1             0       -0.591836    0.437130   -1.431189
   12          1             0       -1.635061   -0.966603   -1.120412
   13          1             0       -2.737406    1.025446   -0.252654
   14          1             0       -2.233993    0.031741    1.122277
   15          1             0       -1.322781    1.486743    0.693792
 --------------------------------------------------------------------
     1 basis functions        1 primitive gaussians
     1 alpha electrons        1 beta electrons
 
 Harmonic frequencies (cm**-1), IR intensities (km*mol⁻¹),
 Raman scattering activities (A**4/amu), Raman depolarization ratios,
 reduced masses (AMU), force constants (mDyne/A) and normal coordinates:
                      1                      2                      3
                        a                      a                      a 
 Frequencies --    47.6332               134.7947               207.8766
 Red. masses --     7.9933                 4.9559                 1.3232
 Frc consts  --     0.0000                 0.0000                 0.0000
 IR Inten    --     0.1267                 5.3443                 0.2671
 Raman Activ --     0.0000                 0.0000                 0.0000
 Depolar     --     0.0000                 0.0000                 0.0000
 Atom AN      X      Y      Z        X      Y      Z        X      Y      Z
   1   6     0.38  -0.30  -0.11     0.16  -0.05   0.16    -0.03   0.06  -0.03
   2   6     0.00   0.20  -0.00    -0.19   0.11  -0.02     0.04  -0.04  -0.06
   3   8     0.00   0.23  -0.00     0.07  -0.00  -0.33    -0.00  -0.06   0.00
   4   6    -0.00   0.20   0.00    -0.19  -0.11  -0.02    -0.04  -0.04   0.06
   5   6    -0.38  -0.30   0.11     0.16   0.05   0.16     0.03   0.06   0.03
   6   1     0.13  -0.19   0.05     0.30  -0.10   0.22     0.33  -0.05   0.18
   7   1     0.18  -0.10  -0.15     0.02  -0.15  -0.21    -0.15  -0.21  -0.29
   8   1     0.10  -0.08  -0.02    -0.12   0.18   0.17    -0.23   0.35   0.10
   9   1    -0.01   0.16  -0.09    -0.14   0.07  -0.09     0.02  -0.02  -0.01
  10   1    -0.07   0.07   0.11    -0.10   0.06   0.10     0.03  -0.00  -0.03
  11   1     0.01   0.16   0.09    -0.14  -0.07  -0.09    -0.02  -0.02   0.01
  12   1     0.07   0.07  -0.11    -0.10  -0.06   0.10    -0.03  -0.00   0.03
  13   1    -0.10  -0.08   0.02    -0.12  -0.18   0.17     0.23   0.35  -0.10
  14   1    -0.13  -0.19  -0.05     0.30   0.10   0.22    -0.33  -0.05  -0.18
  15   1    -0.18  -0.10   0.15     0.02   0.15  -0.21     0.15  -0.21   0.29
                      4                      5                      6
                        a                      a                      a 
 Frequencies --   270.4482               288.8536               436.8274
 Red. masses --     4.9077                 8.0815                10.6870
 Frc consts  --     0.0000                 0.0000                 0.0000
 IR Inten    --     3.6907                 0.3675                15.9291
 Raman Activ --     0.0000                 0.0000                 0.0000
 Depolar     --     0.0000                 0.0000                 0.0000
 Atom AN      X      Y      Z        X      Y      Z        X      Y      Z
   1   6    -0.14  -0.01  -0.08    -0.36  -0.13  -0.13     0.24   0.18   0.02
   2   6     0.20  -0.26  -0.01    -0.31   0.17   0.16    -0.06   0.07  -0.26
   3   8    -0.13   0.00   0.22     0.00  -0.10  -0.00    -0.50   0.00   0.40
   4   6     0.20   0.26  -0.01     0.31   0.17  -0.16    -0.06  -0.07  -0.26
   5   6    -0.14   0.01  -0.08     0.36  -0.13   0.13     0.24  -0.18   0.02
   6   1     0.19  -0.01   0.08    -0.15  -0.13   0.01     0.17   0.13  -0.00
   7   1    -0.20  -0.18  -0.18    -0.10  -0.07  -0.10     0.15   0.12   0.02
   8   1    -0.19   0.27   0.02    -0.08   0.01  -0.11     0.00  -0.03   0.17
   9   1     0.14  -0.12   0.08    -0.17   0.11  -0.05     0.08   0.04  -0.04
  10   1     0.10  -0.12  -0.13    -0.09   0.13   0.17    -0.02  -0.01  -0.11
  11   1     0.14   0.12   0.08     0.17   0.11   0.05     0.08  -0.04  -0.04
  12   1     0.10   0.12  -0.13     0.09   0.13  -0.17    -0.02   0.01  -0.11
  13   1    -0.19  -0.27   0.02     0.08   0.01   0.11     0.00   0.03   0.17
  14   1     0.19   0.01   0.08     0.15  -0.13  -0.01     0.17  -0.13  -0.00
  15   1    -0.20   0.18  -0.18     0.10  -0.07   0.10     0.15  -0.12   0.02
                      7                      8                      9
                        a                      a                      a 
 Frequencies --   479.6881               807.8538               817.1884
 Red. masses --     9.0807                 2.1519                 5.4872
 Frc consts  --     0.0000                 0.0000                 0.0000
 IR Inten    --     6.5610                 9.4175                22.1061
 Raman Activ --     0.0000                 0.0000                 0.0000
 Depolar     --     0.0000                 0.0000                 0.0000
 Atom AN      X      Y      Z        X      Y      Z        X      Y      Z
   1   6    -0.11  -0.16   0.04     0.03  -0.08  -0.01    -0.16  -0.05   0.03
   2   6     0.19  -0.04   0.30     0.10  -0.17  -0.06    -0.28   0.04  -0.23
   3   8     0.00   0.54  -0.00    -0.02   0.00   0.06     0.00   0.25  -0.00
   4   6    -0.19  -0.04  -0.30     0.10   0.17  -0.06     0.28   0.04   0.23
   5   6     0.11  -0.16  -0.04     0.03   0.08  -0.01     0.16  -0.05  -0.03
   6   1    -0.11  -0.12   0.03     0.08   0.24  -0.16     0.01  -0.13   0.11
   7   1    -0.13  -0.12  -0.01    -0.22  -0.06   0.23     0.20   0.08  -0.13
   8   1     0.01   0.06  -0.13    -0.05   0.09   0.02    -0.07  -0.19   0.16
   9   1     0.18  -0.08   0.21    -0.06   0.22  -0.27     0.04  -0.15   0.14
  10   1     0.02  -0.14  -0.07    -0.14   0.03   0.31     0.04  -0.06  -0.31
  11   1    -0.18  -0.08  -0.21    -0.06  -0.22  -0.27    -0.04  -0.15  -0.14
  12   1    -0.02  -0.14   0.07    -0.14  -0.03   0.31    -0.04  -0.06   0.31
  13   1    -0.01   0.06   0.13    -0.05  -0.09   0.02     0.07  -0.19  -0.16
  14   1     0.11  -0.12  -0.03     0.08  -0.24  -0.16    -0.01  -0.13  -0.11
  15   1     0.13  -0.12   0.01    -0.22   0.06   0.23    -0.20   0.08   0.13
                     10                     11                     12
                        a                      a                      a 
 Frequencies --   864.8216               936.0164              1047.6438
 Red. masses --     6.3253                 8.1948                 7.9623
 Frc consts  --     0.0000                 0.0000                 0.0000
 IR Inten    --     3.9669                12.3372                26.8404
 Raman Activ --     0.0000                 0.0000                 0.0000
 Depolar     --     0.0000                 0.0000                 0.0000
 Atom AN      X      Y      Z        X      Y      Z        X      Y      Z
   1   6     0.10   0.20  -0.01    -0.27  -0.19   0.03     0.25   0.17  -0.11
   2   6     0.08   0.12   0.22    -0.03  -0.00  -0.22    -0.38  -0.22   0.02
   3   8    -0.00  -0.42   0.00     0.44  -0.00   0.21     0.00   0.16  -0.00
   4   6    -0.08   0.12  -0.22    -0.03   0.00  -0.22     0.38  -0.22  -0.02
   5   6    -0.10   0.20   0.01    -0.27   0.19   0.03    -0.25   0.17   0.11
   6   1    -0.11  -0.22   0.13     0.10   0.03   0.02    -0.03   0.02  -0.06
   7   1     0.15   0.04  -0.20     0.09   0.07   0.03    -0.06  -0.04  -0.04
   8   1     0.14   0.02  -0.15    -0.18  -0.21   0.29     0.12   0.16  -0.21
   9   1    -0.05  -0.17   0.17     0.05   0.03  -0.04    -0.10  -0.11   0.05
  10   1     0.18   0.06  -0.10     0.11   0.09  -0.04    -0.20  -0.17  -0.03
  11   1     0.05  -0.17  -0.17     0.05  -0.04  -0.04     0.10  -0.11  -0.05
  12   1    -0.18   0.06   0.10     0.11  -0.09  -0.04     0.20  -0.17   0.03
  13   1    -0.14   0.02   0.15    -0.18   0.21   0.29    -0.12   0.16   0.21
  14   1     0.11  -0.22  -0.13     0.10  -0.03   0.02     0.03   0.02   0.06
  15   1    -0.15   0.04   0.20     0.09  -0.07   0.03     0.06  -0.04   0.04
                     13                     14                     15
                        a                      a                      a 
 Frequencies --  1067.9925              1082.3754              1109.4097
 Red. masses --     9.2854                 6.9864                 8.8498
 Frc consts  --     0.0000                 0.0000                 0.0000
 IR Inten    --    36.6180                 0.0714               126.2122
 Raman Activ --     0.0000                 0.0000                 0.0000
 Depolar     --     0.0000                 0.0000                 0.0000
 Atom AN      X      Y      Z        X      Y      Z        X      Y      Z
   1   6    -0.08  -0.15   0.33     0.00  -0.03   0.34     0.08   0.13   0.14
   2   6     0.24   0.29  -0.27     0.07   0.08  -0.38    -0.18  -0.26  -0.27
   3   8    -0.18   0.00  -0.05    -0.00   0.01  -0.00     0.28   0.00   0.36
   4   6     0.24  -0.29  -0.27    -0.07   0.08   0.38    -0.18   0.26  -0.27
   5   6    -0.08   0.15   0.33    -0.00  -0.03  -0.34     0.08  -0.13   0.14
   6   1    -0.15  -0.11   0.08    -0.23  -0.17   0.11    -0.16  -0.14   0.08
   7   1    -0.16  -0.13   0.09    -0.16  -0.14   0.02    -0.02  -0.05  -0.08
   8   1     0.04   0.05  -0.09     0.12   0.12  -0.20     0.13   0.08  -0.18
   9   1     0.07   0.06  -0.06    -0.07  -0.02  -0.12    -0.18  -0.10  -0.10
  10   1     0.01   0.01  -0.11    -0.02   0.03  -0.04     0.03   0.06   0.05
  11   1     0.07  -0.06  -0.06     0.07  -0.02   0.12    -0.18   0.10  -0.10
  12   1     0.01  -0.01  -0.11     0.02   0.03   0.04     0.03  -0.06   0.05
  13   1     0.04  -0.05  -0.09    -0.12   0.12   0.20     0.13  -0.08  -0.18
  14   1    -0.15   0.11   0.08     0.23  -0.17  -0.11    -0.16   0.14   0.08
  15   1    -0.16   0.13   0.09     0.16  -0.14  -0.02    -0.02   0.05  -0.08
                     16                     17                     18
                        a                      a                      a 
 Frequencies --  1123.4857              1181.0557              1251.6145
 Red. masses --     6.4001                 6.6639                 2.3255
 Frc consts  --     0.0000                 0.0000                 0.0000
 IR Inten    --    48.9009                17.3205                 1.9707
 Raman Activ --     0.0000                 0.0000                 0.0000
 Depolar     --     0.0000                 0.0000                 0.0000
 Atom AN      X      Y      Z        X      Y      Z        X      Y      Z
   1   6    -0.16   0.13   0.02    -0.15   0.21  -0.01     0.11  -0.16  -0.03
   2   6     0.31  -0.14   0.03     0.18  -0.33  -0.02    -0.04   0.08   0.03
   3   8    -0.33   0.00  -0.12     0.00   0.28  -0.00    -0.13   0.00  -0.00
   4   6     0.31   0.14   0.03    -0.18  -0.33   0.02    -0.04  -0.08   0.03
   5   6    -0.16  -0.13   0.02     0.15   0.21   0.01     0.11   0.16  -0.03
   6   1    -0.03  -0.13   0.13    -0.05  -0.16   0.14     0.05   0.12  -0.11
   7   1     0.18   0.10  -0.15     0.19   0.11  -0.19    -0.10  -0.06   0.12
   8   1     0.00  -0.14   0.06     0.03  -0.11   0.01    -0.02   0.05   0.01
   9   1    -0.17   0.01  -0.17    -0.13   0.04  -0.19    -0.30  -0.25   0.06
  10   1     0.14   0.16   0.21    -0.05  -0.01   0.24     0.37   0.28  -0.07
  11   1    -0.17  -0.01  -0.17     0.13   0.04   0.19    -0.30   0.25   0.06
  12   1     0.14  -0.16   0.21     0.05  -0.01  -0.24     0.37  -0.28  -0.07
  13   1     0.00   0.14   0.06    -0.03  -0.11  -0.01    -0.02  -0.05   0.01
  14   1    -0.03   0.13   0.13     0.05  -0.16  -0.14     0.05  -0.12  -0.11
  15   1     0.18  -0.10  -0.15    -0.19   0.11   0.19    -0.10   0.06   0.12
                     19                     20                     21
                        a                      a                      a 
 Frequencies --  1280.1710              1326.5246              1327.3351
 Red. masses --     2.5921                 3.5950                 3.0852
 Frc consts  --     0.0000                 0.0000                 0.0000
 IR Inten    --     1.9578                22.6906                23.3804
 Raman Activ --     0.0000                 0.0000                 0.0000
 Depolar     --     0.0000                 0.0000                 0.0000
 Atom AN      X      Y      Z        X      Y      Z        X      Y      Z
   1   6    -0.05   0.12   0.06    -0.02   0.00  -0.10    -0.00   0.01  -0.11
   2   6    -0.03   0.04  -0.00     0.22   0.23  -0.02     0.19   0.15  -0.04
   3   8    -0.00  -0.27   0.00    -0.00  -0.09  -0.00     0.07   0.00   0.16
   4   6     0.03   0.04   0.00    -0.22   0.23   0.02     0.19  -0.15  -0.04
   5   6     0.05   0.12  -0.06     0.02   0.00   0.10    -0.00  -0.01  -0.11
   6   1    -0.06  -0.07   0.07     0.02  -0.05   0.03     0.01  -0.04   0.01
   7   1     0.05   0.02  -0.09    -0.04   0.02   0.06    -0.04   0.01   0.05
   8   1     0.03  -0.03  -0.02    -0.06  -0.06   0.10    -0.06  -0.07   0.12
   9   1     0.43   0.31   0.00    -0.27  -0.22   0.03    -0.37  -0.29   0.02
  10   1    -0.29  -0.23  -0.03    -0.38  -0.29  -0.01    -0.32  -0.25   0.01
  11   1    -0.43   0.31  -0.00     0.27  -0.22  -0.03    -0.37   0.29   0.02
  12   1     0.29  -0.23   0.03     0.38  -0.29   0.01    -0.32   0.25   0.01
  13   1    -0.03  -0.03   0.02     0.06  -0.06  -0.10    -0.06   0.07   0.12
  14   1     0.06  -0.07  -0.07    -0.02  -0.05  -0.03     0.01   0.04   0.01
  15   1    -0.05   0.02   0.09     0.04   0.02  -0.06    -0.04  -0.01   0.05
                     22                     23                     24
                        a                      a                      a 
 Frequencies --  1393.4327              1393.9010              1460.5100
 Red. masses --     3.1543                 3.1395                 1.8734
 Frc consts  --     0.0000                 0.0000                 0.0000
 IR Inten    --     5.6914                13.7997                 1.0486
 Raman Activ --     0.0000                 0.0000                 0.0000
 Depolar     --     0.0000                 0.0000                 0.0000
 Atom AN      X      Y      Z        X      Y      Z        X      Y      Z
   1   6     0.20   0.16  -0.16     0.19   0.16  -0.17    -0.00  -0.05  -0.02
   2   6    -0.05  -0.05  -0.02    -0.05  -0.04   0.01     0.00   0.03  -0.18
   3   8    -0.00   0.01  -0.00    -0.03  -0.00  -0.04    -0.04  -0.00  -0.05
   4   6     0.05  -0.05   0.02    -0.05   0.04   0.01     0.00  -0.03  -0.18
   5   6    -0.20   0.16   0.16     0.19  -0.16  -0.17    -0.00   0.05  -0.02
   6   1    -0.23  -0.27   0.09    -0.22  -0.29   0.11    -0.04  -0.04   0.00
   7   1    -0.28  -0.11   0.14    -0.28  -0.10   0.17     0.09   0.09   0.07
   8   1    -0.13  -0.13   0.32    -0.12  -0.12   0.31    -0.07   0.15  -0.01
   9   1     0.09   0.00   0.05     0.09   0.05   0.01     0.22  -0.24   0.32
  10   1     0.05   0.09   0.08     0.07   0.06   0.02    -0.11   0.17   0.41
  11   1    -0.09   0.00  -0.05     0.09  -0.05   0.01     0.22   0.24   0.32
  12   1    -0.05   0.09  -0.08     0.07  -0.07   0.02    -0.11  -0.17   0.41
  13   1     0.13  -0.13  -0.32    -0.12   0.12   0.31    -0.07  -0.15  -0.01
  14   1     0.23  -0.27  -0.09    -0.22   0.29   0.11    -0.04   0.04   0.00
  15   1     0.28  -0.11  -0.14    -0.28   0.10   0.17     0.09  -0.09   0.07
                     25                     26                     27
                        a                      a                      a 
 Frequencies --  1461.8561              1483.9237              1486.6461
 Red. masses --     1.7673                 1.5680                 1.5637
 Frc consts  --     0.0000                 0.0000                 0.0000
 IR Inten    --     0.0234                 3.4724                 3.3364
 Raman Activ --     0.0000                 0.0000                 0.0000
 Depolar     --     0.0000                 0.0000                 0.0000
 Atom AN      X      Y      Z        X      Y      Z        X      Y      Z
   1   6     0.05  -0.03  -0.03    -0.10   0.10  -0.05     0.08  -0.12   0.03
   2   6     0.01  -0.04   0.17    -0.03   0.02  -0.04     0.02  -0.00  -0.06
   3   8    -0.00   0.01  -0.00    -0.01  -0.00  -0.01     0.00  -0.01   0.00
   4   6    -0.01  -0.04  -0.17    -0.03  -0.02  -0.04    -0.02  -0.00   0.06
   5   6    -0.05  -0.03   0.03    -0.10  -0.10  -0.05    -0.08  -0.12  -0.03
   6   1    -0.12  -0.10   0.02     0.39  -0.04   0.20    -0.35   0.03  -0.18
   7   1     0.05   0.08   0.10    -0.22  -0.07   0.13     0.25   0.11  -0.10
   8   1    -0.11   0.16   0.06     0.24  -0.31  -0.18    -0.24   0.34   0.14
   9   1    -0.19   0.25  -0.31     0.05  -0.06   0.08     0.06  -0.09   0.10
  10   1     0.11  -0.16  -0.38    -0.00   0.05   0.07    -0.05   0.03   0.14
  11   1     0.19   0.25   0.31     0.05   0.06   0.08    -0.06  -0.09  -0.10
  12   1    -0.11  -0.16   0.38    -0.00  -0.05   0.07     0.05   0.03  -0.14
  13   1     0.11   0.16  -0.06     0.24   0.31  -0.18     0.24   0.34  -0.14
  14   1     0.12  -0.10  -0.02     0.39   0.04   0.20     0.35   0.03   0.18
  15   1    -0.05   0.08  -0.10    -0.22   0.07   0.13    -0.25   0.11   0.10
                     28                     29                     30
                        a                      a                      a 
 Frequencies --  1493.8213              1496.3327              2888.4710
 Red. masses --     1.5368                 1.6091                 1.7577
 Frc consts  --     0.0000                 0.0000                 0.0000
 IR Inten    --     1.7570                 0.5898               120.4043
 Raman Activ --     0.0000                 0.0000                 0.0000
 Depolar     --     0.0000                 0.0000                 0.0000
 Atom AN      X      Y      Z        X      Y      Z        X      Y      Z
   1   6     0.04   0.08   0.12    -0.06  -0.06  -0.12    -0.00  -0.00  -0.00
   2   6     0.01   0.03  -0.03    -0.03  -0.02  -0.06    -0.09   0.12   0.11
   3   8    -0.01   0.00  -0.02    -0.00  -0.00  -0.00     0.01  -0.00   0.01
   4   6     0.01  -0.03  -0.03     0.03  -0.02   0.06    -0.09  -0.12   0.11
   5   6     0.04  -0.08   0.12     0.06  -0.06   0.12    -0.00   0.00  -0.00
   6   1    -0.12   0.23  -0.21     0.17  -0.23   0.24    -0.01   0.01   0.02
   7   1    -0.13  -0.27  -0.39     0.10   0.26   0.40    -0.00   0.00  -0.00
   8   1     0.06  -0.27   0.12    -0.02   0.22  -0.14     0.00   0.00   0.00
   9   1     0.06  -0.07   0.10     0.09  -0.04   0.07     0.27  -0.40  -0.48
  10   1    -0.03   0.04   0.10    -0.01   0.05   0.10     0.03  -0.04   0.06
  11   1     0.06   0.07   0.10    -0.09  -0.04  -0.07     0.27   0.40  -0.48
  12   1    -0.03  -0.04   0.10     0.01   0.05  -0.10     0.03   0.04   0.06
  13   1     0.06   0.27   0.11     0.02   0.22   0.14     0.00  -0.00   0.00
  14   1    -0.12  -0.23  -0.21    -0.17  -0.23  -0.24    -0.01  -0.01   0.02
  15   1    -0.13   0.27  -0.39    -0.10   0.26  -0.40    -0.00  -0.00  -0.00
                     31                     32                     33
                        a                      a                      a 
 Frequencies --  2890.6437              2965.4501              2965.9796
 Red. masses --     1.7527                 1.6666                 1.6606
 Frc consts  --     0.0000                 0.0000                 0.0000
 IR Inten    --    48.0489                32.5125                65.1375
 Raman Activ --     0.0000                 0.0000                 0.0000
 Depolar     --     0.0000                 0.0000                 0.0000
 Atom AN      X      Y      Z        X      Y      Z        X      Y      Z
   1   6    -0.00   0.01   0.00    -0.01   0.00  -0.00    -0.01   0.01  -0.00
   2   6     0.09  -0.11  -0.11     0.09  -0.12   0.09     0.09  -0.12   0.09
   3   8    -0.00  -0.02  -0.00     0.00   0.00   0.00     0.02  -0.00   0.01
   4   6    -0.09  -0.11   0.11    -0.09  -0.12  -0.09     0.09   0.12   0.09
   5   6     0.00   0.01  -0.00     0.01   0.00   0.00    -0.01  -0.01  -0.00
   6   1     0.01  -0.01  -0.02    -0.00  -0.00  -0.00     0.00  -0.00  -0.01
   7   1     0.01  -0.02   0.01     0.02  -0.04   0.02     0.02  -0.04   0.02
   8   1    -0.01  -0.00  -0.01     0.01   0.01   0.01     0.02   0.01   0.01
   9   1    -0.28   0.40   0.48     0.04  -0.06  -0.04     0.05  -0.07  -0.05
  10   1    -0.03   0.03  -0.05    -0.39   0.48  -0.28    -0.38   0.48  -0.28
  11   1     0.28   0.40  -0.48    -0.04  -0.06   0.04     0.05   0.07  -0.05
  12   1     0.03   0.03   0.05     0.39   0.48   0.28    -0.39  -0.48  -0.28
  13   1     0.01  -0.00   0.01    -0.01   0.01  -0.01     0.02  -0.01   0.01
  14   1    -0.01  -0.01   0.02     0.00  -0.00   0.00     0.00   0.00  -0.01
  15   1    -0.01  -0.02  -0.01    -0.02  -0.04  -0.02     0.02   0.04   0.02
                     34                     35                     36
                        a                      a                      a 
 Frequencies --  3036.9134              3037.0798              3041.9003
 Red. masses --     1.9285                 1.9273                 1.6189
 Frc consts  --     0.0000                 0.0000                 0.0000
 IR Inten    --    75.5249                43.8131                 1.6171
 Raman Activ --     0.0000                 0.0000                 0.0000
 Depolar     --     0.0000                 0.0000                 0.0000
 Atom AN      X      Y      Z        X      Y      Z        X      Y      Z
   1   6     0.13  -0.16   0.01     0.13  -0.16   0.02    -0.00  -0.05  -0.16
   2   6     0.01  -0.02   0.00     0.01  -0.01   0.01     0.00  -0.00  -0.01
   3   8     0.00  -0.00   0.00     0.00   0.00   0.00     0.00   0.00  -0.00
   4   6    -0.01  -0.02  -0.00     0.01   0.01   0.01    -0.00  -0.00   0.01
   5   6    -0.13  -0.16  -0.01     0.13   0.16   0.02     0.00  -0.05   0.16
   6   1    -0.07   0.15   0.22    -0.07   0.13   0.21    -0.20   0.36   0.46
   7   1    -0.32   0.47  -0.23    -0.32   0.47  -0.23     0.15  -0.22   0.08
   8   1    -0.05  -0.05  -0.04    -0.06  -0.06  -0.05     0.07   0.02   0.02
   9   1    -0.01   0.01   0.02    -0.00   0.00   0.00    -0.01   0.01   0.01
  10   1    -0.03   0.03  -0.02    -0.03   0.04  -0.02     0.01  -0.01   0.01
  11   1     0.01   0.01  -0.02    -0.00  -0.00   0.00     0.01   0.01  -0.01
  12   1     0.03   0.03   0.02    -0.03  -0.04  -0.02    -0.01  -0.01  -0.01
  13   1     0.05  -0.05   0.04    -0.06   0.06  -0.05    -0.07   0.02  -0.03
  14   1     0.07   0.15  -0.22    -0.07  -0.14   0.21     0.21   0.36  -0.47
  15   1     0.32   0.47   0.23    -0.32  -0.47  -0.23    -0.15  -0.23  -0.08
                     37                     38                     39
                        a                      a                      a 
 Frequencies --  3042.0435              3053.0686              3053.5312
 Red. masses --     1.6291                 1.6093                 1.5989
 Frc consts  --     0.0000                 0.0000                 0.0000
 IR Inten    --    75.4120                14.6550                45.7271
 Raman Activ --     0.0000                 0.0000                 0.0000
 Depolar     --     0.0000                 0.0000                 0.0000
 Atom AN      X      Y      Z        X      Y      Z        X      Y      Z
   1   6    -0.00   0.05   0.16     0.13   0.08   0.07     0.12   0.08   0.07
   2   6    -0.00   0.00   0.01     0.00   0.00   0.01     0.00  -0.00   0.00
   3   8     0.00  -0.00  -0.00     0.00   0.00  -0.00     0.00  -0.00  -0.00
   4   6    -0.00  -0.00   0.01    -0.00   0.00  -0.01     0.00   0.00   0.00
   5   6    -0.00  -0.05   0.16    -0.13   0.08  -0.07     0.12  -0.08   0.07
   6   1     0.21  -0.37  -0.47     0.00   0.03   0.04     0.00   0.03   0.04
   7   1    -0.14   0.21  -0.07     0.08  -0.08   0.05     0.09  -0.09   0.06
   8   1    -0.07  -0.02  -0.03    -0.53  -0.23  -0.35    -0.53  -0.23  -0.35
   9   1     0.01  -0.02  -0.02     0.01  -0.01  -0.01     0.00  -0.00  -0.00
  10   1    -0.01   0.01  -0.00    -0.01   0.01  -0.00    -0.01   0.01  -0.01
  11   1     0.01   0.02  -0.02    -0.01  -0.01   0.01     0.00   0.00  -0.00
  12   1    -0.01  -0.01  -0.00     0.01   0.01   0.00    -0.01  -0.01  -0.01
  13   1    -0.07   0.02  -0.03     0.53  -0.23   0.35    -0.53   0.23  -0.35
  14   1     0.21   0.36  -0.47    -0.00   0.03  -0.04     0.00  -0.03   0.04
  15   1    -0.13  -0.21  -0.07    -0.08  -0.08  -0.05     0.09   0.09   0.06
