      -----------------------------------------------------------      
     |                   =====================                   |     
     |                           x T B                           |     
     |                   =====================                   |     
     |                         S. Grimme                         |     
     |          Mulliken Center for Theoretical Chemistry        |     
     |                    University of Bonn                     |     
      -----------------------------------------------------------      

   * xtb version 6.7.1 (edcfbbe) compiled by 'albert@albert-system' on 2024-07-22

   xtb is free software: you can redistribute it and/or modify it under
   the terms of the GNU Lesser General Public License as published by
   the Free Software Foundation, either version 3 of the License, or
   (at your option) any later version.
   
   xtb is distributed in the hope that it will be useful,
   but WITHOUT ANY WARRANTY; without even the implied warranty of
   MERCHANTABILITY or FITNESS FOR A PARTICULAR PURPOSE.  See the
   GNU Lesser General Public License for more details.
   
   Cite this work as:
   * C. Bannwarth, E. Caldeweyher, S. Ehlert, A. Hansen, P. Pracht,
     J. Seibert, S. Spicher, S. Grimme, WIREs Comput. Mol. Sci., 2020, 11,
     e01493. DOI: 10.1002/wcms.1493
   
   for GFN2-xTB:
   * C. Bannwarth, S. Ehlert and S. Grimme., J. Chem. Theory Comput., 2019,
     15, 1652-1671. DOI: 10.1021/acs.jctc.8b01176
   for GFN1-xTB:
   * S. Grimme, C. Bannwarth, P. Shushkov, J. Chem. Theory Comput., 2017,
     13, 1989-2009. DOI: 10.1021/acs.jctc.7b00118
   for GFN0-xTB:
   * P. Pracht, E. Caldeweyher, S. Ehlert, S. Grimme, ChemRxiv, 2019, preprint.
     DOI: 10.26434/chemrxiv.8326202.v1
   for GFN-FF:
   * S. Spicher and S. Grimme, Angew. Chem. Int. Ed., 2020, 59, 15665-15673.
     DOI: 10.1002/anie.202004239
   
   for ALPB and GBSA implicit solvation:
   * S. Ehlert, M. Stahn, S. Spicher, S. Grimme, J. Chem. Theory Comput.,
     2021, 17, 4250-4261. DOI: 10.1021/acs.jctc.1c00471
   
   for ddCOSMO and CPCM-X implicit solvation:
   * M. Stahn, S. Ehlert, S. Grimme, J. Phys. Chem. A,
     2023, XX, XXXX-XXXX. DOI: 10.1021/acs.jpca.3c04382
   
   for DFT-D4:
   * E. Caldeweyher, C. Bannwarth and S. Grimme, J. Chem. Phys., 2017,
     147, 034112. DOI: 10.1063/1.4993215
   * E. Caldeweyher, S. Ehlert, A. Hansen, H. Neugebauer, S. Spicher,
     C. Bannwarth and S. Grimme, J. Chem. Phys., 2019, 150, 154122.
     DOI: 10.1063/1.5090222
   * E. Caldeweyher, J.-M. Mewes, S. Ehlert and S. Grimme, Phys. Chem. Chem. Phys.
     2020, 22, 8499-8512. DOI: 10.1039/D0CP00502A
   
   for sTDA-xTB:
   * S. Grimme and C. Bannwarth, J. Chem. Phys., 2016, 145, 054103.
     DOI: 10.1063/1.4959605
   
   in the mass-spec context:
   * V. Asgeirsson, C. Bauer and S. Grimme, Chem. Sci., 2017, 8, 4879.
     DOI: 10.1039/c7sc00601b
   * J. Koopman and S. Grimme, ACS Omega 2019, 4, 12, 15120-15133.
     DOI: 10.1021/acsomega.9b02011
   
   for metadynamics refer to:
   * S. Grimme, J. Chem. Theory Comput., 2019, 155, 2847-2862
     DOI: 10.1021/acs.jctc.9b00143
   
   for SPH calculations refer to:
   * S. Spicher and S. Grimme, J. Chem. Theory Comput., 2021, 17, 1701-1714
     DOI: 10.1021/acs.jctc.0c01306
   
   for ONIOM refer to:
   * C. Plett, A. Katbashev, S. Ehlert, S. Grimme, M. Bursch,
     Phys. Chem. Chem. Phys., 2023, 25, 17860-17868. DOI: 10.1039/D3CP02178E
   
   for DIPRO refer to:
   * J. Kohn, N. Gildemeister, S. Grimme, D. Fazzi, A. Hansen,
     J. Chem. Phys., 2023, just accepted.
   
   for PTB refer to:
   * S. Grimme, M. Mueller, A. Hansen, J. Chem. Phys., 2023, 158, 124111.
     DOI: 10.1063/5.0137838
   
   with help from (in alphabetical order)
   P. Atkinson, C. Bannwarth, F. Bohle, G. Brandenburg, E. Caldeweyher
   M. Checinski, S. Dohm, S. Ehlert, S. Ehrlich, I. Gerasimov, C. Hölzer
   A. Katbashev, J. Kohn, J. Koopman, C. Lavigne, S. Lehtola, F. März, M. Müller,
   F. Musil, H. Neugebauer, J. Pisarek, C. Plett, P. Pracht, F. Pultar,
   J. Seibert, P. Shushkov, S. Spicher, M. Stahn, M. Steiner, T. Strunk,
   J. Stückrath, T. Rose, and J. Unsleber
   
 * started run on 2025/04/07 at 02:45:59.774     
   ID    Z sym.   atoms
    1    6 C      1, 2, 4, 5
    2    8 O      3
    3    1 H      6-15

           -------------------------------------------------
          |                Calculation Setup                |
           -------------------------------------------------

          program call               : /srv/scratch/z5358697/.xtb/bin/xtb xtb_rrho.coord --gfn2 --bhess vtight --chrg 0 --enso --norestart -I rrho-xcontrol-inp --parallel 1 --alpb water
          hostname                   : k140
          coordinate file            : xtb_rrho.coord
          omp threads                :                     1


           -------------------------------------------------
          |                 G F N 2 - x T B                 |
           -------------------------------------------------

        Reference                      10.1021/acs.jctc.8b01176
      * Hamiltonian:
        H0-scaling (s, p, d)           1.850000    2.230000    2.230000
        zeta-weighting                 0.500000
      * Dispersion:
        s8                             2.700000
        a1                             0.520000
        a2                             5.000000
        s9                             5.000000
      * Repulsion:
        kExp                           1.500000    1.000000
        rExp                           1.000000
      * Coulomb:
        alpha                          2.000000
        third order                    shell-resolved
        anisotropic                    true
        a3                             3.000000
        a5                             4.000000
        cn-shift                       1.200000
        cn-exp                         4.000000
        max-rad                        5.000000

      * Solvation model:               ALPB
        Solvent                        water
        Parameter file                 internal GFN2-xTB/ALPB
        Dielectric constant                8.0200E+01
        Reference state                gsolv [1 M gas/solution]
        Free energy shift                  1.0808E-03 Eh       6.7819E-01 kcal/mol
        Temperature                        2.9815E+02 K
        Density                            1.0000E+00 kg/L
        Solvent mass                       1.8000E+01 g/mol
        Interaction kernel             P16
        Born radius scaling (c1)           1.4744E+00
        Born radii integrator          GBOBC
        Born offset                        0.0000E+00 a0       0.0000E+00 AA
        H-bond correction              true
        Ion screening                  false
        Surface tension                    1.0000E-05 Eh       1.5569E+01 dyn/cm
        Grid points                               974 per atom

          ...................................................
          :                      SETUP                      :
          :.................................................:
          :  # basis functions                  30          :
          :  # atomic orbitals                  30          :
          :  # shells                           20          :
          :  # electrons                        32          :
          :  max. iterations                   250          :
          :  Hamiltonian                  GFN2-xTB          :
          :  restarted?                      false          :
          :  GBSA solvation                   true          :
          :  PC potential                    false          :
          :  electronic temp.          300.0000000     K    :
          :  accuracy                    1.0000000          :
          :  -> integral cutoff          0.2500000E+02      :
          :  -> integral neglect         0.1000000E-07      :
          :  -> SCF convergence          0.1000000E-05 Eh   :
          :  -> wf. convergence          0.1000000E-03 e    :
          :  Broyden damping             0.4000000          :
          :  net charge                          0          :
          :  unpaired electrons                  0          :
          ...................................................

 iter      E             dE          RMSdq      gap      omega  full diag
   1    -17.8842950 -0.178843E+02  0.353E+00   11.34       0.0  T
   2    -17.9233692 -0.390741E-01  0.170E+00   10.93       1.0  T
   3    -17.9240102 -0.641002E-03  0.713E-01   10.98       1.0  T
   4    -17.9241632 -0.152981E-03  0.114E-01   11.00       1.0  T
   5    -17.9241788 -0.155902E-04  0.615E-02   11.02       1.0  T
   6    -17.9241799 -0.117197E-05  0.733E-03   11.03       3.5  T
   7    -17.9241801 -0.143243E-06  0.236E-03   11.03      10.9  T
   8    -17.9241801 -0.490640E-08  0.109E-03   11.03      23.7  T
   9    -17.9241801 -0.375422E-08  0.150E-04   11.03     172.1  T
  10    -17.9241801  0.639915E-10  0.107E-04   11.03     241.3  T

   *** convergence criteria satisfied after 10 iterations ***

         #    Occupation            Energy/Eh            Energy/eV
      -------------------------------------------------------------
         1        2.0000           -0.6923415             -18.8396
       ...           ...                  ...                  ...
        10        2.0000           -0.4901258             -13.3370
        11        2.0000           -0.4688647             -12.7585
        12        2.0000           -0.4600979             -12.5199
        13        2.0000           -0.4591439             -12.4939
        14        2.0000           -0.4439582             -12.0807
        15        2.0000           -0.4274655             -11.6319
        16        2.0000           -0.3996766             -10.8758 (HOMO)
        17                          0.0055504               0.1510 (LUMO)
        18                          0.0728897               1.9834
        19                          0.1148628               3.1256
        20                          0.1208843               3.2894
        21                          0.1252340               3.4078
       ...                                ...                  ...
        30                          0.2839888               7.7277
      -------------------------------------------------------------
                  HL-Gap            0.4052270 Eh           11.0268 eV
             Fermi-level           -0.1970631 Eh           -5.3624 eV

 SCC (total)                   0 d,  0 h,  0 min,  0.025 sec
 SCC setup                      ...        0 min,  0.001 sec (  2.674%)
 Dispersion                     ...        0 min,  0.000 sec (  0.198%)
 classical contributions        ...        0 min,  0.000 sec (  0.051%)
 integral evaluation            ...        0 min,  0.001 sec (  2.699%)
 iterations                     ...        0 min,  0.022 sec ( 86.445%)
 molecular gradient             ...        0 min,  0.002 sec (  7.550%)
 printout                       ...        0 min,  0.000 sec (  0.341%)

         :::::::::::::::::::::::::::::::::::::::::::::::::::::
         ::                     SUMMARY                     ::
         :::::::::::::::::::::::::::::::::::::::::::::::::::::
         :: total energy             -17.721506442063 Eh    ::
         :: total w/o Gsasa/hb       -17.721863874707 Eh    ::
         :: gradient norm              0.026279370785 Eh/a0 ::
         :: HOMO-LUMO gap             11.026788616528 eV    ::
         ::.................................................::
         :: SCC energy               -17.924167755944 Eh    ::
         :: -> isotropic ES            0.027510068733 Eh    ::
         :: -> anisotropic ES          0.003970537933 Eh    ::
         :: -> anisotropic XC          0.006698620025 Eh    ::
         :: -> dispersion             -0.007247932626 Eh    ::
         :: -> Gsolv                  -0.003537004400 Eh    ::
         ::    -> Gelec               -0.003894437044 Eh    ::
         ::    -> Gsasa                0.000240312720 Eh    ::
         ::    -> Ghb                 -0.000963639774 Eh    ::
         ::    -> Gshift               0.001080759698 Eh    ::
         :: repulsion energy           0.202661313881 Eh    ::
         :: add. restraining           0.000000000000 Eh    ::
         :: total charge              -0.000000000000 e     ::
         :::::::::::::::::::::::::::::::::::::::::::::::::::::

metadynamics with 1 initial structures loaded
           -------------------------------------------------
          |           Optimal kpush determination           |
           -------------------------------------------------
      ----------------------------------------------------------- 
     |                   =====================                   |
     |                        A N C O P T                        |
     |                   =====================                   |
     |               Approximate Normal Coordinate               |
     |                Rational Function Optimizer                |
      ----------------------------------------------------------- 
target rmsd / Å         0.100000
unbiased initial rmsd   0.120817
 
iter. min.        max.        rmsd       kpush
      ----------------------------------------------------------- 
     |                   =====================                   |
     |                        A N C O P T                        |
     |                   =====================                   |
     |               Approximate Normal Coordinate               |
     |                Rational Function Optimizer                |
      ----------------------------------------------------------- 
 1    0.000000    0.681818    0.010748   -0.340909
      ----------------------------------------------------------- 
     |                   =====================                   |
     |                        A N C O P T                        |
     |                   =====================                   |
     |               Approximate Normal Coordinate               |
     |                Rational Function Optimizer                |
      ----------------------------------------------------------- 
 2    0.000000    0.340909    0.013386   -0.170455
      ----------------------------------------------------------- 
     |                   =====================                   |
     |                        A N C O P T                        |
     |                   =====================                   |
     |               Approximate Normal Coordinate               |
     |                Rational Function Optimizer                |
      ----------------------------------------------------------- 
 3    0.000000    0.170455    0.016480   -0.085227
      ----------------------------------------------------------- 
     |                   =====================                   |
     |                        A N C O P T                        |
     |                   =====================                   |
     |               Approximate Normal Coordinate               |
     |                Rational Function Optimizer                |
      ----------------------------------------------------------- 
 4    0.000000    0.085227    0.020675   -0.042614
      ----------------------------------------------------------- 
     |                   =====================                   |
     |                        A N C O P T                        |
     |                   =====================                   |
     |               Approximate Normal Coordinate               |
     |                Rational Function Optimizer                |
      ----------------------------------------------------------- 
 5    0.000000    0.042614    0.026676   -0.021307
      ----------------------------------------------------------- 
     |                   =====================                   |
     |                        A N C O P T                        |
     |                   =====================                   |
     |               Approximate Normal Coordinate               |
     |                Rational Function Optimizer                |
      ----------------------------------------------------------- 
 6    0.000000    0.021307    0.034680   -0.010653
      ----------------------------------------------------------- 
     |                   =====================                   |
     |                        A N C O P T                        |
     |                   =====================                   |
     |               Approximate Normal Coordinate               |
     |                Rational Function Optimizer                |
      ----------------------------------------------------------- 
 7    0.000000    0.010653    0.043901   -0.005327
      ----------------------------------------------------------- 
     |                   =====================                   |
     |                        A N C O P T                        |
     |                   =====================                   |
     |               Approximate Normal Coordinate               |
     |                Rational Function Optimizer                |
      ----------------------------------------------------------- 
 8    0.000000    0.005327    0.054758   -0.002663
      ----------------------------------------------------------- 
     |                   =====================                   |
     |                        A N C O P T                        |
     |                   =====================                   |
     |               Approximate Normal Coordinate               |
     |                Rational Function Optimizer                |
      ----------------------------------------------------------- 
 9    0.000000    0.002663    0.067155   -0.001332
      ----------------------------------------------------------- 
     |                   =====================                   |
     |                        A N C O P T                        |
     |                   =====================                   |
     |               Approximate Normal Coordinate               |
     |                Rational Function Optimizer                |
      ----------------------------------------------------------- 
10    0.000000    0.001332    0.080568   -0.000666
final kpush: -0.000666
           -------------------------------------------------
          |            Biased Numerical Hessian             |
           -------------------------------------------------
kpush                :  -0.00067
alpha                :   1.00000
step length          :   0.00500
SCC accuracy         :   0.30000
Hessian scale factor :   1.00000
frozen atoms in %    :   0.00000    0
RMS gradient         :   0.00002
estimated CPU  time      0.01 min
estimated wall time      0.01 min

writing file <hessian>.

 projected vibrational frequencies (cm⁻¹)
eigval :       -0.00    -0.00     0.00     0.00     0.00     0.00
eigval :       47.63   134.79   207.88   270.45   288.85   436.83
eigval :      479.69   807.85   817.19   864.82   936.02  1047.64
eigval :     1067.99  1082.38  1109.41  1123.49  1181.06  1251.61
eigval :     1280.17  1326.52  1327.34  1393.43  1393.90  1460.51
eigval :     1461.86  1483.92  1486.65  1493.82  1496.33  2888.47
eigval :     2890.64  2965.45  2965.98  3036.91  3037.08  3041.90
eigval :     3042.04  3053.07  3053.53
           -------------------------------------------------
          |                Property Printout                |
           -------------------------------------------------

    * Orbital Energies and Occupations

         #    Occupation            Energy/Eh            Energy/eV
      -------------------------------------------------------------
         1        2.0000           -0.6966576             -18.9570
       ...           ...                  ...                  ...
         4        2.0000           -0.5962878             -16.2258
         5        2.0000           -0.5644894             -15.3605
         6        2.0000           -0.5491790             -14.9439
         7        2.0000           -0.5458589             -14.8536
         8        2.0000           -0.5167397             -14.0612
         9        2.0000           -0.4970389             -13.5251
        10        2.0000           -0.4919355             -13.3862
        11        2.0000           -0.4681779             -12.7398
        12        2.0000           -0.4614543             -12.5568
        13        2.0000           -0.4603014             -12.5254
        14        2.0000           -0.4437932             -12.0762
        15        2.0000           -0.4264884             -11.6053
        16        2.0000           -0.3986598             -10.8481 (HOMO)
        17                          0.0235275               0.6402 (LUMO)
        18                          0.0862613               2.3473
        19                          0.1185927               3.2271
        20                          0.1232381               3.3535
        21                          0.1236077               3.3635
        22                          0.1493168               4.0631
        23                          0.1680641               4.5733
        24                          0.1951526               5.3104
        25                          0.2006930               5.4611
        26                          0.2086040               5.6764
        27                          0.2476221               6.7381
       ...                                ...                  ...
        30                          0.2994478               8.1484
      -------------------------------------------------------------
                  HL-Gap            0.4221872 Eh           11.4883 eV
             Fermi-level           -0.1875662 Eh           -5.1039 eV

     #   Z          covCN         q      C6AA      α(0)
     1   6 C        3.750    -0.125    22.969     6.835
     2   6 C        3.685     0.077    19.484     6.320
     3   8 O        1.698    -0.371    20.271     6.079
     4   6 C        3.685     0.077    19.484     6.320
     5   6 C        3.750    -0.125    22.969     6.835
     6   1 H        0.925     0.051     2.305     2.374
     7   1 H        0.925     0.047     2.354     2.399
     8   1 H        0.925     0.054     2.273     2.358
     9   1 H        0.924     0.030     2.593     2.518
    10   1 H        0.924     0.052     2.300     2.371
    11   1 H        0.924     0.030     2.593     2.518
    12   1 H        0.924     0.052     2.300     2.371
    13   1 H        0.925     0.054     2.273     2.358
    14   1 H        0.925     0.051     2.305     2.374
    15   1 H        0.925     0.047     2.354     2.399

 Mol. C6AA /au·bohr⁶  :       1459.602029
 Mol. C8AA /au·bohr⁸  :      29709.737486
 Mol. α(0) /au        :         56.430227


Wiberg/Mayer (AO) data.
largest (>0.10) Wiberg bond orders for each atom

 ---------------------------------------------------------------------------
     #   Z sym  total        # sym  WBO       # sym  WBO       # sym  WBO
 ---------------------------------------------------------------------------
     1   6 C    3.994 --     2 C    1.011     6 H    0.986     7 H    0.985
                             8 H    0.984
     2   6 C    3.948 --     1 C    1.011     3 O    0.973    10 H    0.971
                             9 H    0.969
     3   8 O    2.046 --     4 C    0.973     2 C    0.973
     4   6 C    3.948 --     5 C    1.011     3 O    0.973    12 H    0.971
                            11 H    0.969
     5   6 C    3.994 --     4 C    1.011    14 H    0.986    15 H    0.985
                            13 H    0.984
     6   1 H    0.997 --     1 C    0.986
     7   1 H    0.998 --     1 C    0.985
     8   1 H    0.997 --     1 C    0.984
     9   1 H    0.999 --     2 C    0.969
    10   1 H    0.997 --     2 C    0.971
    11   1 H    0.999 --     4 C    0.969
    12   1 H    0.997 --     4 C    0.971
    13   1 H    0.997 --     5 C    0.984
    14   1 H    0.997 --     5 C    0.986
    15   1 H    0.998 --     5 C    0.985
 ---------------------------------------------------------------------------

Topologies differ in total number of bonds
Writing topology from bond orders to xtbtopo.mol

molecular dipole:
                 x           y           z       tot (Debye)
 q only:        0.000       0.638      -0.000
   full:        0.000       0.753      -0.000       1.913
molecular quadrupole (traceless):
                xx          xy          yy          xz          yz          zz
 q only:        2.907      -0.000      -2.714       1.133      -0.000      -0.192
  q+dip:        2.204      -0.000      -2.638       0.797      -0.000       0.434
   full:        2.605      -0.000      -2.876       1.131      -0.000       0.270

           -------------------------------------------------
          |                Geometry Summary                 |
           -------------------------------------------------

      molecular mass/u    :       74.1217560
   center of mass at/Å    :       -0.0000247      -0.0037096      -0.0000848
  moments of inertia/u·Å² :        0.5626944E+02   0.1673382E+03   0.1788876E+03
rotational constants/cm⁻¹ :        0.2995877E+00   0.1007399E+00   0.9423587E-01

 * 14 selected distances

     #   Z          #   Z                                           value/Å
     1   6 C        2   6 C                                       1.5268068
     2   6 C        3   8 O                                       1.4197820
     3   8 O        4   6 C                                       1.4197821
     4   6 C        5   6 C                                       1.5268070 (max)
     1   6 C        6   1 H                                       1.0871879
     1   6 C        7   1 H                                       1.0870304
     1   6 C        8   1 H                                       1.0856356 (min)
     2   6 C        9   1 H                                       1.0973536
     2   6 C       10   1 H                                       1.0927207
     4   6 C       11   1 H                                       1.0973537
     4   6 C       12   1 H                                       1.0927206
     5   6 C       13   1 H                                       1.0856356
     5   6 C       14   1 H                                       1.0871880
     5   6 C       15   1 H                                       1.0870303

 * 3 distinct bonds (by element types)

   Z      Z             #   av. dist./Å        max./Å        min./Å
   1 H    6 C          10     1.0899857     1.0973537     1.0856356
   6 C    6 C           2     1.5268069     1.5268070     1.5268068
   6 C    8 O           2     1.4197821     1.4197821     1.4197820

           -------------------------------------------------
          |               Frequency Printout                |
           -------------------------------------------------
 projected vibrational frequencies (cm⁻¹)
eigval :       -0.00    -0.00     0.00     0.00     0.00     0.00
eigval :       47.63   134.79   207.88   270.45   288.85   436.83
eigval :      479.69   807.85   817.19   864.82   936.02  1047.64
eigval :     1067.99  1082.38  1109.41  1123.49  1181.06  1251.61
eigval :     1280.17  1326.52  1327.34  1393.43  1393.90  1460.51
eigval :     1461.86  1483.92  1486.65  1493.82  1496.33  2888.47
eigval :     2890.64  2965.45  2965.98  3036.91  3037.08  3041.90
eigval :     3042.04  3053.07  3053.53
 reduced masses (amu)
   1: 11.42   2: 11.57   3: 11.37   4:  9.72   5:  9.48   6:  8.50   7:  7.99   8:  4.96
   9:  1.32  10:  4.91  11:  8.08  12: 10.69  13:  9.08  14:  2.15  15:  5.49  16:  6.33
  17:  8.19  18:  7.96  19:  9.29  20:  6.99  21:  8.85  22:  6.40  23:  6.66  24:  2.33
  25:  2.59  26:  3.60  27:  3.09  28:  3.15  29:  3.14  30:  1.87  31:  1.77  32:  1.57
  33:  1.56  34:  1.54  35:  1.61  36:  1.76  37:  1.75  38:  1.67  39:  1.66  40:  1.93
  41:  1.93  42:  1.62  43:  1.63  44:  1.61  45:  1.60
 IR intensities (km·mol⁻¹)
   1:  0.61   2:  0.09   3:  0.65   4:  0.43   5:  0.21   6:  1.67   7:  0.13   8:  5.34
   9:  0.27  10:  3.69  11:  0.37  12: 15.93  13:  6.56  14:  9.42  15: 22.11  16:  3.97
  17: 12.34  18: 26.84  19: 36.62  20:  0.07  21:126.21  22: 48.90  23: 17.32  24:  1.97
  25:  1.96  26: 22.69  27: 23.38  28:  5.69  29: 13.80  30:  1.05  31:  0.02  32:  3.47
  33:  3.34  34:  1.76  35:  0.59  36:120.40  37: 48.05  38: 32.51  39: 65.14  40: 75.52
  41: 43.81  42:  1.62  43: 75.41  44: 14.66  45: 45.73
 Raman intensities (Ä⁴*amu⁻¹)
   1:  0.00   2:  0.00   3:  0.00   4:  0.00   5:  0.00   6:  0.00   7:  0.00   8:  0.00
   9:  0.00  10:  0.00  11:  0.00  12:  0.00  13:  0.00  14:  0.00  15:  0.00  16:  0.00
  17:  0.00  18:  0.00  19:  0.00  20:  0.00  21:  0.00  22:  0.00  23:  0.00  24:  0.00
  25:  0.00  26:  0.00  27:  0.00  28:  0.00  29:  0.00  30:  0.00  31:  0.00  32:  0.00
  33:  0.00  34:  0.00  35:  0.00  36:  0.00  37:  0.00  38:  0.00  39:  0.00  40:  0.00
  41:  0.00  42:  0.00  43:  0.00  44:  0.00  45:  0.00
 output can be read by thermo (or use thermo option).
 writing <g98.out> molden fake output.
 recommended (thermochemical) frequency scaling factor: 1.0
           -------------------------------------------------
          |             Thermodynamic Functions             |
           -------------------------------------------------

Molecule has the following symmetry elements: (C2) 
It seems to be the C2 point group
c2  symmetry found (for desy threshold:  0.10E+00) used in thermo

          ...................................................
          :                      SETUP                      :
          :.................................................:
          :  # frequencies                          39      :
          :  # imaginary freq.                       0      :
          :  linear?                             false      :
          :  only rotor calc.                    false      :
          :  symmetry                               c2      :
          :  rotational number                       2      :
          :  scaling factor                  1.0000000      :
          :  rotor cutoff                    0.0000000 cm⁻¹ :
          :  imag. cutoff                 -100.0000000 cm⁻¹ :
          :.................................................:

    mode    ω/cm⁻¹     T·S(HO)/kcal·mol⁻¹    T·S(FR)/kcal·mol⁻¹   T·S(vib)
   ------------------------------------------------------------------------
       1     47.63    -1.46490 (100.00%)    -1.07014 (  0.00%)    -1.46490
       2    134.79    -0.85762 (100.00%)    -0.76248 (  0.00%)    -0.85762
       3    207.88    -0.61486 (100.00%)    -0.63425 (  0.00%)    -0.61486
       4    270.45    -0.47505 (100.00%)    -0.55634 (  0.00%)    -0.47505
       5    288.85    -0.44146 (100.00%)    -0.53684 (  0.00%)    -0.44146
   ------------------------------------------------------------------------

   temp. (K)  partition function   enthalpy   heat capacity  entropy
                                   cal/mol     cal/K/mol   cal/K/mol   J/K/mol
 298.15  VIB   41.4                 2490.060     17.081     15.753
         ROT  0.496E+05              888.752      2.981     24.466
         INT  0.205E+07             3378.812     20.062     40.218
         TR   0.617E+27             1481.254      4.968     38.808
         TOT                        4860.0659    25.0298    79.0258   330.6440

       T/K    H(0)-H(T)+PV         H(T)/Eh          T*S/Eh         G(T)/Eh
   ------------------------------------------------------------------------
    298.15    0.774501E-02    0.141553E+00    0.375477E-01    0.104006E+00
   ------------------------------------------------------------------------

         :::::::::::::::::::::::::::::::::::::::::::::::::::::
         ::                  THERMODYNAMIC                  ::
         :::::::::::::::::::::::::::::::::::::::::::::::::::::
         :: total free energy         -17.619291770989 Eh   ::
         ::.................................................::
         :: total energy              -17.723297504305 Eh   ::
         :: zero point energy           0.133808437828 Eh   ::
         :: G(RRHO) w/o ZPVE           -0.029802704511 Eh   ::
         :: G(RRHO) contrib.            0.104005733317 Eh   ::
         :::::::::::::::::::::::::::::::::::::::::::::::::::::

optimized geometry written to: xtbopt.coord


           -------------------------------------------------
          | TOTAL ENERGY              -17.723297504305 Eh   |
          | TOTAL ENTHALPY            -17.581744058503 Eh   |
          | TOTAL FREE ENERGY         -17.619291770989 Eh   |
          | GRADIENT NORM               0.000024401486 Eh/α |
          | HOMO-LUMO GAP              11.488299416474 eV   |
           -------------------------------------------------

------------------------------------------------------------------------
 * finished run on 2025/04/07 at 02:46:01.391     
------------------------------------------------------------------------
 total:
 * wall-time:     0 d,  0 h,  0 min,  1.617 sec
 *  cpu-time:     0 d,  0 h,  0 min,  1.464 sec
 * ratio c/w:     0.905 speedup
 SCF:
 * wall-time:     0 d,  0 h,  0 min,  0.025 sec
 *  cpu-time:     0 d,  0 h,  0 min,  0.007 sec
 * ratio c/w:     0.280 speedup
 analytical hessian:
 * wall-time:     0 d,  0 h,  0 min,  0.367 sec
 *  cpu-time:     0 d,  0 h,  0 min,  0.360 sec
 * ratio c/w:     0.980 speedup

