      -----------------------------------------------------------      
     |                   =====================                   |     
     |                           x T B                           |     
     |                   =====================                   |     
     |                         S. Grimme                         |     
     |          Mulliken Center for Theoretical Chemistry        |     
     |                    University of Bonn                     |     
      -----------------------------------------------------------      

   * xtb version 6.7.1 (edcfbbe) compiled by 'albert@albert-system' on 2024-07-22

   xtb is free software: you can redistribute it and/or modify it under
   the terms of the GNU Lesser General Public License as published by
   the Free Software Foundation, either version 3 of the License, or
   (at your option) any later version.
   
   xtb is distributed in the hope that it will be useful,
   but WITHOUT ANY WARRANTY; without even the implied warranty of
   MERCHANTABILITY or FITNESS FOR A PARTICULAR PURPOSE.  See the
   GNU Lesser General Public License for more details.
   
   Cite this work as:
   * C. Bannwarth, E. Caldeweyher, S. Ehlert, A. Hansen, P. Pracht,
     J. Seibert, S. Spicher, S. Grimme, WIREs Comput. Mol. Sci., 2020, 11,
     e01493. DOI: 10.1002/wcms.1493
   
   for GFN2-xTB:
   * C. Bannwarth, S. Ehlert and S. Grimme., J. Chem. Theory Comput., 2019,
     15, 1652-1671. DOI: 10.1021/acs.jctc.8b01176
   for GFN1-xTB:
   * S. Grimme, C. Bannwarth, P. Shushkov, J. Chem. Theory Comput., 2017,
     13, 1989-2009. DOI: 10.1021/acs.jctc.7b00118
   for GFN0-xTB:
   * P. Pracht, E. Caldeweyher, S. Ehlert, S. Grimme, ChemRxiv, 2019, preprint.
     DOI: 10.26434/chemrxiv.8326202.v1
   for GFN-FF:
   * S. Spicher and S. Grimme, Angew. Chem. Int. Ed., 2020, 59, 15665-15673.
     DOI: 10.1002/anie.202004239
   
   for ALPB and GBSA implicit solvation:
   * S. Ehlert, M. Stahn, S. Spicher, S. Grimme, J. Chem. Theory Comput.,
     2021, 17, 4250-4261. DOI: 10.1021/acs.jctc.1c00471
   
   for ddCOSMO and CPCM-X implicit solvation:
   * M. Stahn, S. Ehlert, S. Grimme, J. Phys. Chem. A,
     2023, XX, XXXX-XXXX. DOI: 10.1021/acs.jpca.3c04382
   
   for DFT-D4:
   * E. Caldeweyher, C. Bannwarth and S. Grimme, J. Chem. Phys., 2017,
     147, 034112. DOI: 10.1063/1.4993215
   * E. Caldeweyher, S. Ehlert, A. Hansen, H. Neugebauer, S. Spicher,
     C. Bannwarth and S. Grimme, J. Chem. Phys., 2019, 150, 154122.
     DOI: 10.1063/1.5090222
   * E. Caldeweyher, J.-M. Mewes, S. Ehlert and S. Grimme, Phys. Chem. Chem. Phys.
     2020, 22, 8499-8512. DOI: 10.1039/D0CP00502A
   
   for sTDA-xTB:
   * S. Grimme and C. Bannwarth, J. Chem. Phys., 2016, 145, 054103.
     DOI: 10.1063/1.4959605
   
   in the mass-spec context:
   * V. Asgeirsson, C. Bauer and S. Grimme, Chem. Sci., 2017, 8, 4879.
     DOI: 10.1039/c7sc00601b
   * J. Koopman and S. Grimme, ACS Omega 2019, 4, 12, 15120-15133.
     DOI: 10.1021/acsomega.9b02011
   
   for metadynamics refer to:
   * S. Grimme, J. Chem. Theory Comput., 2019, 155, 2847-2862
     DOI: 10.1021/acs.jctc.9b00143
   
   for SPH calculations refer to:
   * S. Spicher and S. Grimme, J. Chem. Theory Comput., 2021, 17, 1701-1714
     DOI: 10.1021/acs.jctc.0c01306
   
   for ONIOM refer to:
   * C. Plett, A. Katbashev, S. Ehlert, S. Grimme, M. Bursch,
     Phys. Chem. Chem. Phys., 2023, 25, 17860-17868. DOI: 10.1039/D3CP02178E
   
   for DIPRO refer to:
   * J. Kohn, N. Gildemeister, S. Grimme, D. Fazzi, A. Hansen,
     J. Chem. Phys., 2023, just accepted.
   
   for PTB refer to:
   * S. Grimme, M. Mueller, A. Hansen, J. Chem. Phys., 2023, 158, 124111.
     DOI: 10.1063/5.0137838
   
   with help from (in alphabetical order)
   P. Atkinson, C. Bannwarth, F. Bohle, G. Brandenburg, E. Caldeweyher
   M. Checinski, S. Dohm, S. Ehlert, S. Ehrlich, I. Gerasimov, C. Hölzer
   A. Katbashev, J. Kohn, J. Koopman, C. Lavigne, S. Lehtola, F. März, M. Müller,
   F. Musil, H. Neugebauer, J. Pisarek, C. Plett, P. Pracht, F. Pultar,
   J. Seibert, P. Shushkov, S. Spicher, M. Stahn, M. Steiner, T. Strunk,
   J. Stückrath, T. Rose, and J. Unsleber
   
 * started run on 2025/04/07 at 00:46:57.495     
   ID    Z sym.   atoms
    1    6 C      1-6, 8
    2    8 O      7, 9
    3    1 H      10-15

           -------------------------------------------------
          |                Calculation Setup                |
           -------------------------------------------------

          program call               : /srv/scratch/z5358697/.xtb/bin/xtb gas.coord --gfn2 --sp --chrg 0 --norestart --parallel 1
          hostname                   : k157
          coordinate file            : gas.coord
          omp threads                :                     1


           -------------------------------------------------
          |                 G F N 2 - x T B                 |
           -------------------------------------------------

        Reference                      10.1021/acs.jctc.8b01176
      * Hamiltonian:
        H0-scaling (s, p, d)           1.850000    2.230000    2.230000
        zeta-weighting                 0.500000
      * Dispersion:
        s8                             2.700000
        a1                             0.520000
        a2                             5.000000
        s9                             5.000000
      * Repulsion:
        kExp                           1.500000    1.000000
        rExp                           1.000000
      * Coulomb:
        alpha                          2.000000
        third order                    shell-resolved
        anisotropic                    true
        a3                             3.000000
        a5                             4.000000
        cn-shift                       1.200000
        cn-exp                         4.000000
        max-rad                        5.000000


          ...................................................
          :                      SETUP                      :
          :.................................................:
          :  # basis functions                  42          :
          :  # atomic orbitals                  42          :
          :  # shells                           24          :
          :  # electrons                        46          :
          :  max. iterations                   250          :
          :  Hamiltonian                  GFN2-xTB          :
          :  restarted?                      false          :
          :  GBSA solvation                  false          :
          :  PC potential                    false          :
          :  electronic temp.          300.0000000     K    :
          :  accuracy                    1.0000000          :
          :  -> integral cutoff          0.2500000E+02      :
          :  -> integral neglect         0.1000000E-07      :
          :  -> SCF convergence          0.1000000E-05 Eh   :
          :  -> wf. convergence          0.1000000E-03 e    :
          :  Broyden damping             0.4000000          :
          :  net charge                          0          :
          :  unpaired electrons                  0          :
          ...................................................

 iter      E             dE          RMSdq      gap      omega  full diag
   1    -26.4795137 -0.264795E+02  0.530E+00    4.53       0.0  T
   2    -26.5257917 -0.462779E-01  0.299E+00    4.20       1.0  T
   3    -26.5249392  0.852437E-03  0.153E+00    4.44       1.0  T
   4    -26.5322333 -0.729410E-02  0.305E-01    4.33       1.0  T
   5    -26.5329502 -0.716911E-03  0.966E-02    4.33       1.0  T
   6    -26.5330194 -0.691925E-04  0.403E-02    4.34       1.0  T
   7    -26.5330221 -0.268376E-05  0.155E-02    4.34       1.7  T
   8    -26.5330230 -0.939318E-06  0.586E-03    4.34       4.4  T
   9    -26.5330232 -0.114498E-06  0.195E-03    4.34      13.2  T
  10    -26.5330232 -0.323267E-07  0.717E-04    4.34      36.0  T
  11    -26.5330232 -0.481499E-10  0.451E-04    4.34      57.3  T

   *** convergence criteria satisfied after 11 iterations ***

         #    Occupation            Energy/Eh            Energy/eV
      -------------------------------------------------------------
         1        2.0000           -0.7632054             -20.7679
       ...           ...                  ...                  ...
        17        2.0000           -0.5041495             -13.7186
        18        2.0000           -0.4828112             -13.1380
        19        2.0000           -0.4622310             -12.5779
        20        2.0000           -0.4505252             -12.2594
        21        2.0000           -0.4346052             -11.8262
        22        2.0000           -0.4291422             -11.6776
        23        2.0000           -0.4218382             -11.4788 (HOMO)
        24                         -0.2623354              -7.1385 (LUMO)
        25                         -0.2524498              -6.8695
        26                         -0.2331893              -6.3454
        27                         -0.1193063              -3.2465
        28                          0.0061525               0.1674
       ...                                ...                  ...
        42                          0.6442745              17.5316
      -------------------------------------------------------------
                  HL-Gap            0.1595028 Eh            4.3403 eV
             Fermi-level           -0.3420868 Eh           -9.3087 eV

 SCC (total)                   0 d,  0 h,  0 min,  0.015 sec
 SCC setup                      ...        0 min,  0.000 sec (  1.455%)
 Dispersion                     ...        0 min,  0.000 sec (  0.725%)
 classical contributions        ...        0 min,  0.000 sec (  0.143%)
 integral evaluation            ...        0 min,  0.001 sec (  9.638%)
 iterations                     ...        0 min,  0.010 sec ( 62.390%)
 molecular gradient             ...        0 min,  0.004 sec ( 24.566%)
 printout                       ...        0 min,  0.000 sec (  0.978%)

         :::::::::::::::::::::::::::::::::::::::::::::::::::::
         ::                     SUMMARY                     ::
         :::::::::::::::::::::::::::::::::::::::::::::::::::::
         :: total energy             -26.156841836637 Eh    ::
         :: gradient norm              0.031375045039 Eh/a0 ::
         :: HOMO-LUMO gap              4.340292594421 eV    ::
         ::.................................................::
         :: SCC energy               -26.533015259000 Eh    ::
         :: -> isotropic ES            0.038084687026 Eh    ::
         :: -> anisotropic ES          0.001431966803 Eh    ::
         :: -> anisotropic XC          0.008704606029 Eh    ::
         :: -> dispersion             -0.011523069957 Eh    ::
         :: repulsion energy           0.376173422364 Eh    ::
         :: add. restraining           0.000000000000 Eh    ::
         :: total charge              -0.000000000000 e     ::
         :::::::::::::::::::::::::::::::::::::::::::::::::::::

           -------------------------------------------------
          |                Property Printout                |
           -------------------------------------------------

    * Orbital Energies and Occupations

         #    Occupation            Energy/Eh            Energy/eV
      -------------------------------------------------------------
         1        2.0000           -0.7632054             -20.7679
       ...           ...                  ...                  ...
        11        2.0000           -0.5666501             -15.4193
        12        2.0000           -0.5450121             -14.8305
        13        2.0000           -0.5270967             -14.3430
        14        2.0000           -0.5240006             -14.2588
        15        2.0000           -0.5102792             -13.8854
        16        2.0000           -0.5055615             -13.7570
        17        2.0000           -0.5041495             -13.7186
        18        2.0000           -0.4828112             -13.1380
        19        2.0000           -0.4622310             -12.5779
        20        2.0000           -0.4505252             -12.2594
        21        2.0000           -0.4346052             -11.8262
        22        2.0000           -0.4291422             -11.6776
        23        2.0000           -0.4218382             -11.4788 (HOMO)
        24                         -0.2623354              -7.1385 (LUMO)
        25                         -0.2524498              -6.8695
        26                         -0.2331893              -6.3454
        27                         -0.1193063              -3.2465
        28                          0.0061525               0.1674
        29                          0.0986260               2.6838
        30                          0.1220238               3.3204
        31                          0.1307498               3.5579
        32                          0.1505724               4.0973
        33                          0.1670894               4.5467
        34                          0.1868155               5.0835
       ...                                ...                  ...
        42                          0.6442745              17.5316
      -------------------------------------------------------------
                  HL-Gap            0.1595028 Eh            4.3403 eV
             Fermi-level           -0.3420868 Eh           -9.3087 eV

     #   Z          covCN         q      C6AA      α(0)
     1   6 C        2.919    -0.030    28.758     8.794
     2   6 C        2.922    -0.025    28.633     8.775
     3   6 C        2.916    -0.049    29.221     8.864
     4   6 C        2.879     0.133    25.091     8.212
     5   6 C        2.917    -0.040    29.006     8.832
     6   6 C        2.922    -0.025    28.621     8.773
     7   8 O        1.707    -0.218    17.622     5.668
     8   6 C        2.662     0.341    21.206     7.535
     9   8 O        0.856    -0.354    20.782     6.112
    10   1 H        0.926     0.049     2.333     2.389
    11   1 H        0.926     0.050     2.319     2.381
    12   1 H        0.926     0.049     2.333     2.389
    13   1 H        0.926     0.064     2.158     2.297
    14   1 H        0.926     0.052     2.296     2.369
    15   1 H        0.922     0.005     2.981     2.700

 Mol. C6AA /au·bohr⁶  :       2958.448633
 Mol. C8AA /au·bohr⁸  :      71402.451641
 Mol. α(0) /au        :         86.089519


Wiberg/Mayer (AO) data.
largest (>0.10) Wiberg bond orders for each atom

 ---------------------------------------------------------------------------
     #   Z sym  total        # sym  WBO       # sym  WBO       # sym  WBO
 ---------------------------------------------------------------------------
     1   6 C    3.987 --     2 C    1.444     6 C    1.434    10 H    0.970
                             4 C    0.102
     2   6 C    3.991 --     1 C    1.444     3 C    1.437    11 H    0.970
                             5 C    0.112
     3   6 C    3.990 --     2 C    1.437     4 C    1.397    12 H    0.966
                             6 C    0.110
     4   6 C    3.910 --     3 C    1.397     5 C    1.388     7 O    0.964
                             1 C    0.102
     5   6 C    3.988 --     6 C    1.449     4 C    1.388    13 H    0.966
                             2 C    0.112
     6   6 C    3.990 --     5 C    1.449     1 C    1.434    14 H    0.970
                             3 C    0.110
     7   8 O    2.398 --     8 C    1.158     4 C    0.964     9 O    0.172
     8   6 C    3.921 --     9 O    1.805     7 O    1.158    15 H    0.917
     9   8 O    2.069 --     8 C    1.805     7 O    0.172
    10   1 H    0.998 --     1 C    0.970
    11   1 H    0.997 --     2 C    0.970
    12   1 H    0.998 --     3 C    0.966
    13   1 H    0.996 --     5 C    0.966
    14   1 H    0.997 --     6 C    0.970
    15   1 H    1.000 --     8 C    0.917
 ---------------------------------------------------------------------------

Topologies differ in total number of bonds
Writing topology from bond orders to xtbtopo.mol

molecular dipole:
                 x           y           z       tot (Debye)
 q only:       -1.820       0.108      -0.202
   full:       -1.947       0.031      -0.331       5.021
molecular quadrupole (traceless):
                xx          xy          yy          xz          yz          zz
 q only:       -8.416       0.565       5.711      -0.474       1.410       2.706
  q+dip:      -11.200       0.899       9.144      -0.012       3.189       2.056
   full:      -12.209       0.981       8.477      -0.664       1.481       3.732


           -------------------------------------------------
          | TOTAL ENERGY              -26.156841836637 Eh   |
          | GRADIENT NORM               0.031375045039 Eh/α |
          | HOMO-LUMO GAP               4.340292594421 eV   |
           -------------------------------------------------

------------------------------------------------------------------------
 * finished run on 2025/04/07 at 00:46:57.579     
------------------------------------------------------------------------
 total:
 * wall-time:     0 d,  0 h,  0 min,  0.083 sec
 *  cpu-time:     0 d,  0 h,  0 min,  0.021 sec
 * ratio c/w:     0.256 speedup
 SCF:
 * wall-time:     0 d,  0 h,  0 min,  0.015 sec
 *  cpu-time:     0 d,  0 h,  0 min,  0.012 sec
 * ratio c/w:     0.762 speedup

