      -----------------------------------------------------------      
     |                   =====================                   |     
     |                           x T B                           |     
     |                   =====================                   |     
     |                         S. Grimme                         |     
     |          Mulliken Center for Theoretical Chemistry        |     
     |                    University of Bonn                     |     
      -----------------------------------------------------------      

   * xtb version 6.7.1 (edcfbbe) compiled by 'albert@albert-system' on 2024-07-22

   xtb is free software: you can redistribute it and/or modify it under
   the terms of the GNU Lesser General Public License as published by
   the Free Software Foundation, either version 3 of the License, or
   (at your option) any later version.
   
   xtb is distributed in the hope that it will be useful,
   but WITHOUT ANY WARRANTY; without even the implied warranty of
   MERCHANTABILITY or FITNESS FOR A PARTICULAR PURPOSE.  See the
   GNU Lesser General Public License for more details.
   
   Cite this work as:
   * C. Bannwarth, E. Caldeweyher, S. Ehlert, A. Hansen, P. Pracht,
     J. Seibert, S. Spicher, S. Grimme, WIREs Comput. Mol. Sci., 2020, 11,
     e01493. DOI: 10.1002/wcms.1493
   
   for GFN2-xTB:
   * C. Bannwarth, S. Ehlert and S. Grimme., J. Chem. Theory Comput., 2019,
     15, 1652-1671. DOI: 10.1021/acs.jctc.8b01176
   for GFN1-xTB:
   * S. Grimme, C. Bannwarth, P. Shushkov, J. Chem. Theory Comput., 2017,
     13, 1989-2009. DOI: 10.1021/acs.jctc.7b00118
   for GFN0-xTB:
   * P. Pracht, E. Caldeweyher, S. Ehlert, S. Grimme, ChemRxiv, 2019, preprint.
     DOI: 10.26434/chemrxiv.8326202.v1
   for GFN-FF:
   * S. Spicher and S. Grimme, Angew. Chem. Int. Ed., 2020, 59, 15665-15673.
     DOI: 10.1002/anie.202004239
   
   for ALPB and GBSA implicit solvation:
   * S. Ehlert, M. Stahn, S. Spicher, S. Grimme, J. Chem. Theory Comput.,
     2021, 17, 4250-4261. DOI: 10.1021/acs.jctc.1c00471
   
   for ddCOSMO and CPCM-X implicit solvation:
   * M. Stahn, S. Ehlert, S. Grimme, J. Phys. Chem. A,
     2023, XX, XXXX-XXXX. DOI: 10.1021/acs.jpca.3c04382
   
   for DFT-D4:
   * E. Caldeweyher, C. Bannwarth and S. Grimme, J. Chem. Phys., 2017,
     147, 034112. DOI: 10.1063/1.4993215
   * E. Caldeweyher, S. Ehlert, A. Hansen, H. Neugebauer, S. Spicher,
     C. Bannwarth and S. Grimme, J. Chem. Phys., 2019, 150, 154122.
     DOI: 10.1063/1.5090222
   * E. Caldeweyher, J.-M. Mewes, S. Ehlert and S. Grimme, Phys. Chem. Chem. Phys.
     2020, 22, 8499-8512. DOI: 10.1039/D0CP00502A
   
   for sTDA-xTB:
   * S. Grimme and C. Bannwarth, J. Chem. Phys., 2016, 145, 054103.
     DOI: 10.1063/1.4959605
   
   in the mass-spec context:
   * V. Asgeirsson, C. Bauer and S. Grimme, Chem. Sci., 2017, 8, 4879.
     DOI: 10.1039/c7sc00601b
   * J. Koopman and S. Grimme, ACS Omega 2019, 4, 12, 15120-15133.
     DOI: 10.1021/acsomega.9b02011
   
   for metadynamics refer to:
   * S. Grimme, J. Chem. Theory Comput., 2019, 155, 2847-2862
     DOI: 10.1021/acs.jctc.9b00143
   
   for SPH calculations refer to:
   * S. Spicher and S. Grimme, J. Chem. Theory Comput., 2021, 17, 1701-1714
     DOI: 10.1021/acs.jctc.0c01306
   
   for ONIOM refer to:
   * C. Plett, A. Katbashev, S. Ehlert, S. Grimme, M. Bursch,
     Phys. Chem. Chem. Phys., 2023, 25, 17860-17868. DOI: 10.1039/D3CP02178E
   
   for DIPRO refer to:
   * J. Kohn, N. Gildemeister, S. Grimme, D. Fazzi, A. Hansen,
     J. Chem. Phys., 2023, just accepted.
   
   for PTB refer to:
   * S. Grimme, M. Mueller, A. Hansen, J. Chem. Phys., 2023, 158, 124111.
     DOI: 10.1063/5.0137838
   
   with help from (in alphabetical order)
   P. Atkinson, C. Bannwarth, F. Bohle, G. Brandenburg, E. Caldeweyher
   M. Checinski, S. Dohm, S. Ehlert, S. Ehrlich, I. Gerasimov, C. Hölzer
   A. Katbashev, J. Kohn, J. Koopman, C. Lavigne, S. Lehtola, F. März, M. Müller,
   F. Musil, H. Neugebauer, J. Pisarek, C. Plett, P. Pracht, F. Pultar,
   J. Seibert, P. Shushkov, S. Spicher, M. Stahn, M. Steiner, T. Strunk,
   J. Stückrath, T. Rose, and J. Unsleber
   
 * started run on 2025/04/07 at 00:46:57.614     
   ID    Z sym.   atoms
    1    6 C      1-6, 8
    2    8 O      7, 9
    3    1 H      10-15

           -------------------------------------------------
          |                Calculation Setup                |
           -------------------------------------------------

          program call               : /srv/scratch/z5358697/.xtb/bin/xtb solv.coord --gfn2 --sp --chrg 0 --norestart --parallel 1 --alpb water reference -I xtb_sp-xcontrol-inp
          hostname                   : k157
          coordinate file            : solv.coord
          omp threads                :                     1


           -------------------------------------------------
          |                 G F N 2 - x T B                 |
           -------------------------------------------------

        Reference                      10.1021/acs.jctc.8b01176
      * Hamiltonian:
        H0-scaling (s, p, d)           1.850000    2.230000    2.230000
        zeta-weighting                 0.500000
      * Dispersion:
        s8                             2.700000
        a1                             0.520000
        a2                             5.000000
        s9                             5.000000
      * Repulsion:
        kExp                           1.500000    1.000000
        rExp                           1.000000
      * Coulomb:
        alpha                          2.000000
        third order                    shell-resolved
        anisotropic                    true
        a3                             3.000000
        a5                             4.000000
        cn-shift                       1.200000
        cn-exp                         4.000000
        max-rad                        5.000000

      * Solvation model:               ALPB
        Solvent                        water
        Parameter file                 internal GFN2-xTB/ALPB
        Dielectric constant                8.0200E+01
        Reference state                gsolv=reference [X=1]
        Free energy shift                  2.8945E-03 Eh       1.8164E+00 kcal/mol
        Temperature                        2.9815E+02 K
        Density                            1.0000E+00 kg/L
        Solvent mass                       1.8000E+01 g/mol
        Interaction kernel             P16
        Born radius scaling (c1)           1.4744E+00
        Born radii integrator          GBOBC
        Born offset                        0.0000E+00 a0       0.0000E+00 AA
        H-bond correction              true
        Ion screening                  false
        Surface tension                    1.0000E-05 Eh       1.5569E+01 dyn/cm
        Grid points                               974 per atom

          ...................................................
          :                      SETUP                      :
          :.................................................:
          :  # basis functions                  42          :
          :  # atomic orbitals                  42          :
          :  # shells                           24          :
          :  # electrons                        46          :
          :  max. iterations                   250          :
          :  Hamiltonian                  GFN2-xTB          :
          :  restarted?                      false          :
          :  GBSA solvation                   true          :
          :  PC potential                    false          :
          :  electronic temp.          300.0000000     K    :
          :  accuracy                    1.0000000          :
          :  -> integral cutoff          0.2500000E+02      :
          :  -> integral neglect         0.1000000E-07      :
          :  -> SCF convergence          0.1000000E-05 Eh   :
          :  -> wf. convergence          0.1000000E-03 e    :
          :  Broyden damping             0.4000000          :
          :  net charge                          0          :
          :  unpaired electrons                  0          :
          ...................................................

 iter      E             dE          RMSdq      gap      omega  full diag
   1    -26.4868109 -0.264868E+02  0.551E+00    4.35       0.0  T
   2    -26.5331223 -0.463114E-01  0.299E+00    3.86       1.0  T
   3    -26.5329407  0.181523E-03  0.133E+00    4.22       1.0  T
   4    -26.5362359 -0.329517E-02  0.310E-01    4.11       1.0  T
   5    -26.5368752 -0.639344E-03  0.989E-02    4.07       1.0  T
   6    -26.5369071 -0.318907E-04  0.428E-02    4.05       1.0  T
   7    -26.5369111 -0.394646E-05  0.184E-02    4.05       1.4  T
   8    -26.5369124 -0.128037E-05  0.591E-03    4.05       4.4  T
   9    -26.5369125 -0.182986E-06  0.327E-03    4.05       7.9  T
  10    -26.5369126 -0.537128E-07  0.134E-03    4.05      19.3  T
  11    -26.5369126 -0.111403E-07  0.344E-04    4.05      75.0  T
  12    -26.5369126 -0.624890E-09  0.207E-04    4.05     125.0  T

   *** convergence criteria satisfied after 12 iterations ***

         #    Occupation            Energy/Eh            Energy/eV
      -------------------------------------------------------------
         1        2.0000           -0.7695751             -20.9412
       ...           ...                  ...                  ...
        17        2.0000           -0.4917786             -13.3820
        18        2.0000           -0.4814691             -13.1014
        19        2.0000           -0.4516042             -12.2888
        20        2.0000           -0.4443575             -12.0916
        21        2.0000           -0.4330861             -11.7849
        22        2.0000           -0.4220712             -11.4851
        23        2.0000           -0.4156525             -11.3105 (HOMO)
        24                         -0.2669732              -7.2647 (LUMO)
        25                         -0.2407433              -6.5510
        26                         -0.2307750              -6.2797
        27                         -0.1082660              -2.9461
        28                          0.0092469               0.2516
       ...                                ...                  ...
        42                          0.6549315              17.8216
      -------------------------------------------------------------
                  HL-Gap            0.1486792 Eh            4.0458 eV
             Fermi-level           -0.3413128 Eh           -9.2876 eV

 SCC (total)                   0 d,  0 h,  0 min,  0.028 sec
 SCC setup                      ...        0 min,  0.001 sec (  3.292%)
 Dispersion                     ...        0 min,  0.000 sec (  0.355%)
 classical contributions        ...        0 min,  0.000 sec (  0.066%)
 integral evaluation            ...        0 min,  0.001 sec (  5.129%)
 iterations                     ...        0 min,  0.021 sec ( 77.882%)
 molecular gradient             ...        0 min,  0.004 sec ( 12.700%)
 printout                       ...        0 min,  0.000 sec (  0.507%)

         :::::::::::::::::::::::::::::::::::::::::::::::::::::
         ::                     SUMMARY                     ::
         :::::::::::::::::::::::::::::::::::::::::::::::::::::
         :: total energy             -26.160731261672 Eh    ::
         :: total w/o Gsasa/hb       -26.163753194375 Eh    ::
         :: gradient norm              0.000078489030 Eh/a0 ::
         :: HOMO-LUMO gap              4.045767203599 eV    ::
         ::.................................................::
         :: SCC energy               -26.536904684035 Eh    ::
         :: -> isotropic ES            0.049980254094 Eh    ::
         :: -> anisotropic ES         -0.000355859443 Eh    ::
         :: -> anisotropic XC          0.009164361686 Eh    ::
         :: -> dispersion             -0.011402426532 Eh    ::
         :: -> Gsolv                  -0.006395033393 Eh    ::
         ::    -> Gelec               -0.009416966096 Eh    ::
         ::    -> Gsasa                0.001990126087 Eh    ::
         ::    -> Ghb                 -0.001862742544 Eh    ::
         ::    -> Gshift               0.002894549160 Eh    ::
         :: repulsion energy           0.376173422364 Eh    ::
         :: add. restraining           0.000000000000 Eh    ::
         :: total charge              -0.000000000000 e     ::
         :::::::::::::::::::::::::::::::::::::::::::::::::::::

           -------------------------------------------------
          |                Property Printout                |
           -------------------------------------------------

    * Orbital Energies and Occupations

         #    Occupation            Energy/Eh            Energy/eV
      -------------------------------------------------------------
         1        2.0000           -0.7695751             -20.9412
       ...           ...                  ...                  ...
        11        2.0000           -0.5723925             -15.5756
        12        2.0000           -0.5379428             -14.6382
        13        2.0000           -0.5264894             -14.3265
        14        2.0000           -0.5223110             -14.2128
        15        2.0000           -0.5007510             -13.6261
        16        2.0000           -0.4977613             -13.5448
        17        2.0000           -0.4917786             -13.3820
        18        2.0000           -0.4814691             -13.1014
        19        2.0000           -0.4516042             -12.2888
        20        2.0000           -0.4443575             -12.0916
        21        2.0000           -0.4330861             -11.7849
        22        2.0000           -0.4220712             -11.4851
        23        2.0000           -0.4156525             -11.3105 (HOMO)
        24                         -0.2669732              -7.2647 (LUMO)
        25                         -0.2407433              -6.5510
        26                         -0.2307750              -6.2797
        27                         -0.1082660              -2.9461
        28                          0.0092469               0.2516
        29                          0.1058788               2.8811
        30                          0.1241772               3.3790
        31                          0.1451763               3.9504
        32                          0.1639059               4.4601
        33                          0.1807088               4.9173
        34                          0.1982988               5.3960
       ...                                ...                  ...
        42                          0.6549315              17.8216
      -------------------------------------------------------------
                  HL-Gap            0.1486792 Eh            4.0458 eV
             Fermi-level           -0.3413128 Eh           -9.2876 eV

     #   Z          covCN         q      C6AA      α(0)
     1   6 C        2.919    -0.034    28.845     8.807
     2   6 C        2.922    -0.030    28.742     8.792
     3   6 C        2.916    -0.052    29.289     8.875
     4   6 C        2.879     0.131    25.133     8.219
     5   6 C        2.917    -0.045    29.116     8.848
     6   6 C        2.922    -0.029    28.727     8.789
     7   8 O        1.707    -0.232    17.839     5.702
     8   6 C        2.662     0.352    21.024     7.502
     9   8 O        0.856    -0.430    22.283     6.329
    10   1 H        0.926     0.069     2.095     2.263
    11   1 H        0.926     0.069     2.099     2.266
    12   1 H        0.926     0.056     2.251     2.346
    13   1 H        0.926     0.071     2.070     2.250
    14   1 H        0.926     0.071     2.070     2.250
    15   1 H        0.922     0.031     2.567     2.505

 Mol. C6AA /au·bohr⁶  :       2937.019277
 Mol. C8AA /au·bohr⁸  :      71166.148552
 Mol. α(0) /au        :         85.743830


Wiberg/Mayer (AO) data.
largest (>0.10) Wiberg bond orders for each atom

 ---------------------------------------------------------------------------
     #   Z sym  total        # sym  WBO       # sym  WBO       # sym  WBO
 ---------------------------------------------------------------------------
     1   6 C    3.985 --     2 C    1.443     6 C    1.434    10 H    0.968
                             4 C    0.102
     2   6 C    3.988 --     1 C    1.443     3 C    1.436    11 H    0.967
                             5 C    0.112
     3   6 C    3.988 --     2 C    1.436     4 C    1.398    12 H    0.964
                             6 C    0.110
     4   6 C    3.889 --     3 C    1.398     5 C    1.389     7 O    0.939
                             1 C    0.102
     5   6 C    3.986 --     6 C    1.447     4 C    1.389    13 H    0.965
                             2 C    0.112
     6   6 C    3.987 --     5 C    1.447     1 C    1.434    14 H    0.967
                             3 C    0.110
     7   8 O    2.396 --     8 C    1.188     4 C    0.939     9 O    0.173
     8   6 C    3.909 --     9 O    1.755     7 O    1.188    15 H    0.917
     9   8 O    2.017 --     8 C    1.755     7 O    0.173
    10   1 H    0.995 --     1 C    0.968
    11   1 H    0.995 --     2 C    0.967
    12   1 H    0.997 --     3 C    0.964
    13   1 H    0.995 --     5 C    0.965
    14   1 H    0.994 --     6 C    0.967
    15   1 H    0.999 --     8 C    0.917
 ---------------------------------------------------------------------------

Topologies differ in total number of bonds
Writing topology from bond orders to xtbtopo.mol

molecular dipole:
                 x           y           z       tot (Debye)
 q only:       -2.482       0.136      -0.256
   full:       -2.438       0.057      -0.361       6.267
molecular quadrupole (traceless):
                xx          xy          yy          xz          yz          zz
 q only:       -9.966       0.740       6.817      -0.406       1.881       3.150
  q+dip:      -12.470       1.064      10.025       0.078       3.569       2.445
   full:      -13.428       1.147       9.321      -0.566       1.831       4.106


           -------------------------------------------------
          | TOTAL ENERGY              -26.160731261672 Eh   |
          | GRADIENT NORM               0.000078489030 Eh/α |
          | HOMO-LUMO GAP               4.045767203599 eV   |
           -------------------------------------------------

------------------------------------------------------------------------
 * finished run on 2025/04/07 at 00:46:57.693     
------------------------------------------------------------------------
 total:
 * wall-time:     0 d,  0 h,  0 min,  0.078 sec
 *  cpu-time:     0 d,  0 h,  0 min,  0.022 sec
 * ratio c/w:     0.277 speedup
 SCF:
 * wall-time:     0 d,  0 h,  0 min,  0.028 sec
 *  cpu-time:     0 d,  0 h,  0 min,  0.013 sec
 * ratio c/w:     0.452 speedup

