! r2scan-3c def2/J RI DEFGRID2 scfconv6 printgap
%output
    printlevel normal
end
* xyz 0 1
C 2.8377368493 -0.7648710665 0.1367100202
C 1.9834309555 0.4704991381 -0.1171013055
C 0.4972794174 0.2501068325 -0.056920439
C -0.3623129 1.3316081776 -0.2436311344
C -1.7304928418 1.1389450867 -0.1914281467
C -2.2033313202 -0.142715277 0.048684421
N -1.4057567167 -1.1821779642 0.2283862013
C -0.0962268799 -0.9855226266 0.1759479117
H 2.6415683775 -1.1753005883 1.1243025975
H 3.890005932 -0.4971834076 0.0813736696
H 2.6418913837 -1.5322631587 -0.6082016792
H 2.2239633408 0.8769406489 -1.1038501949
H 2.2397846979 1.2413637487 0.6153078319
H 0.0455530622 2.3154815917 -0.4282830307
H -2.4156655854 1.9596161974 -0.333141245
H -3.2631171997 -0.35285994 0.0992854508
H 0.4956948501 -1.8758483119 0.3316094105
*
