15
 xtb: 6.7.1 (edcfbbe)
C            1.81390624687355        0.66088636135991        0.27580855688353
C            1.01933858533105       -0.23540525732594       -0.65781718578280
O           -0.00000675952004       -1.00908559637989        0.00010149021149
C           -1.01935621190768       -0.23523661291260        0.65781854040587
C           -1.81390870598064        0.66082641758234       -0.27603880722014
H            1.21893025786530        1.49578832615919        0.65704771581079
H            2.20434248097594        0.09005350964779        1.12493876956813
H            2.66260593011851        1.08149569386908       -0.27295468398916
H            1.67874077304968       -0.98258481446936       -1.11061106864893
H            0.57947259645604        0.35405293533333       -1.47457204254262
H           -1.67876947626258       -0.98230284126719        1.11078611755959
H           -0.57949686019324        0.35441790551074        1.47443681282935
H           -2.66260150859020        1.08159241477777        0.27261551483031
H           -1.21891803784698        1.49561930097988       -0.65749474088463
H           -2.20435516299100        0.08977831386788       -1.12501877487170
