 Entering Gaussian System
 *********************************************
 Gaussian 98:
 frequency output generated by the xtb code
 *********************************************
                         Standard orientation:
 --------------------------------------------------------------------
  Center     Atomic     Atomic              Coordinates (Angstroms)
  Number     Number      Type              X           Y           Z
 --------------------------------------------------------------------
    1          6             0        2.059140    0.482502   -0.328226
    2          6             0        1.019369   -0.076433    0.640935
    3          8             0        0.000044   -0.829562    0.000929
    4          6             0       -1.019371   -0.077789   -0.640529
    5          6             0       -2.059208    0.482896    0.327548
    6          1             0        2.464089   -0.321582   -0.937063
    7          1             0        1.622200    1.230604   -0.985008
    8          1             0        2.864095    0.943699    0.235599
    9          1             0        0.581271    0.734094    1.235250
   10          1             0        1.493044   -0.788914    1.320884
   11          1             0       -0.581369    0.731636   -1.236413
   12          1             0       -1.492966   -0.791639   -1.319096
   13          1             0       -2.864218    0.942909   -0.237165
   14          1             0       -2.464061   -0.320056    0.937940
   15          1             0       -1.622352    1.232317    0.982880
 --------------------------------------------------------------------
     1 basis functions        1 primitive gaussians
     1 alpha electrons        1 beta electrons
 
 Harmonic frequencies (cm**-1), IR intensities (km*mol⁻¹),
 Raman scattering activities (A**4/amu), Raman depolarization ratios,
 reduced masses (AMU), force constants (mDyne/A) and normal coordinates:
                      1                      2                      3
                        a                      a                      a 
 Frequencies --    31.6522               125.3128               186.6263
 Red. masses --     7.4394                 6.1506                 1.8895
 Frc consts  --     0.0000                 0.0000                 0.0000
 IR Inten    --     0.0247                 4.6615                 0.4803
 Raman Activ --     0.0000                 0.0000                 0.0000
 Depolar     --     0.0000                 0.0000                 0.0000
 Atom AN      X      Y      Z        X      Y      Z        X      Y      Z
   1   6    -0.29   0.33   0.07     0.16  -0.06   0.22    -0.12   0.10  -0.02
   2   6    -0.01  -0.23   0.04    -0.19   0.11  -0.06    -0.03  -0.05  -0.02
   3   8     0.00  -0.24   0.00     0.06  -0.00  -0.39    -0.00  -0.14   0.00
   4   6     0.01  -0.23  -0.04    -0.19  -0.11  -0.06     0.03  -0.05   0.02
   5   6     0.29   0.33  -0.07     0.16   0.06   0.22     0.12   0.10   0.02
   6   1    -0.11   0.19  -0.13     0.24  -0.07   0.26     0.26   0.00   0.23
   7   1    -0.14   0.19   0.16     0.06  -0.18  -0.13    -0.16  -0.24  -0.24
   8   1    -0.05   0.03   0.03    -0.10   0.17   0.12    -0.23   0.38  -0.01
   9   1    -0.01  -0.16   0.13    -0.12   0.06  -0.11    -0.03  -0.02  -0.01
  10   1     0.07  -0.12  -0.09    -0.12   0.07   0.07     0.02   0.00  -0.00
  11   1     0.01  -0.16  -0.13    -0.12  -0.06  -0.11     0.03  -0.02   0.01
  12   1    -0.07  -0.12   0.09    -0.12  -0.07   0.07    -0.02   0.00   0.00
  13   1     0.05   0.03  -0.03    -0.10  -0.17   0.12     0.23   0.38   0.01
  14   1     0.11   0.19   0.13     0.24   0.07   0.26    -0.26   0.00  -0.23
  15   1     0.14   0.19  -0.16     0.06   0.18  -0.13     0.16  -0.24   0.24
                      4                      5                      6
                        a                      a                      a 
 Frequencies --   226.6660               303.3941               449.1546
 Red. masses --     3.9827                 8.2719                10.9231
 Frc consts  --     0.0000                 0.0000                 0.0000
 IR Inten    --     1.2807                 0.1057                16.3606
 Raman Activ --     0.0000                 0.0000                 0.0000
 Depolar     --     0.0000                 0.0000                 0.0000
 Atom AN      X      Y      Z        X      Y      Z        X      Y      Z
   1   6     0.12  -0.01   0.10     0.40   0.13   0.07     0.22   0.14   0.01
   2   6    -0.16   0.25  -0.05     0.31  -0.17  -0.15    -0.04  -0.02  -0.27
   3   8     0.08  -0.00  -0.15    -0.00   0.08  -0.00    -0.51  -0.00   0.43
   4   6    -0.16  -0.25  -0.05    -0.31  -0.17   0.15    -0.04   0.01  -0.27
   5   6     0.12   0.01   0.10    -0.40   0.13  -0.07     0.22  -0.14   0.01
   6   1    -0.20  -0.00  -0.13     0.22   0.10   0.01     0.19   0.11   0.00
   7   1     0.19   0.22   0.18     0.11   0.04   0.03     0.16   0.10   0.01
   8   1     0.18  -0.30   0.07     0.04   0.06   0.11    -0.03   0.01   0.17
   9   1    -0.10   0.12  -0.11     0.15  -0.09   0.06     0.07   0.02  -0.04
  10   1    -0.09   0.13   0.08     0.09  -0.14  -0.14    -0.00  -0.02  -0.10
  11   1    -0.10  -0.12  -0.11    -0.15  -0.09  -0.06     0.07  -0.02  -0.04
  12   1    -0.09  -0.13   0.09    -0.09  -0.14   0.14    -0.00   0.02  -0.10
  13   1     0.18   0.30   0.07    -0.04   0.06  -0.11    -0.03  -0.01   0.17
  14   1    -0.20   0.00  -0.13    -0.22   0.10  -0.01     0.19  -0.11   0.00
  15   1     0.19  -0.22   0.18    -0.11   0.04  -0.03     0.16  -0.10   0.01
                      7                      8                      9
                        a                      a                      a 
 Frequencies --   451.3075               808.1533               810.3365
 Red. masses --     8.6753                 2.2128                 4.5787
 Frc consts  --     0.0000                 0.0000                 0.0000
 IR Inten    --     6.9128                 7.8022                21.5700
 Raman Activ --     0.0000                 0.0000                 0.0000
 Depolar     --     0.0000                 0.0000                 0.0000
 Atom AN      X      Y      Z        X      Y      Z        X      Y      Z
   1   6     0.11   0.14  -0.03     0.02  -0.08   0.00    -0.15  -0.02   0.00
   2   6    -0.18   0.05  -0.31     0.09  -0.20  -0.01    -0.25   0.05  -0.23
   3   8     0.00  -0.52   0.00    -0.02  -0.00   0.03    -0.00   0.19  -0.00
   4   6     0.18   0.05   0.31     0.09   0.20  -0.01     0.25   0.05   0.23
   5   6    -0.11   0.14   0.03     0.02   0.08   0.00     0.15  -0.02  -0.00
   6   1     0.08   0.08  -0.02     0.12   0.20  -0.20    -0.03  -0.13   0.16
   7   1     0.15   0.12   0.01    -0.25   0.01   0.20     0.24   0.03  -0.15
   8   1    -0.02  -0.04   0.13    -0.06   0.09   0.00    -0.08  -0.14   0.16
   9   1    -0.17   0.06  -0.25    -0.01   0.16  -0.31    -0.00  -0.14   0.19
  10   1    -0.03   0.18   0.06    -0.15   0.11   0.28     0.09  -0.12  -0.30
  11   1     0.17   0.06   0.25    -0.01  -0.16  -0.31     0.00  -0.14  -0.20
  12   1     0.03   0.18  -0.07    -0.15  -0.11   0.28    -0.09  -0.12   0.30
  13   1     0.02  -0.04  -0.13    -0.06  -0.09   0.00     0.08  -0.14  -0.16
  14   1    -0.08   0.08   0.02     0.12  -0.20  -0.20     0.03  -0.13  -0.16
  15   1    -0.15   0.12  -0.01    -0.25  -0.01   0.20    -0.25   0.03   0.15
                     10                     11                     12
                        a                      a                      a 
 Frequencies --   867.3729               941.0158              1043.6993
 Red. masses --     6.8539                 8.3453                 8.5408
 Frc consts  --     0.0000                 0.0000                 0.0000
 IR Inten    --     3.5299                12.4837                22.7948
 Raman Activ --     0.0000                 0.0000                 0.0000
 Depolar     --     0.0000                 0.0000                 0.0000
 Atom AN      X      Y      Z        X      Y      Z        X      Y      Z
   1   6     0.14   0.18  -0.03     0.30   0.16  -0.04     0.28   0.12  -0.14
   2   6     0.10   0.15   0.23    -0.01   0.05   0.22    -0.42  -0.19   0.05
   3   8     0.00  -0.43   0.00    -0.45  -0.00  -0.19     0.00   0.17  -0.00
   4   6    -0.10   0.14  -0.23    -0.01  -0.05   0.22     0.42  -0.19  -0.05
   5   6    -0.14   0.18   0.03     0.30  -0.16  -0.04    -0.28   0.12   0.14
   6   1    -0.15  -0.17   0.14    -0.08  -0.02  -0.04     0.01   0.03  -0.08
   7   1     0.13  -0.03  -0.16    -0.10  -0.06  -0.01    -0.03  -0.02  -0.03
   8   1     0.18   0.00  -0.18     0.23   0.13  -0.30     0.14   0.10  -0.19
   9   1    -0.11  -0.12   0.16    -0.04  -0.01   0.05    -0.10  -0.07   0.06
  10   1     0.17   0.03  -0.05    -0.13  -0.08   0.04    -0.22  -0.15  -0.01
  11   1     0.11  -0.12  -0.16    -0.04   0.01   0.05     0.10  -0.07  -0.06
  12   1    -0.17   0.03   0.05    -0.13   0.08   0.04     0.22  -0.15   0.01
  13   1    -0.18   0.00   0.18     0.23  -0.13  -0.30    -0.14   0.10   0.19
  14   1     0.15  -0.17  -0.14    -0.08   0.02  -0.04    -0.01   0.03   0.08
  15   1    -0.13  -0.03   0.16    -0.10   0.06  -0.01     0.03  -0.02   0.03
                     13                     14                     15
                        a                      a                      a 
 Frequencies --  1069.2739              1080.5594              1094.5106
 Red. masses --     9.4731                 6.7328                 7.6859
 Frc consts  --     0.0000                 0.0000                 0.0000
 IR Inten    --    60.6496                 2.0392                95.8287
 Raman Activ --     0.0000                 0.0000                 0.0000
 Depolar     --     0.0000                 0.0000                 0.0000
 Atom AN      X      Y      Z        X      Y      Z        X      Y      Z
   1   6    -0.12  -0.11   0.31    -0.00  -0.03  -0.33    -0.04  -0.13  -0.18
   2   6     0.30   0.27  -0.24    -0.05  -0.01   0.38     0.10   0.24   0.29
   3   8    -0.23  -0.00  -0.09    -0.00  -0.04   0.00    -0.22  -0.00  -0.31
   4   6     0.30  -0.27  -0.24     0.05  -0.01  -0.38     0.10  -0.24   0.29
   5   6    -0.12   0.11   0.31     0.00  -0.03   0.33    -0.04   0.13  -0.18
   6   1    -0.12  -0.05   0.04     0.24   0.11  -0.08     0.21   0.12  -0.10
   7   1    -0.19  -0.08   0.12     0.20   0.13  -0.05     0.06   0.09   0.05
   8   1     0.02   0.04  -0.06    -0.17  -0.08   0.23    -0.17  -0.04   0.20
   9   1     0.14   0.07  -0.02     0.04   0.04   0.09     0.19   0.11   0.12
  10   1    -0.01  -0.04  -0.13     0.05   0.02   0.08    -0.03  -0.06  -0.03
  11   1     0.14  -0.07  -0.02    -0.04   0.04  -0.09     0.19  -0.11   0.12
  12   1    -0.01   0.04  -0.13    -0.05   0.02  -0.08    -0.03   0.06  -0.03
  13   1     0.02  -0.04  -0.06     0.17  -0.08  -0.23    -0.17   0.04   0.20
  14   1    -0.12   0.05   0.04    -0.24   0.11   0.08     0.21  -0.12  -0.10
  15   1    -0.19   0.08   0.12    -0.20   0.13   0.05     0.06  -0.09   0.05
                     16                     17                     18
                        a                      a                      a 
 Frequencies --  1124.4633              1184.5162              1251.8653
 Red. masses --     7.1517                 6.8223                 2.4051
 Frc consts  --     0.0000                 0.0000                 0.0000
 IR Inten    --    67.1836                20.0447                 2.8187
 Raman Activ --     0.0000                 0.0000                 0.0000
 Depolar     --     0.0000                 0.0000                 0.0000
 Atom AN      X      Y      Z        X      Y      Z        X      Y      Z
   1   6     0.15  -0.14   0.01     0.12  -0.22   0.04     0.10  -0.17   0.01
   2   6    -0.32   0.13  -0.09    -0.14   0.35  -0.02    -0.02   0.10   0.01
   3   8     0.36   0.00   0.18     0.00  -0.29   0.00    -0.14   0.00  -0.03
   4   6    -0.32  -0.13  -0.09     0.14   0.35   0.02    -0.02  -0.10   0.01
   5   6     0.15   0.14   0.01    -0.12  -0.22  -0.04     0.10   0.17   0.01
   6   1     0.07   0.11  -0.16     0.11   0.13  -0.17     0.09   0.09  -0.12
   7   1    -0.19  -0.04   0.14    -0.20  -0.03   0.18    -0.13  -0.02   0.13
   8   1     0.00   0.11  -0.07    -0.04   0.10  -0.02    -0.03   0.04   0.01
   9   1     0.12  -0.00   0.18     0.08  -0.02   0.22    -0.34  -0.22   0.07
  10   1    -0.15  -0.18  -0.18     0.07  -0.05  -0.22     0.39   0.22  -0.07
  11   1     0.12   0.00   0.18    -0.08  -0.02  -0.22    -0.34   0.22   0.07
  12   1    -0.15   0.18  -0.18    -0.07  -0.05   0.22     0.39  -0.22  -0.07
  13   1     0.00  -0.11  -0.07     0.04   0.10   0.02    -0.03  -0.04   0.01
  14   1     0.07  -0.11  -0.16    -0.11   0.13   0.17     0.08  -0.09  -0.12
  15   1    -0.19   0.04   0.14     0.20  -0.03  -0.18    -0.13   0.02   0.13
                     19                     20                     21
                        a                      a                      a 
 Frequencies --  1286.5259              1322.7608              1326.4932
 Red. masses --     2.7868                 3.0790                 3.4163
 Frc consts  --     0.0000                 0.0000                 0.0000
 IR Inten    --     4.2852                28.8569                15.1466
 Raman Activ --     0.0000                 0.0000                 0.0000
 Depolar     --     0.0000                 0.0000                 0.0000
 Atom AN      X      Y      Z        X      Y      Z        X      Y      Z
   1   6     0.05  -0.12  -0.01     0.00   0.00  -0.12    -0.02  -0.02  -0.10
   2   6     0.02  -0.06  -0.01     0.22   0.13  -0.03     0.25   0.18  -0.03
   3   8     0.00   0.29  -0.00     0.04   0.00   0.14    -0.00  -0.05  -0.00
   4   6    -0.02  -0.06   0.01     0.22  -0.13  -0.03    -0.25   0.18   0.03
   5   6    -0.05  -0.12   0.01     0.00  -0.00  -0.12     0.02  -0.02   0.10
   6   1     0.06   0.05  -0.08     0.01  -0.04   0.04     0.01  -0.04   0.04
   7   1    -0.06   0.00   0.08    -0.04   0.02   0.03    -0.02   0.04   0.04
   8   1    -0.03   0.05  -0.01    -0.08  -0.06   0.13    -0.08  -0.02   0.10
   9   1    -0.44  -0.26   0.01    -0.38  -0.23   0.03    -0.32  -0.19   0.03
  10   1     0.31   0.22   0.03    -0.36  -0.22   0.03    -0.41  -0.25   0.01
  11   1     0.44  -0.26  -0.00    -0.38   0.23   0.02     0.32  -0.19  -0.03
  12   1    -0.31   0.22  -0.03    -0.36   0.21   0.03     0.41  -0.25  -0.01
  13   1     0.03   0.05   0.00    -0.08   0.06   0.13     0.08  -0.02  -0.10
  14   1    -0.06   0.05   0.08     0.01   0.04   0.04    -0.01  -0.04  -0.04
  15   1     0.06   0.00  -0.08    -0.04  -0.02   0.03     0.02   0.04  -0.04
                     22                     23                     24
                        a                      a                      a 
 Frequencies --  1391.8605              1396.1270              1453.8025
 Red. masses --     3.1818                 3.1005                 1.8681
 Frc consts  --     0.0000                 0.0000                 0.0000
 IR Inten    --     3.5483                17.0286                 2.2001
 Raman Activ --     0.0000                 0.0000                 0.0000
 Depolar     --     0.0000                 0.0000                 0.0000
 Atom AN      X      Y      Z        X      Y      Z        X      Y      Z
   1   6    -0.23  -0.11   0.17    -0.23  -0.11   0.16     0.00   0.03  -0.01
   2   6     0.05   0.04   0.01     0.05   0.04  -0.01    -0.03  -0.01   0.18
   3   8     0.00  -0.00   0.00     0.02   0.00   0.03     0.05   0.00   0.05
   4   6    -0.05   0.04  -0.01     0.05  -0.04  -0.01    -0.03   0.01   0.18
   5   6     0.23  -0.11  -0.17    -0.23   0.11   0.16     0.00  -0.03  -0.01
   6   1     0.26   0.23  -0.12     0.27   0.24  -0.13     0.04  -0.01   0.05
   7   1     0.31   0.06  -0.12     0.30   0.05  -0.13    -0.06  -0.02   0.01
   8   1     0.17   0.05  -0.32     0.18   0.03  -0.31     0.04  -0.07   0.01
   9   1    -0.07   0.00  -0.06    -0.10  -0.05  -0.02    -0.16   0.20  -0.40
  10   1    -0.05  -0.09  -0.06    -0.07  -0.06  -0.02     0.14  -0.26  -0.37
  11   1     0.07   0.00   0.06    -0.10   0.05  -0.02    -0.16  -0.20  -0.40
  12   1     0.05  -0.09   0.06    -0.07   0.06  -0.02     0.14   0.26  -0.37
  13   1    -0.17   0.05   0.32     0.18  -0.03  -0.31     0.04   0.07   0.01
  14   1    -0.25   0.23   0.12     0.27  -0.24  -0.13     0.04   0.01   0.05
  15   1    -0.31   0.06   0.12     0.30  -0.05  -0.13    -0.06   0.02   0.01
                     25                     26                     27
                        a                      a                      a 
 Frequencies --  1461.0332              1481.7657              1482.9650
 Red. masses --     1.8315                 1.5619                 1.5387
 Frc consts  --     0.0000                 0.0000                 0.0000
 IR Inten    --     0.1733                 0.5618                 3.9784
 Raman Activ --     0.0000                 0.0000                 0.0000
 Depolar     --     0.0000                 0.0000                 0.0000
 Atom AN      X      Y      Z        X      Y      Z        X      Y      Z
   1   6     0.06  -0.02   0.00    -0.06   0.14  -0.02     0.05  -0.13   0.03
   2   6    -0.00  -0.00   0.18    -0.02   0.02  -0.03     0.02  -0.03  -0.05
   3   8    -0.00   0.02  -0.00    -0.01  -0.00  -0.01    -0.00  -0.01  -0.00
   4   6     0.00  -0.01  -0.18    -0.02  -0.02  -0.03    -0.02  -0.03   0.05
   5   6    -0.06  -0.02  -0.00    -0.06  -0.14  -0.02    -0.05  -0.13  -0.03
   6   1    -0.14  -0.05  -0.03     0.28   0.08   0.09    -0.28  -0.06  -0.12
   7   1     0.02   0.02   0.02    -0.27  -0.20  -0.06     0.28   0.18   0.03
   8   1    -0.09   0.12   0.05     0.23  -0.44   0.04    -0.22   0.42  -0.03
   9   1    -0.15   0.20  -0.39     0.05  -0.02   0.08     0.08  -0.04   0.10
  10   1     0.14  -0.25  -0.35    -0.00   0.05   0.04    -0.06   0.06   0.11
  11   1     0.15   0.20   0.39     0.05   0.02   0.08    -0.08  -0.04  -0.10
  12   1    -0.14  -0.25   0.35    -0.00  -0.05   0.04     0.06   0.06  -0.11
  13   1     0.09   0.12  -0.05     0.23   0.44   0.03     0.22   0.42   0.03
  14   1     0.14  -0.05   0.03     0.28  -0.08   0.09     0.28  -0.06   0.12
  15   1    -0.02   0.02  -0.02    -0.27   0.20  -0.06    -0.28   0.18  -0.03
                     28                     29                     30
                        a                      a                      a 
 Frequencies --  1489.3263              1491.7637              2900.1380
 Red. masses --     1.5876                 1.5533                 1.7616
 Frc consts  --     0.0000                 0.0000                 0.0000
 IR Inten    --     2.1908                 0.1348                72.7987
 Raman Activ --     0.0000                 0.0000                 0.0000
 Depolar     --     0.0000                 0.0000                 0.0000
 Atom AN      X      Y      Z        X      Y      Z        X      Y      Z
   1   6     0.07   0.05   0.13    -0.06  -0.05  -0.13    -0.00  -0.00  -0.00
   2   6     0.03   0.02   0.03    -0.03  -0.02  -0.01    -0.09   0.14   0.08
   3   8    -0.00  -0.00  -0.00     0.00   0.00  -0.00     0.01   0.00   0.01
   4   6     0.03  -0.02   0.03     0.03  -0.02   0.01    -0.09  -0.14   0.08
   5   6     0.07  -0.05   0.13     0.06  -0.05   0.13    -0.00   0.00  -0.00
   6   1    -0.22   0.17  -0.36     0.19  -0.19   0.36    -0.01   0.02   0.02
   7   1     0.03  -0.30  -0.35    -0.01   0.31   0.36     0.00  -0.00  -0.00
   8   1    -0.08  -0.05   0.19     0.06   0.09  -0.18     0.00  -0.00   0.00
   9   1    -0.02   0.00  -0.02     0.03   0.03  -0.03     0.28  -0.50  -0.36
  10   1    -0.01  -0.02  -0.01     0.03   0.00  -0.02     0.02  -0.04   0.06
  11   1    -0.02  -0.00  -0.02    -0.03   0.03   0.03     0.28   0.50  -0.36
  12   1    -0.01   0.02  -0.01    -0.03   0.00   0.02     0.02   0.04   0.06
  13   1    -0.08   0.05   0.19    -0.06   0.09   0.18     0.00   0.00   0.00
  14   1    -0.22  -0.17  -0.36    -0.19  -0.19  -0.36    -0.01  -0.02   0.02
  15   1     0.03   0.30  -0.35     0.01   0.31  -0.36     0.00   0.00  -0.00
                     31                     32                     33
                        a                      a                      a 
 Frequencies --  2902.8940              2961.3741              2961.5904
 Red. masses --     1.7560                 1.6648                 1.6627
 Frc consts  --     0.0000                 0.0000                 0.0000
 IR Inten    --    78.1945                23.2470                77.6132
 Raman Activ --     0.0000                 0.0000                 0.0000
 Depolar     --     0.0000                 0.0000                 0.0000
 Atom AN      X      Y      Z        X      Y      Z        X      Y      Z
   1   6     0.00   0.01  -0.00    -0.01   0.00  -0.00    -0.01   0.00  -0.01
   2   6     0.09  -0.14  -0.08     0.07  -0.11   0.12     0.06  -0.10   0.11
   3   8     0.00  -0.02   0.00     0.00   0.00   0.00     0.02  -0.00   0.01
   4   6    -0.09  -0.14   0.08    -0.07  -0.11  -0.11     0.07   0.11   0.12
   5   6    -0.00   0.01   0.00     0.01   0.00   0.00    -0.01  -0.00  -0.01
   6   1     0.01  -0.02  -0.02     0.00  -0.01  -0.01     0.00  -0.00  -0.00
   7   1     0.01  -0.01   0.02     0.02  -0.03   0.03     0.02  -0.04   0.03
   8   1    -0.01  -0.00  -0.01     0.01   0.01   0.01     0.01   0.01   0.01
   9   1    -0.28   0.50   0.36     0.04  -0.07  -0.02     0.04  -0.08  -0.03
  10   1    -0.02   0.03  -0.06    -0.31   0.46  -0.42    -0.29   0.44  -0.40
  11   1     0.28   0.50  -0.36    -0.04  -0.07   0.02     0.04   0.08  -0.03
  12   1     0.02   0.03   0.06     0.29   0.44   0.40    -0.31  -0.46  -0.42
  13   1     0.01  -0.00   0.01    -0.01   0.01  -0.01     0.01  -0.01   0.01
  14   1    -0.01  -0.02   0.02    -0.00  -0.01   0.01     0.00   0.00  -0.01
  15   1    -0.01  -0.01  -0.02    -0.02  -0.03  -0.03     0.02   0.04   0.03
                     34                     35                     36
                        a                      a                      a 
 Frequencies --  3035.2671              3035.6446              3046.0656
 Red. masses --     1.8734                 1.8705                 1.6686
 Frc consts  --     0.0000                 0.0000                 0.0000
 IR Inten    --    56.0780                63.0250                21.9683
 Raman Activ --     0.0000                 0.0000                 0.0000
 Depolar     --     0.0000                 0.0000                 0.0000
 Atom AN      X      Y      Z        X      Y      Z        X      Y      Z
   1   6    -0.10   0.14  -0.09     0.10  -0.14   0.09     0.03  -0.11  -0.13
   2   6    -0.01   0.01  -0.01     0.01  -0.02   0.01     0.00  -0.01  -0.01
   3   8    -0.00   0.00  -0.00    -0.00  -0.00  -0.00    -0.00   0.00   0.00
   4   6    -0.01  -0.01  -0.01    -0.01  -0.02  -0.01    -0.00  -0.01   0.01
   5   6    -0.10  -0.14  -0.09    -0.10  -0.14  -0.09    -0.03  -0.11   0.13
   6   1     0.05  -0.11  -0.11    -0.04   0.10   0.10    -0.25   0.51   0.37
   7   1     0.27  -0.45   0.40    -0.27   0.44  -0.39     0.07  -0.13   0.08
   8   1     0.05   0.06   0.03    -0.05  -0.06  -0.04     0.05   0.01   0.02
   9   1    -0.00   0.00   0.00    -0.01   0.02   0.01    -0.01   0.02   0.01
  10   1     0.03  -0.04   0.03    -0.02   0.03  -0.03     0.00  -0.00  -0.00
  11   1    -0.00  -0.00   0.00     0.01   0.02  -0.01     0.01   0.02  -0.01
  12   1     0.03   0.04   0.03     0.02   0.03   0.03    -0.00   0.00   0.00
  13   1     0.05  -0.06   0.03     0.05  -0.06   0.04    -0.05   0.01  -0.02
  14   1     0.05   0.11  -0.11     0.04   0.11  -0.11     0.24   0.49  -0.36
  15   1     0.27   0.44   0.39     0.27   0.45   0.40    -0.07  -0.12  -0.08
                     37                     38                     39
                        a                      a                      a 
 Frequencies --  3046.1664              3052.6313              3052.7051
 Red. masses --     1.6650                 1.6170                 1.6165
 Frc consts  --     0.0000                 0.0000                 0.0000
 IR Inten    --    58.1322                17.0439                49.1686
 Raman Activ --     0.0000                 0.0000                 0.0000
 Depolar     --     0.0000                 0.0000                 0.0000
 Atom AN      X      Y      Z        X      Y      Z        X      Y      Z
   1   6     0.03  -0.11  -0.13     0.12   0.08   0.07    -0.13  -0.08  -0.07
   2   6     0.00  -0.01  -0.01     0.00   0.00   0.01    -0.00  -0.00  -0.00
   3   8    -0.00  -0.00   0.00    -0.00  -0.00   0.00    -0.00   0.00   0.00
   4   6     0.00   0.01  -0.01    -0.00   0.00  -0.01    -0.00  -0.00  -0.00
   5   6     0.03   0.11  -0.13    -0.13   0.09  -0.07    -0.12   0.08  -0.07
   6   1    -0.24   0.49   0.35    -0.00   0.04   0.03     0.00  -0.05  -0.04
   7   1     0.07  -0.13   0.08     0.06  -0.06   0.07    -0.06   0.06  -0.07
   8   1     0.06   0.01   0.02    -0.48  -0.27  -0.35     0.51   0.29   0.37
   9   1    -0.01   0.02   0.01     0.01  -0.01  -0.01    -0.00   0.00   0.00
  10   1     0.00  -0.00   0.00    -0.00   0.01  -0.01     0.01  -0.01   0.01
  11   1    -0.01  -0.02   0.01    -0.01  -0.01   0.01    -0.00  -0.00   0.00
  12   1     0.00   0.00   0.00     0.00   0.01   0.01     0.01   0.01   0.01
  13   1     0.06  -0.01   0.02     0.51  -0.29   0.37     0.48  -0.27   0.35
  14   1    -0.25  -0.50   0.37     0.00   0.04  -0.04     0.00   0.04  -0.04
  15   1     0.07   0.13   0.08    -0.06  -0.06  -0.07    -0.06  -0.06  -0.07
