      -----------------------------------------------------------      
     |                   =====================                   |     
     |                           x T B                           |     
     |                   =====================                   |     
     |                         S. Grimme                         |     
     |          Mulliken Center for Theoretical Chemistry        |     
     |                    University of Bonn                     |     
      -----------------------------------------------------------      

   * xtb version 6.7.1 (edcfbbe) compiled by 'albert@albert-system' on 2024-07-22

   xtb is free software: you can redistribute it and/or modify it under
   the terms of the GNU Lesser General Public License as published by
   the Free Software Foundation, either version 3 of the License, or
   (at your option) any later version.
   
   xtb is distributed in the hope that it will be useful,
   but WITHOUT ANY WARRANTY; without even the implied warranty of
   MERCHANTABILITY or FITNESS FOR A PARTICULAR PURPOSE.  See the
   GNU Lesser General Public License for more details.
   
   Cite this work as:
   * C. Bannwarth, E. Caldeweyher, S. Ehlert, A. Hansen, P. Pracht,
     J. Seibert, S. Spicher, S. Grimme, WIREs Comput. Mol. Sci., 2020, 11,
     e01493. DOI: 10.1002/wcms.1493
   
   for GFN2-xTB:
   * C. Bannwarth, S. Ehlert and S. Grimme., J. Chem. Theory Comput., 2019,
     15, 1652-1671. DOI: 10.1021/acs.jctc.8b01176
   for GFN1-xTB:
   * S. Grimme, C. Bannwarth, P. Shushkov, J. Chem. Theory Comput., 2017,
     13, 1989-2009. DOI: 10.1021/acs.jctc.7b00118
   for GFN0-xTB:
   * P. Pracht, E. Caldeweyher, S. Ehlert, S. Grimme, ChemRxiv, 2019, preprint.
     DOI: 10.26434/chemrxiv.8326202.v1
   for GFN-FF:
   * S. Spicher and S. Grimme, Angew. Chem. Int. Ed., 2020, 59, 15665-15673.
     DOI: 10.1002/anie.202004239
   
   for ALPB and GBSA implicit solvation:
   * S. Ehlert, M. Stahn, S. Spicher, S. Grimme, J. Chem. Theory Comput.,
     2021, 17, 4250-4261. DOI: 10.1021/acs.jctc.1c00471
   
   for ddCOSMO and CPCM-X implicit solvation:
   * M. Stahn, S. Ehlert, S. Grimme, J. Phys. Chem. A,
     2023, XX, XXXX-XXXX. DOI: 10.1021/acs.jpca.3c04382
   
   for DFT-D4:
   * E. Caldeweyher, C. Bannwarth and S. Grimme, J. Chem. Phys., 2017,
     147, 034112. DOI: 10.1063/1.4993215
   * E. Caldeweyher, S. Ehlert, A. Hansen, H. Neugebauer, S. Spicher,
     C. Bannwarth and S. Grimme, J. Chem. Phys., 2019, 150, 154122.
     DOI: 10.1063/1.5090222
   * E. Caldeweyher, J.-M. Mewes, S. Ehlert and S. Grimme, Phys. Chem. Chem. Phys.
     2020, 22, 8499-8512. DOI: 10.1039/D0CP00502A
   
   for sTDA-xTB:
   * S. Grimme and C. Bannwarth, J. Chem. Phys., 2016, 145, 054103.
     DOI: 10.1063/1.4959605
   
   in the mass-spec context:
   * V. Asgeirsson, C. Bauer and S. Grimme, Chem. Sci., 2017, 8, 4879.
     DOI: 10.1039/c7sc00601b
   * J. Koopman and S. Grimme, ACS Omega 2019, 4, 12, 15120-15133.
     DOI: 10.1021/acsomega.9b02011
   
   for metadynamics refer to:
   * S. Grimme, J. Chem. Theory Comput., 2019, 155, 2847-2862
     DOI: 10.1021/acs.jctc.9b00143
   
   for SPH calculations refer to:
   * S. Spicher and S. Grimme, J. Chem. Theory Comput., 2021, 17, 1701-1714
     DOI: 10.1021/acs.jctc.0c01306
   
   for ONIOM refer to:
   * C. Plett, A. Katbashev, S. Ehlert, S. Grimme, M. Bursch,
     Phys. Chem. Chem. Phys., 2023, 25, 17860-17868. DOI: 10.1039/D3CP02178E
   
   for DIPRO refer to:
   * J. Kohn, N. Gildemeister, S. Grimme, D. Fazzi, A. Hansen,
     J. Chem. Phys., 2023, just accepted.
   
   for PTB refer to:
   * S. Grimme, M. Mueller, A. Hansen, J. Chem. Phys., 2023, 158, 124111.
     DOI: 10.1063/5.0137838
   
   with help from (in alphabetical order)
   P. Atkinson, C. Bannwarth, F. Bohle, G. Brandenburg, E. Caldeweyher
   M. Checinski, S. Dohm, S. Ehlert, S. Ehrlich, I. Gerasimov, C. Hölzer
   A. Katbashev, J. Kohn, J. Koopman, C. Lavigne, S. Lehtola, F. März, M. Müller,
   F. Musil, H. Neugebauer, J. Pisarek, C. Plett, P. Pracht, F. Pultar,
   J. Seibert, P. Shushkov, S. Spicher, M. Stahn, M. Steiner, T. Strunk,
   J. Stückrath, T. Rose, and J. Unsleber
   
 * started run on 2025/04/07 at 02:45:59.825     
   ID    Z sym.   atoms
    1    6 C      1, 2, 4, 5
    2    8 O      3
    3    1 H      6-15

           -------------------------------------------------
          |                Calculation Setup                |
           -------------------------------------------------

          program call               : /srv/scratch/z5358697/.xtb/bin/xtb xtb_rrho.coord --gfn2 --bhess vtight --chrg 0 --enso --norestart -I rrho-xcontrol-inp --parallel 1 --alpb water
          hostname                   : k140
          coordinate file            : xtb_rrho.coord
          omp threads                :                     1


           -------------------------------------------------
          |                 G F N 2 - x T B                 |
           -------------------------------------------------

        Reference                      10.1021/acs.jctc.8b01176
      * Hamiltonian:
        H0-scaling (s, p, d)           1.850000    2.230000    2.230000
        zeta-weighting                 0.500000
      * Dispersion:
        s8                             2.700000
        a1                             0.520000
        a2                             5.000000
        s9                             5.000000
      * Repulsion:
        kExp                           1.500000    1.000000
        rExp                           1.000000
      * Coulomb:
        alpha                          2.000000
        third order                    shell-resolved
        anisotropic                    true
        a3                             3.000000
        a5                             4.000000
        cn-shift                       1.200000
        cn-exp                         4.000000
        max-rad                        5.000000

      * Solvation model:               ALPB
        Solvent                        water
        Parameter file                 internal GFN2-xTB/ALPB
        Dielectric constant                8.0200E+01
        Reference state                gsolv [1 M gas/solution]
        Free energy shift                  1.0808E-03 Eh       6.7819E-01 kcal/mol
        Temperature                        2.9815E+02 K
        Density                            1.0000E+00 kg/L
        Solvent mass                       1.8000E+01 g/mol
        Interaction kernel             P16
        Born radius scaling (c1)           1.4744E+00
        Born radii integrator          GBOBC
        Born offset                        0.0000E+00 a0       0.0000E+00 AA
        H-bond correction              true
        Ion screening                  false
        Surface tension                    1.0000E-05 Eh       1.5569E+01 dyn/cm
        Grid points                               974 per atom

          ...................................................
          :                      SETUP                      :
          :.................................................:
          :  # basis functions                  30          :
          :  # atomic orbitals                  30          :
          :  # shells                           20          :
          :  # electrons                        32          :
          :  max. iterations                   250          :
          :  Hamiltonian                  GFN2-xTB          :
          :  restarted?                      false          :
          :  GBSA solvation                   true          :
          :  PC potential                    false          :
          :  electronic temp.          300.0000000     K    :
          :  accuracy                    1.0000000          :
          :  -> integral cutoff          0.2500000E+02      :
          :  -> integral neglect         0.1000000E-07      :
          :  -> SCF convergence          0.1000000E-05 Eh   :
          :  -> wf. convergence          0.1000000E-03 e    :
          :  Broyden damping             0.4000000          :
          :  net charge                          0          :
          :  unpaired electrons                  0          :
          ...................................................

 iter      E             dE          RMSdq      gap      omega  full diag
   1    -17.8833927 -0.178834E+02  0.356E+00   11.30       0.0  T
   2    -17.9223575 -0.389648E-01  0.173E+00   10.88       1.0  T
   3    -17.9230620 -0.704482E-03  0.716E-01   10.94       1.0  T
   4    -17.9232340 -0.172036E-03  0.121E-01   10.95       1.0  T
   5    -17.9232525 -0.185071E-04  0.649E-02   10.97       1.0  T
   6    -17.9232539 -0.136627E-05  0.754E-03   10.98       3.4  T
   7    -17.9232540 -0.150804E-06  0.248E-03   10.98      10.4  T
   8    -17.9232540 -0.611949E-08  0.121E-03   10.98      21.4  T
   9    -17.9232540 -0.609725E-08  0.157E-04   10.98     164.8  T
  10    -17.9232540  0.820215E-10  0.123E-04   10.98     209.6  T

   *** convergence criteria satisfied after 10 iterations ***

         #    Occupation            Energy/Eh            Energy/eV
      -------------------------------------------------------------
         1        2.0000           -0.6925741             -18.8459
       ...           ...                  ...                  ...
        10        2.0000           -0.4931435             -13.4191
        11        2.0000           -0.4693911             -12.7728
        12        2.0000           -0.4635910             -12.6150
        13        2.0000           -0.4584612             -12.4754
        14        2.0000           -0.4437061             -12.0739
        15        2.0000           -0.4270259             -11.6200
        16        2.0000           -0.4004555             -10.8969 (HOMO)
        17                          0.0030816               0.0839 (LUMO)
        18                          0.0764414               2.0801
        19                          0.1129071               3.0724
        20                          0.1137340               3.0949
        21                          0.1248078               3.3962
       ...                                ...                  ...
        30                          0.2909767               7.9179
      -------------------------------------------------------------
                  HL-Gap            0.4035371 Eh           10.9808 eV
             Fermi-level           -0.1986869 Eh           -5.4065 eV

 SCC (total)                   0 d,  0 h,  0 min,  0.015 sec
 SCC setup                      ...        0 min,  0.001 sec (  4.764%)
 Dispersion                     ...        0 min,  0.000 sec (  0.349%)
 classical contributions        ...        0 min,  0.000 sec (  0.080%)
 integral evaluation            ...        0 min,  0.001 sec (  4.568%)
 iterations                     ...        0 min,  0.012 sec ( 77.794%)
 molecular gradient             ...        0 min,  0.002 sec ( 11.774%)
 printout                       ...        0 min,  0.000 sec (  0.601%)

         :::::::::::::::::::::::::::::::::::::::::::::::::::::
         ::                     SUMMARY                     ::
         :::::::::::::::::::::::::::::::::::::::::::::::::::::
         :: total energy             -17.721580234842 Eh    ::
         :: total w/o Gsasa/hb       -17.721848247509 Eh    ::
         :: gradient norm              0.026688778135 Eh/a0 ::
         :: HOMO-LUMO gap             10.980803635606 eV    ::
         ::.................................................::
         :: SCC energy               -17.923244520148 Eh    ::
         :: -> isotropic ES            0.027342218756 Eh    ::
         :: -> anisotropic ES          0.004328814141 Eh    ::
         :: -> anisotropic XC          0.006666281192 Eh    ::
         :: -> dispersion             -0.007017989632 Eh    ::
         :: -> Gsolv                  -0.003549766014 Eh    ::
         ::    -> Gelec               -0.003817778681 Eh    ::
         ::    -> Gsasa                0.000156844711 Eh    ::
         ::    -> Ghb                 -0.000969591741 Eh    ::
         ::    -> Gshift               0.001080759698 Eh    ::
         :: repulsion energy           0.201664285306 Eh    ::
         :: add. restraining           0.000000000000 Eh    ::
         :: total charge              -0.000000000000 e     ::
         :::::::::::::::::::::::::::::::::::::::::::::::::::::

metadynamics with 1 initial structures loaded
           -------------------------------------------------
          |           Optimal kpush determination           |
           -------------------------------------------------
      ----------------------------------------------------------- 
     |                   =====================                   |
     |                        A N C O P T                        |
     |                   =====================                   |
     |               Approximate Normal Coordinate               |
     |                Rational Function Optimizer                |
      ----------------------------------------------------------- 
target rmsd / Å         0.100000
unbiased initial rmsd   0.063011
 
iter. min.        max.        rmsd       kpush
final kpush:  0.000000
           -------------------------------------------------
          |            Biased Numerical Hessian             |
           -------------------------------------------------
kpush                :   0.00000
alpha                :   1.00000
step length          :   0.00500
SCC accuracy         :   0.30000
Hessian scale factor :   1.00000
frozen atoms in %    :   0.00000    0
RMS gradient         :   0.00002
estimated CPU  time      0.01 min
estimated wall time      0.01 min

writing file <hessian>.

 projected vibrational frequencies (cm⁻¹)
eigval :       -0.00    -0.00    -0.00     0.00     0.00     0.00
eigval :       31.65   125.31   186.63   226.67   303.39   449.15
eigval :      451.31   808.15   810.34   867.37   941.02  1043.70
eigval :     1069.27  1080.56  1094.51  1124.46  1184.52  1251.87
eigval :     1286.53  1322.76  1326.49  1391.86  1396.13  1453.80
eigval :     1461.03  1481.77  1482.97  1489.33  1491.76  2900.14
eigval :     2902.89  2961.37  2961.59  3035.27  3035.64  3046.07
eigval :     3046.17  3052.63  3052.71
           -------------------------------------------------
          |                Property Printout                |
           -------------------------------------------------

    * Orbital Energies and Occupations

         #    Occupation            Energy/Eh            Energy/eV
      -------------------------------------------------------------
         1        2.0000           -0.6967657             -18.9600
       ...           ...                  ...                  ...
         4        2.0000           -0.5953849             -16.2012
         5        2.0000           -0.5689809             -15.4828
         6        2.0000           -0.5492310             -14.9453
         7        2.0000           -0.5443267             -14.8119
         8        2.0000           -0.5159998             -14.0411
         9        2.0000           -0.4939998             -13.4424
        10        2.0000           -0.4930299             -13.4160
        11        2.0000           -0.4678274             -12.7302
        12        2.0000           -0.4649236             -12.6512
        13        2.0000           -0.4598677             -12.5136
        14        2.0000           -0.4436840             -12.0733
        15        2.0000           -0.4264126             -11.6033
        16        2.0000           -0.3986596             -10.8481 (HOMO)
        17                          0.0210104               0.5717 (LUMO)
        18                          0.0925313               2.5179
        19                          0.1174646               3.1964
        20                          0.1190208               3.2387
        21                          0.1254674               3.4141
        22                          0.1499328               4.0799
        23                          0.1695957               4.6149
        24                          0.1951823               5.3112
        25                          0.1973895               5.3712
        26                          0.2000859               5.4446
        27                          0.2443065               6.6479
       ...                                ...                  ...
        30                          0.2965316               8.0690
      -------------------------------------------------------------
                  HL-Gap            0.4196700 Eh           11.4198 eV
             Fermi-level           -0.1888246 Eh           -5.1382 eV

     #   Z          covCN         q      C6AA      α(0)
     1   6 C        3.750    -0.126    22.981     6.837
     2   6 C        3.687     0.078    19.473     6.317
     3   8 O        1.698    -0.369    20.241     6.074
     4   6 C        3.687     0.078    19.473     6.317
     5   6 C        3.750    -0.126    22.981     6.837
     6   1 H        0.925     0.053     2.289     2.366
     7   1 H        0.925     0.046     2.375     2.410
     8   1 H        0.925     0.054     2.269     2.356
     9   1 H        0.924     0.030     2.593     2.518
    10   1 H        0.924     0.051     2.306     2.375
    11   1 H        0.924     0.030     2.593     2.518
    12   1 H        0.924     0.051     2.306     2.375
    13   1 H        0.925     0.054     2.269     2.356
    14   1 H        0.925     0.053     2.289     2.366
    15   1 H        0.925     0.046     2.375     2.410

 Mol. C6AA /au·bohr⁶  :       1459.728800
 Mol. C8AA /au·bohr⁸  :      29710.547151
 Mol. α(0) /au        :         56.431703


Wiberg/Mayer (AO) data.
largest (>0.10) Wiberg bond orders for each atom

 ---------------------------------------------------------------------------
     #   Z sym  total        # sym  WBO       # sym  WBO       # sym  WBO
 ---------------------------------------------------------------------------
     1   6 C    3.994 --     2 C    1.010     6 H    0.987     7 H    0.984
                             8 H    0.984
     2   6 C    3.948 --     1 C    1.010     3 O    0.973    10 H    0.971
                             9 H    0.969
     3   8 O    2.046 --     4 C    0.973     2 C    0.973
     4   6 C    3.948 --     5 C    1.010     3 O    0.973    12 H    0.971
                            11 H    0.969
     5   6 C    3.994 --     4 C    1.010    14 H    0.987    15 H    0.984
                            13 H    0.984
     6   1 H    0.997 --     1 C    0.987
     7   1 H    0.998 --     1 C    0.984
     8   1 H    0.997 --     1 C    0.984
     9   1 H    0.999 --     2 C    0.969
    10   1 H    0.997 --     2 C    0.971
    11   1 H    0.999 --     4 C    0.969
    12   1 H    0.997 --     4 C    0.971
    13   1 H    0.997 --     5 C    0.984
    14   1 H    0.997 --     5 C    0.987
    15   1 H    0.998 --     5 C    0.984
 ---------------------------------------------------------------------------

Topologies differ in total number of bonds
Writing topology from bond orders to xtbtopo.mol

molecular dipole:
                 x           y           z       tot (Debye)
 q only:       -0.000       0.597      -0.001
   full:       -0.000       0.725      -0.001       1.842
molecular quadrupole (traceless):
                xx          xy          yy          xz          yz          zz
 q only:        3.021       0.001      -2.748       1.073       0.003      -0.273
  q+dip:        1.922       0.001      -2.201       0.957       0.003       0.279
   full:        2.436       0.001      -2.592       1.195       0.003       0.156

           -------------------------------------------------
          |                Geometry Summary                 |
           -------------------------------------------------

      molecular mass/u    :       74.1217560
   center of mass at/Å    :       -0.0000053       0.0012401       0.0001266
  moments of inertia/u·Å² :        0.4700343E+02   0.1889454E+03   0.1902422E+03
rotational constants/cm⁻¹ :        0.3586468E+00   0.8921959E-01   0.8861143E-01

 * 14 selected distances

     #   Z          #   Z                                           value/Å
     1   6 C        2   6 C                                       1.5273520 (max)
     2   6 C        3   8 O                                       1.4198014
     3   8 O        4   6 C                                       1.4198019
     4   6 C        5   6 C                                       1.5273517
     1   6 C        6   1 H                                       1.0868379
     1   6 C        7   1 H                                       1.0871684
     1   6 C        8   1 H                                       1.0856126 (min)
     2   6 C        9   1 H                                       1.0963999
     2   6 C       10   1 H                                       1.0928530
     4   6 C       11   1 H                                       1.0964000
     4   6 C       12   1 H                                       1.0928527
     5   6 C       13   1 H                                       1.0856129
     5   6 C       14   1 H                                       1.0868379
     5   6 C       15   1 H                                       1.0871680

 * 3 distinct bonds (by element types)

   Z      Z             #   av. dist./Å        max./Å        min./Å
   1 H    6 C          10     1.0897743     1.0964000     1.0856126
   6 C    6 C           2     1.5273518     1.5273520     1.5273517
   6 C    8 O           2     1.4198017     1.4198019     1.4198014

           -------------------------------------------------
          |               Frequency Printout                |
           -------------------------------------------------
 projected vibrational frequencies (cm⁻¹)
eigval :       -0.00    -0.00    -0.00     0.00     0.00     0.00
eigval :       31.65   125.31   186.63   226.67   303.39   449.15
eigval :      451.31   808.15   810.34   867.37   941.02  1043.70
eigval :     1069.27  1080.56  1094.51  1124.46  1184.52  1251.87
eigval :     1286.53  1322.76  1326.49  1391.86  1396.13  1453.80
eigval :     1461.03  1481.77  1482.97  1489.33  1491.76  2900.14
eigval :     2902.89  2961.37  2961.59  3035.27  3035.64  3046.07
eigval :     3046.17  3052.63  3052.71
 reduced masses (amu)
   1: 10.15   2: 11.01   3: 10.57   4: 11.39   5:  9.80   6:  8.66   7:  7.44   8:  6.15
   9:  1.89  10:  3.98  11:  8.27  12: 10.92  13:  8.68  14:  2.21  15:  4.58  16:  6.85
  17:  8.35  18:  8.54  19:  9.47  20:  6.73  21:  7.69  22:  7.15  23:  6.82  24:  2.41
  25:  2.79  26:  3.08  27:  3.42  28:  3.18  29:  3.10  30:  1.87  31:  1.83  32:  1.56
  33:  1.54  34:  1.59  35:  1.55  36:  1.76  37:  1.76  38:  1.66  39:  1.66  40:  1.87
  41:  1.87  42:  1.67  43:  1.67  44:  1.62  45:  1.62
 IR intensities (km·mol⁻¹)
   1:  0.66   2:  0.53   3:  0.18   4:  0.52   5:  0.83   6:  1.15   7:  0.02   8:  4.66
   9:  0.48  10:  1.28  11:  0.11  12: 16.36  13:  6.91  14:  7.80  15: 21.57  16:  3.53
  17: 12.48  18: 22.79  19: 60.65  20:  2.04  21: 95.83  22: 67.18  23: 20.04  24:  2.82
  25:  4.29  26: 28.86  27: 15.15  28:  3.55  29: 17.03  30:  2.20  31:  0.17  32:  0.56
  33:  3.98  34:  2.19  35:  0.13  36: 72.80  37: 78.19  38: 23.25  39: 77.61  40: 56.08
  41: 63.03  42: 21.97  43: 58.13  44: 17.04  45: 49.17
 Raman intensities (Ä⁴*amu⁻¹)
   1:  0.00   2:  0.00   3:  0.00   4:  0.00   5:  0.00   6:  0.00   7:  0.00   8:  0.00
   9:  0.00  10:  0.00  11:  0.00  12:  0.00  13:  0.00  14:  0.00  15:  0.00  16:  0.00
  17:  0.00  18:  0.00  19:  0.00  20:  0.00  21:  0.00  22:  0.00  23:  0.00  24:  0.00
  25:  0.00  26:  0.00  27:  0.00  28:  0.00  29:  0.00  30:  0.00  31:  0.00  32:  0.00
  33:  0.00  34:  0.00  35:  0.00  36:  0.00  37:  0.00  38:  0.00  39:  0.00  40:  0.00
  41:  0.00  42:  0.00  43:  0.00  44:  0.00  45:  0.00
 output can be read by thermo (or use thermo option).
 writing <g98.out> molden fake output.
 recommended (thermochemical) frequency scaling factor: 1.0
           -------------------------------------------------
          |             Thermodynamic Functions             |
           -------------------------------------------------

Molecule has the following symmetry elements: (C2) 
It seems to be the C2 point group
c2  symmetry found (for desy threshold:  0.10E+00) used in thermo

          ...................................................
          :                      SETUP                      :
          :.................................................:
          :  # frequencies                          39      :
          :  # imaginary freq.                       0      :
          :  linear?                             false      :
          :  only rotor calc.                    false      :
          :  symmetry                               c2      :
          :  rotational number                       2      :
          :  scaling factor                  1.0000000      :
          :  rotor cutoff                    0.0000000 cm⁻¹ :
          :  imag. cutoff                 -100.0000000 cm⁻¹ :
          :.................................................:

    mode    ω/cm⁻¹     T·S(HO)/kcal·mol⁻¹    T·S(FR)/kcal·mol⁻¹   T·S(vib)
   ------------------------------------------------------------------------
       1     31.65    -1.70633 (100.00%)    -1.19089 (  0.00%)    -1.70633
       2    125.31    -0.89944 (100.00%)    -0.78409 (  0.00%)    -0.89944
       3    186.63    -0.67414 (100.00%)    -0.66619 (  0.00%)    -0.67414
       4    226.67    -0.56803 (100.00%)    -0.60864 (  0.00%)    -0.56803
   ------------------------------------------------------------------------

   temp. (K)  partition function   enthalpy   heat capacity  entropy
                                   cal/mol     cal/K/mol   cal/K/mol   J/K/mol
 298.15  VIB   73.0                 2579.696     17.225     17.180
         ROT  0.496E+05              888.752      2.981     24.469
         INT  0.363E+07             3468.449     20.206     41.648
         TR   0.617E+27             1481.254      4.968     38.808
         TOT                        4949.7025    25.1737    80.4559   336.6273

       T/K    H(0)-H(T)+PV         H(T)/Eh          T*S/Eh         G(T)/Eh
   ------------------------------------------------------------------------
    298.15    0.788785E-02    0.141454E+00    0.382272E-01    0.103227E+00
   ------------------------------------------------------------------------

         :::::::::::::::::::::::::::::::::::::::::::::::::::::
         ::                  THERMODYNAMIC                  ::
         :::::::::::::::::::::::::::::::::::::::::::::::::::::
         :: total free energy         -17.619435119335 Eh   ::
         ::.................................................::
         :: total energy              -17.722661990068 Eh   ::
         :: zero point energy           0.133566189450 Eh   ::
         :: G(RRHO) w/o ZPVE           -0.030339318718 Eh   ::
         :: G(RRHO) contrib.            0.103226870733 Eh   ::
         :::::::::::::::::::::::::::::::::::::::::::::::::::::

optimized geometry written to: xtbopt.coord


           -------------------------------------------------
          | TOTAL ENERGY              -17.722661990068 Eh   |
          | TOTAL ENTHALPY            -17.581207947614 Eh   |
          | TOTAL FREE ENERGY         -17.619435119335 Eh   |
          | GRADIENT NORM               0.000024440736 Eh/α |
          | HOMO-LUMO GAP              11.419801463775 eV   |
           -------------------------------------------------

------------------------------------------------------------------------
 * finished run on 2025/04/07 at 02:46:00.519     
------------------------------------------------------------------------
 total:
 * wall-time:     0 d,  0 h,  0 min,  0.694 sec
 *  cpu-time:     0 d,  0 h,  0 min,  0.613 sec
 * ratio c/w:     0.884 speedup
 SCF:
 * wall-time:     0 d,  0 h,  0 min,  0.015 sec
 *  cpu-time:     0 d,  0 h,  0 min,  0.007 sec
 * ratio c/w:     0.467 speedup
 analytical hessian:
 * wall-time:     0 d,  0 h,  0 min,  0.404 sec
 *  cpu-time:     0 d,  0 h,  0 min,  0.395 sec
 * ratio c/w:     0.977 speedup

