15
CONF2
C -2.4731639135 0.3757061920 0.3508323282
C -1.9484522326 -0.9066465077 0.4969692066
C -0.6422673546 -1.1808072167 0.0985311148
C 0.1103473492 -0.1513934346 -0.4432047972
C -0.3837536640 1.1339150341 -0.5966846623
C -1.6916400841 1.3926938786 -0.1935664694
O 1.4151140937 -0.4373573253 -0.9061130904
C 2.4257272461 -0.2678264756 -0.0209537004
O 2.2968735707 0.1038914498 1.1209541124
H -3.4921802586 0.5825117224 0.6606689474
H -2.5553543337 -1.6998749010 0.9210706849
H -0.2121103028 -2.1712098513 0.2026277676
H 0.2439439576 1.9092780815 -1.0228425283
H -2.0980853797 2.3922690179 -0.3077548591
H 3.3771472732 -0.5201560708 -0.5063198605
15
CONF1
C -2.4894177209 0.4828149650 -0.1993778773
C -2.0913886351 -0.8409254724 -0.3720913718
C -0.7845418421 -1.2251587291 -0.0795553609
C 0.0964783077 -0.2627954086 0.3856970622
C -0.2715066147 1.0613883962 0.5662848967
C -1.5805969615 1.4304423782 0.2674926578
O 1.4020345036 -0.6700114712 0.7421900648
C 2.3900923570 -0.4097092735 -0.1459326467
O 2.2417901453 0.1277692869 -1.2175993281
H -3.5086187142 0.7763868470 -0.4278099021
H -2.7971309225 -1.5809942182 -0.7348572318
H -0.4518719799 -2.2498471945 -0.2057526993
H 0.4524885129 1.7813944462 0.9329746288
H -1.8889577244 2.4619976861 0.4029863514
H 3.3445146088 -0.7670215027 0.2610060922
15
CONF3
C -2.7107751231 0.1403315206 -0.1097985035
C -2.0019686065 -1.0223008826 -0.4013369644
C -0.6231544000 -1.0741713834 -0.2076226729
C 0.0197861579 0.0614739529 0.2654087242
C -0.6627108906 1.2307409311 0.5659070397
C -2.0412901362 1.2618807523 0.3767753474
O 1.4060881305 0.0427464866 0.5138862315
C 2.2204446854 -0.3166913784 -0.5102703958
O 3.4075095334 -0.4390063768 -0.3336741150
H -3.7852346872 0.1714602242 -0.2565336053
H -2.5207315944 -1.9003941838 -0.7718064358
H -0.0603184164 -1.9806554182 -0.4063637807
H -0.1208292739 2.0934075398 0.9381111328
H -2.5911823935 2.1683460477 0.6077776083
H 1.7044596990 -0.4610823321 -1.4716608457
