! r2scan-3c def2/J RI DEFGRID2 scfconv6 printgap
%output
    printlevel normal
end
* xyz 0 1
C 1.1046449702 -1.8564936505 -0.0034408776
C 2.1016959338 -0.9011321958 -0.0065542317
C 1.7998097434 0.4734812806 -0.0057466359
C 0.452355667 0.8483914547 -0.0040145862
C -0.5368476629 -0.1277617609 -0.0003246382
C -0.2290192408 -1.4885085599 -0.0001615188
N -1.8949158998 0.2740784897 0.0005765308
O -2.7667217037 -0.5867688293 0.0119605059
O -2.1579627717 1.4707153159 -0.0106482455
N 2.7818374309 1.4015494622 0.028942749
H 1.3669609739 -2.9022055995 -0.0046512337
H 3.1361719693 -1.2071200708 -0.0080890663
H 0.1647719985 1.8879953167 -0.0033108265
H -1.0245336561 -2.2148154307 0.0012451425
H 3.7361441555 1.1167983831 -0.0940719043
H 2.5487682745 2.3712819714 -0.0809507225
*
