 Entering Gaussian System
 *********************************************
 Gaussian 98:
 frequency output generated by the xtb code
 *********************************************
                         Standard orientation:
 --------------------------------------------------------------------
  Center     Atomic     Atomic              Coordinates (Angstroms)
  Number     Number      Type              X           Y           Z
 --------------------------------------------------------------------
    1          6             0        2.557188   -0.352747    0.000824
    2          6             0        1.302896    0.512225    0.032665
    3          6             0        0.035135   -0.335250   -0.016158
    4          6             0       -1.227203    0.520206    0.020054
    5          8             0       -2.355566   -0.332317   -0.032447
    6          1             0        2.585419   -0.947699   -0.908863
    7          1             0        3.448872    0.267889    0.035183
    8          1             0        2.574100   -1.028882    0.852203
    9          1             0        1.298689    1.114299    0.943838
   10          1             0        1.311099    1.197224   -0.817882
   11          1             0        0.018640   -0.935026   -0.928045
   12          1             0        0.009764   -1.022988    0.831138
   13          1             0       -1.243413    1.114910    0.943873
   14          1             0       -1.231108    1.208321   -0.836604
   15          1             0       -3.162057    0.199474   -0.010494
 --------------------------------------------------------------------
     1 basis functions        1 primitive gaussians
     1 alpha electrons        1 beta electrons
 
 Harmonic frequencies (cm**-1), IR intensities (km*mol⁻¹),
 Raman scattering activities (A**4/amu), Raman depolarization ratios,
 reduced masses (AMU), force constants (mDyne/A) and normal coordinates:
                      1                      2                      3
                        a                      a                      a 
 Frequencies --    96.4815               103.7184               186.3989
 Red. masses --     9.2617                 6.4886                 9.9897
 Frc consts  --     0.0000                 0.0000                 0.0000
 IR Inten    --     0.2598                 7.8805                 4.4254
 Raman Activ --     0.0000                 0.0000                 0.0000
 Depolar     --     0.0000                 0.0000                 0.0000
 Atom AN      X      Y      Z        X      Y      Z        X      Y      Z
   1   6    -0.00  -0.01   0.26     0.00   0.01  -0.30    -0.23  -0.35  -0.02
   2   6     0.00  -0.00   0.04    -0.00  -0.02   0.40     0.15   0.22   0.01
   3   6     0.00   0.03  -0.55    -0.00  -0.01   0.25     0.01   0.45   0.02
   4   6     0.00   0.01  -0.27     0.00   0.02  -0.40    -0.15   0.19   0.01
   5   8    -0.00  -0.02   0.48    -0.00  -0.01   0.14     0.27  -0.39  -0.02
   6   1     0.09   0.07   0.03    -0.03   0.18  -0.20    -0.16  -0.11  -0.00
   7   1    -0.00  -0.01   0.22     0.00  -0.00   0.01     0.02  -0.23  -0.01
   8   1    -0.10  -0.07   0.02     0.03  -0.16  -0.22    -0.16  -0.10  -0.01
   9   1    -0.08  -0.07   0.06     0.05  -0.13   0.20     0.11   0.06   0.00
  10   1     0.08   0.06   0.06    -0.05   0.11   0.21     0.11   0.06   0.00
  11   1     0.04   0.12  -0.23     0.08  -0.08   0.12     0.00   0.12   0.01
  12   1    -0.04  -0.10  -0.24    -0.08   0.07   0.13     0.00   0.12   0.00
  13   1     0.11   0.06  -0.11    -0.01   0.19  -0.23    -0.12   0.05   0.00
  14   1    -0.11  -0.05  -0.12     0.02  -0.16  -0.25    -0.12   0.05   0.00
  15   1    -0.00  -0.01   0.18     0.00   0.00  -0.11    -0.01  -0.21  -0.01
                      4                      5                      6
                        a                      a                      a 
 Frequencies --   233.3992               272.6509               394.9717
 Red. masses --     2.1193                 2.1676                 9.8085
 Frc consts  --     0.0000                 0.0000                 0.0000
 IR Inten    --     0.0111               220.5570                 0.2630
 Raman Activ --     0.0000                 0.0000                 0.0000
 Depolar     --     0.0000                 0.0000                 0.0000
 Atom AN      X      Y      Z        X      Y      Z        X      Y      Z
   1   6     0.00   0.00  -0.05    -0.00  -0.00   0.01     0.54  -0.03   0.00
   2   6    -0.00  -0.01   0.27     0.00   0.00  -0.03     0.28  -0.24  -0.01
   3   6     0.00   0.01  -0.13     0.00   0.01  -0.09    -0.15   0.23   0.01
   4   6     0.00   0.00  -0.09    -0.00  -0.01   0.11    -0.36   0.14   0.01
   5   8    -0.00  -0.00   0.03    -0.00  -0.02   0.25    -0.32  -0.11  -0.01
   6   1    -0.31  -0.34   0.20     0.00  -0.01   0.01     0.23  -0.00  -0.00
   7   1     0.00   0.03  -0.56     0.00  -0.00   0.00     0.08   0.10   0.01
   8   1     0.30   0.32   0.23    -0.01   0.01   0.01     0.23  -0.00   0.00
   9   1    -0.00  -0.09   0.13    -0.01  -0.00  -0.01     0.11  -0.06  -0.01
  10   1    -0.00   0.08   0.14     0.01   0.01  -0.01     0.11  -0.06   0.00
  11   1     0.04   0.08  -0.09    -0.01   0.05  -0.06    -0.08   0.06   0.01
  12   1    -0.04  -0.07  -0.10     0.02  -0.04  -0.06    -0.08   0.06  -0.00
  13   1     0.02   0.01  -0.03     0.00  -0.01   0.04    -0.15   0.03   0.00
  14   1    -0.02  -0.01  -0.03    -0.01   0.01   0.05    -0.15   0.03   0.00
  15   1    -0.00  -0.00   0.02     0.01   0.05  -0.95    -0.10  -0.06  -0.00
                      7                      8                      9
                        a                      a                      a 
 Frequencies --   420.2911               777.3482               837.4760
 Red. masses --    10.9548                 1.7446                 2.3968
 Frc consts  --     0.0000                 0.0000                 0.0000
 IR Inten    --    14.7879                 7.5215                 3.2203
 Raman Activ --     0.0000                 0.0000                 0.0000
 Depolar     --     0.0000                 0.0000                 0.0000
 Atom AN      X      Y      Z        X      Y      Z        X      Y      Z
   1   6     0.02   0.10   0.00    -0.00  -0.00   0.02     0.00   0.00  -0.09
   2   6    -0.26  -0.34  -0.02    -0.00  -0.01   0.18     0.00   0.01  -0.21
   3   6    -0.33  -0.07  -0.01    -0.00  -0.01   0.18    -0.00  -0.01   0.17
   4   6     0.04   0.38   0.02     0.00  -0.00   0.05    -0.00  -0.01   0.20
   5   8     0.57  -0.07   0.00    -0.00   0.00  -0.03    -0.00   0.00  -0.07
   6   1     0.09   0.03   0.00    -0.13   0.12  -0.08     0.22  -0.18   0.11
   7   1    -0.08   0.16   0.01     0.00   0.00  -0.06    -0.00  -0.01   0.12
   8   1     0.09   0.03   0.00     0.13  -0.12  -0.09    -0.23   0.17   0.12
   9   1    -0.10  -0.09  -0.01     0.05   0.38  -0.21     0.12  -0.26   0.12
  10   1    -0.10  -0.09  -0.00    -0.04  -0.36  -0.24    -0.13   0.25   0.14
  11   1    -0.19  -0.01  -0.00     0.06   0.38  -0.21    -0.18   0.24  -0.11
  12   1    -0.19  -0.02  -0.00    -0.06  -0.36  -0.25     0.18  -0.22  -0.13
  13   1    -0.00   0.10   0.01    -0.09   0.16  -0.10    -0.16   0.30  -0.15
  14   1    -0.00   0.10   0.00     0.09  -0.15  -0.11     0.16  -0.28  -0.18
  15   1     0.04  -0.17  -0.01     0.00  -0.00   0.02    -0.00  -0.00   0.02
                     10                     11                     12
                        a                      a                      a 
 Frequencies --   938.2959               949.1242              1020.3624
 Red. masses --     5.8178                 2.3668                 9.6338
 Frc consts  --     0.0000                 0.0000                 0.0000
 IR Inten    --    21.5389                 0.0468                 1.9527
 Raman Activ --     0.0000                 0.0000                 0.0000
 Depolar     --     0.0000                 0.0000                 0.0000
 Atom AN      X      Y      Z        X      Y      Z        X      Y      Z
   1   6     0.34   0.11   0.01     0.01   0.01  -0.18    -0.25   0.12   0.00
   2   6     0.10   0.26   0.01     0.00   0.00   0.06     0.14  -0.18  -0.01
   3   6    -0.15  -0.40  -0.02    -0.00  -0.01   0.16     0.43  -0.25  -0.01
   4   6    -0.13   0.17   0.01     0.00   0.01  -0.23     0.07   0.52   0.03
   5   8     0.03   0.03   0.00    -0.00  -0.00   0.06    -0.29  -0.14  -0.01
   6   1    -0.24  -0.02   0.02     0.25  -0.20   0.10    -0.04   0.04  -0.00
   7   1     0.40  -0.42  -0.02     0.00  -0.01   0.14    -0.10   0.08   0.00
   8   1    -0.23  -0.02  -0.02    -0.26   0.19   0.11    -0.04   0.04   0.01
   9   1    -0.13   0.07   0.00     0.33   0.05  -0.02     0.02  -0.06   0.00
  10   1    -0.12   0.07   0.00    -0.34  -0.05  -0.02     0.02  -0.06  -0.01
  11   1    -0.11  -0.11  -0.01     0.33   0.12  -0.05     0.12  -0.06  -0.00
  12   1    -0.11  -0.10  -0.00    -0.33  -0.12  -0.06     0.12  -0.06  -0.00
  13   1    -0.01   0.04   0.00     0.10  -0.24   0.10    -0.02   0.11   0.01
  14   1    -0.01   0.04  -0.00    -0.10   0.23   0.13    -0.02   0.11   0.00
  15   1    -0.09  -0.15  -0.01    -0.00  -0.00  -0.00    -0.25  -0.31  -0.02
                     13                     14                     15
                        a                      a                      a 
 Frequencies --  1062.7687              1099.3202              1125.5033
 Red. masses --     9.9282                 9.3118                 7.0031
 Frc consts  --     0.0000                 0.0000                 0.0000
 IR Inten    --   144.8566                 9.8869                 2.1156
 Raman Activ --     0.0000                 0.0000                 0.0000
 Depolar     --     0.0000                 0.0000                 0.0000
 Atom AN      X      Y      Z        X      Y      Z        X      Y      Z
   1   6     0.02   0.15   0.01    -0.30   0.40   0.02     0.16   0.11   0.01
   2   6     0.06  -0.12  -0.01     0.50  -0.32  -0.01    -0.29  -0.38  -0.02
   3   6    -0.15   0.19   0.01    -0.06  -0.02  -0.00     0.41   0.28   0.02
   4   6     0.58   0.14   0.01    -0.24  -0.19  -0.01    -0.16  -0.03  -0.00
   5   8    -0.34  -0.38  -0.02     0.17   0.12   0.01     0.06   0.04   0.00
   6   1    -0.13   0.02   0.01    -0.23   0.09   0.01    -0.16  -0.01   0.02
   7   1     0.11  -0.11  -0.00     0.01  -0.04  -0.00     0.19  -0.20  -0.01
   8   1    -0.13   0.02  -0.01    -0.23   0.09  -0.00    -0.15  -0.01  -0.02
   9   1    -0.04  -0.03  -0.00     0.18  -0.09  -0.00    -0.30  -0.10  -0.01
  10   1    -0.04  -0.03  -0.00     0.18  -0.08  -0.00    -0.30  -0.10  -0.00
  11   1    -0.23   0.06   0.00    -0.12  -0.02   0.01     0.15   0.07   0.00
  12   1    -0.23   0.06   0.00    -0.12  -0.02  -0.01     0.15   0.07   0.00
  13   1     0.06  -0.01   0.01    -0.07  -0.03  -0.01    -0.15   0.01  -0.01
  14   1     0.06  -0.00  -0.01    -0.07  -0.03   0.00    -0.15   0.01   0.01
  15   1     0.16   0.27   0.02     0.09   0.10   0.01     0.10   0.14   0.01
                     16                     17                     18
                        a                      a                      a 
 Frequencies --  1158.0309              1196.7414              1219.9434
 Red. masses --     5.1611                 4.5298                 4.4312
 Frc consts  --     0.0000                 0.0000                 0.0000
 IR Inten    --    10.8303                89.7202                 0.7307
 Raman Activ --     0.0000                 0.0000                 0.0000
 Depolar     --     0.0000                 0.0000                 0.0000
 Atom AN      X      Y      Z        X      Y      Z        X      Y      Z
   1   6    -0.00  -0.01   0.12    -0.06  -0.12  -0.01     0.00   0.02  -0.31
   2   6     0.00   0.01  -0.23     0.07   0.19   0.01    -0.00  -0.02   0.41
   3   6    -0.00  -0.02   0.31     0.15  -0.32  -0.02     0.00   0.01  -0.18
   4   6     0.00   0.02  -0.42    -0.17   0.25   0.01     0.00   0.00  -0.09
   5   8    -0.00  -0.01   0.16     0.06  -0.17  -0.01    -0.00  -0.00   0.07
   6   1    -0.10   0.08  -0.03     0.10  -0.00  -0.01     0.21  -0.19   0.07
   7   1    -0.00   0.00  -0.06    -0.09   0.09   0.00    -0.00  -0.01   0.14
   8   1     0.10  -0.08  -0.04     0.09  -0.00   0.01    -0.21   0.19   0.08
   9   1    -0.10  -0.14   0.04    -0.02   0.04   0.01    -0.15   0.23  -0.06
  10   1     0.10   0.14   0.06    -0.02   0.04  -0.00     0.15  -0.23  -0.08
  11   1    -0.17   0.20  -0.06    -0.04  -0.08  -0.00    -0.27  -0.09   0.03
  12   1     0.17  -0.19  -0.08    -0.04  -0.08  -0.00     0.27   0.09   0.04
  13   1    -0.28  -0.32   0.10    -0.30   0.06   0.00    -0.28  -0.08   0.02
  14   1     0.28   0.30   0.14    -0.30   0.06  -0.00     0.28   0.07   0.03
  15   1     0.00   0.00   0.02     0.40   0.54   0.03    -0.00  -0.00   0.01
                     19                     20                     21
                        a                      a                      a 
 Frequencies --  1270.2061              1277.1801              1280.3993
 Red. masses --     1.5917                 3.9024                 2.4378
 Frc consts  --     0.0000                 0.0000                 0.0000
 IR Inten    --     0.0072                19.3861                 0.4716
 Raman Activ --     0.0000                 0.0000                 0.0000
 Depolar     --     0.0000                 0.0000                 0.0000
 Atom AN      X      Y      Z        X      Y      Z        X      Y      Z
   1   6     0.00   0.01  -0.14    -0.05  -0.14  -0.01     0.00   0.01  -0.14
   2   6     0.00   0.01  -0.10     0.22   0.11   0.01    -0.00  -0.00   0.05
   3   6     0.00  -0.00   0.10     0.32   0.05   0.01    -0.01  -0.02   0.29
   4   6     0.00  -0.01   0.11     0.08  -0.20  -0.01    -0.00   0.01  -0.12
   5   8    -0.00  -0.00   0.01     0.01   0.15   0.01     0.00   0.00  -0.08
   6   1     0.09  -0.08   0.02     0.05   0.02  -0.03     0.08  -0.08   0.02
   7   1    -0.00  -0.00   0.02    -0.12   0.13   0.01     0.00  -0.00   0.06
   8   1    -0.09   0.07   0.02     0.05   0.02   0.03    -0.08   0.08   0.03
   9   1    -0.49  -0.05   0.01    -0.31   0.02   0.00    -0.29   0.02  -0.00
  10   1     0.49   0.05   0.02    -0.30   0.02  -0.01     0.30  -0.03  -0.00
  11   1     0.43   0.04  -0.01    -0.46   0.02   0.01    -0.21   0.16  -0.03
  12   1    -0.44  -0.04  -0.01    -0.45   0.01  -0.01     0.23  -0.16  -0.04
  13   1    -0.16   0.05  -0.01    -0.14  -0.02  -0.02     0.51  -0.03   0.01
  14   1     0.16  -0.05  -0.01    -0.16  -0.02   0.01    -0.50   0.03   0.00
  15   1    -0.00  -0.00   0.01    -0.15  -0.19  -0.01     0.00   0.01  -0.02
                     22                     23                     24
                        a                      a                      a 
 Frequencies --  1350.3486              1375.5213              1411.3608
 Red. masses --     4.3355                 5.1053                 3.2105
 Frc consts  --     0.0000                 0.0000                 0.0000
 IR Inten    --     7.0225                14.1092                 0.2080
 Raman Activ --     0.0000                 0.0000                 0.0000
 Depolar     --     0.0000                 0.0000                 0.0000
 Atom AN      X      Y      Z        X      Y      Z        X      Y      Z
   1   6     0.04   0.11   0.01     0.04   0.02   0.00    -0.37   0.22   0.01
   2   6    -0.41   0.01  -0.00    -0.25   0.03  -0.00     0.10   0.01   0.00
   3   6     0.17  -0.06  -0.00     0.39   0.02   0.00    -0.01   0.03   0.00
   4   6     0.23  -0.09  -0.00    -0.37   0.05   0.00    -0.02  -0.01  -0.00
   5   8     0.01   0.13   0.01    -0.02  -0.12  -0.01    -0.00  -0.00  -0.00
   6   1     0.02  -0.06   0.05     0.00  -0.03   0.02     0.46  -0.17   0.14
   7   1     0.12  -0.13  -0.01     0.03  -0.03  -0.00     0.27  -0.42  -0.02
   8   1     0.02  -0.05  -0.05     0.00  -0.03  -0.02     0.46  -0.16  -0.15
   9   1     0.41  -0.02   0.02     0.18  -0.02   0.02    -0.10  -0.05   0.03
  10   1     0.41  -0.02  -0.01     0.18  -0.02  -0.02    -0.10  -0.05  -0.04
  11   1    -0.15   0.03  -0.02    -0.30  -0.01   0.01    -0.00   0.00   0.00
  12   1    -0.15   0.02   0.02    -0.31  -0.01  -0.02     0.00   0.00  -0.00
  13   1    -0.36  -0.02  -0.01     0.42   0.03  -0.00     0.03  -0.00   0.00
  14   1    -0.36  -0.02   0.01     0.42   0.03   0.01     0.03  -0.00  -0.00
  15   1    -0.09  -0.12  -0.01     0.09   0.12   0.01     0.00   0.00   0.00
                     25                     26                     27
                        a                      a                      a 
 Frequencies --  1482.9067              1491.5756              1495.9465
 Red. masses --     1.8453                 1.9538                 1.8274
 Frc consts  --     0.0000                 0.0000                 0.0000
 IR Inten    --     4.4422                 0.9681                 1.2905
 Raman Activ --     0.0000                 0.0000                 0.0000
 Depolar     --     0.0000                 0.0000                 0.0000
 Atom AN      X      Y      Z        X      Y      Z        X      Y      Z
   1   6     0.00   0.01   0.00     0.01  -0.05  -0.00    -0.02  -0.00   0.00
   2   6    -0.01  -0.03  -0.00    -0.03   0.21   0.01    -0.03  -0.18  -0.01
   3   6     0.03   0.08   0.00    -0.02   0.19   0.01     0.02   0.19   0.01
   4   6    -0.03   0.25   0.01     0.03  -0.01  -0.00     0.03  -0.06  -0.00
   5   8     0.03   0.05   0.00    -0.00   0.00   0.00    -0.01  -0.01  -0.00
   6   1    -0.00  -0.03   0.02     0.00   0.13  -0.09     0.04   0.02  -0.01
   7   1    -0.01   0.01  -0.00     0.03  -0.04  -0.00     0.03  -0.05  -0.02
   8   1    -0.00  -0.03  -0.02    -0.00   0.12   0.10     0.03   0.02   0.01
   9   1     0.00   0.06  -0.04     0.01  -0.41   0.28     0.03   0.37  -0.25
  10   1     0.00   0.06   0.05     0.01  -0.38  -0.31     0.02   0.34   0.28
  11   1    -0.02  -0.13   0.09     0.02  -0.35   0.24    -0.01  -0.40   0.27
  12   1    -0.02  -0.12  -0.11     0.02  -0.33  -0.27    -0.01  -0.37  -0.31
  13   1    -0.01  -0.55   0.35    -0.02   0.04  -0.02    -0.02   0.15  -0.09
  14   1    -0.01  -0.51  -0.41    -0.02   0.03   0.03    -0.02   0.14   0.11
  15   1    -0.01  -0.01  -0.00    -0.01  -0.01  -0.00    -0.00  -0.00  -0.00
                     28                     29                     30
                        a                      a                      a 
 Frequencies --  1497.4608              1501.7036              2855.4539
 Red. masses --     1.5260                 1.6099                 1.9769
 Frc consts  --     0.0000                 0.0000                 0.0000
 IR Inten    --     1.5928                 0.6041               123.1000
 Raman Activ --     0.0000                 0.0000                 0.0000
 Depolar     --     0.0000                 0.0000                 0.0000
 Atom AN      X      Y      Z        X      Y      Z        X      Y      Z
   1   6     0.00   0.01  -0.21     0.11   0.18   0.01     0.00   0.00  -0.00
   2   6    -0.00  -0.00  -0.05     0.05   0.08   0.00     0.00   0.00  -0.00
   3   6     0.00   0.00   0.00    -0.02   0.04   0.00     0.00   0.00  -0.01
   4   6     0.00  -0.00   0.00     0.01  -0.02  -0.00    -0.00  -0.02   0.30
   5   8    -0.00  -0.00   0.00    -0.00  -0.00  -0.00    -0.00  -0.00   0.01
   6   1    -0.44  -0.14   0.07    -0.14  -0.51   0.34     0.00   0.00   0.00
   7   1    -0.00  -0.04   0.71    -0.17   0.27   0.02    -0.00  -0.00  -0.00
   8   1     0.44   0.14   0.09    -0.13  -0.48  -0.38    -0.00  -0.00   0.00
   9   1     0.02  -0.01  -0.00    -0.03  -0.06   0.05    -0.00   0.00   0.00
  10   1    -0.02   0.02   0.01    -0.03  -0.06  -0.06     0.00  -0.00   0.00
  11   1     0.02  -0.01   0.00     0.01  -0.11   0.07    -0.00   0.02   0.03
  12   1    -0.02  -0.01  -0.01     0.01  -0.10  -0.08     0.00  -0.03   0.03
  13   1    -0.00   0.00  -0.00    -0.01   0.04  -0.03     0.02  -0.38  -0.56
  14   1     0.00   0.00   0.00    -0.01   0.04   0.03    -0.01   0.44  -0.51
  15   1    -0.00  -0.00   0.00    -0.00  -0.00  -0.00     0.00   0.00  -0.01
                     31                     32                     33
                        a                      a                      a 
 Frequencies --  2890.2977              2961.4478              2977.8818
 Red. masses --     1.4125                 1.9468                 2.0127
 Frc consts  --     0.0000                 0.0000                 0.0000
 IR Inten    --    89.5047                32.7405               128.0449
 Raman Activ --     0.0000                 0.0000                 0.0000
 Depolar     --     0.0000                 0.0000                 0.0000
 Atom AN      X      Y      Z        X      Y      Z        X      Y      Z
   1   6    -0.00  -0.00  -0.00    -0.00  -0.00   0.02     0.00  -0.00   0.01
   2   6     0.00  -0.01  -0.00     0.00   0.01  -0.28     0.00   0.00  -0.10
   3   6    -0.00   0.00  -0.00    -0.00  -0.00   0.09     0.00   0.01  -0.28
   4   6    -0.02   0.19   0.01    -0.00  -0.00   0.01     0.00   0.00  -0.02
   5   8     0.02   0.02   0.00    -0.00  -0.00   0.00    -0.00  -0.00   0.00
   6   1     0.00  -0.00  -0.00     0.00  -0.03  -0.04    -0.00  -0.02  -0.02
   7   1     0.00   0.00   0.00    -0.00  -0.00   0.00    -0.00  -0.00   0.00
   8   1     0.00  -0.00   0.00    -0.00   0.04  -0.04     0.00   0.02  -0.02
   9   1    -0.00   0.01   0.02    -0.00   0.36   0.53    -0.00   0.13   0.19
  10   1    -0.00   0.01  -0.01    -0.01  -0.41   0.49    -0.00  -0.13   0.15
  11   1    -0.00   0.01   0.02    -0.00  -0.13  -0.18     0.01   0.36   0.52
  12   1    -0.00   0.01  -0.01     0.01   0.14  -0.16    -0.01  -0.41   0.49
  13   1     0.01  -0.34  -0.61    -0.00  -0.00  -0.01     0.00   0.02   0.03
  14   1    -0.00  -0.40   0.57     0.00   0.00  -0.01    -0.00  -0.02   0.02
  15   1     0.00  -0.00  -0.00    -0.00   0.00  -0.00    -0.00   0.00   0.00
                     34                     35                     36
                        a                      a                      a 
 Frequencies --  2979.7210              2991.6832              3030.8926
 Red. masses --     1.4677                 1.4943                 1.9539
 Frc consts  --     0.0000                 0.0000                 0.0000
 IR Inten    --    51.0471                73.2523                83.5253
 Raman Activ --     0.0000                 0.0000                 0.0000
 Depolar     --     0.0000                 0.0000                 0.0000
 Atom AN      X      Y      Z        X      Y      Z        X      Y      Z
   1   6    -0.01  -0.01  -0.00     0.01   0.02   0.00     0.00   0.01  -0.29
   2   6     0.00   0.20   0.01    -0.00  -0.03  -0.00     0.00   0.00  -0.03
   3   6     0.00  -0.02  -0.01    -0.01  -0.21  -0.01     0.00   0.00  -0.00
   4   6    -0.00   0.00  -0.00     0.00  -0.01  -0.00     0.00   0.00  -0.00
   5   8     0.00   0.00   0.00    -0.00   0.00   0.00    -0.00  -0.00   0.00
   6   1    -0.00   0.01   0.02     0.00  -0.02  -0.03    -0.01   0.38   0.55
   7   1     0.05   0.03   0.00    -0.03  -0.02  -0.00    -0.00   0.00  -0.04
   8   1    -0.00   0.02  -0.02     0.00  -0.02   0.03    -0.00  -0.43   0.52
   9   1     0.00  -0.34  -0.58    -0.00   0.05   0.08     0.00   0.03   0.05
  10   1    -0.01  -0.40   0.56    -0.00   0.05  -0.08    -0.00  -0.04   0.05
  11   1     0.00   0.06   0.10     0.01   0.35   0.59     0.00   0.01   0.01
  12   1     0.00   0.05  -0.07     0.01   0.40  -0.55    -0.00  -0.01   0.01
  13   1     0.00  -0.01  -0.01     0.00   0.01   0.02    -0.00   0.00   0.00
  14   1     0.00  -0.01   0.01     0.00   0.01  -0.02     0.00  -0.00   0.00
  15   1     0.00  -0.00  -0.00     0.01  -0.00  -0.00     0.00   0.00  -0.00
                     37                     38                     39
                        a                      a                      a 
 Frequencies --  3033.5485              3042.0612              3508.9924
 Red. masses --     1.9321                 1.2591                 1.8787
 Frc consts  --     0.0000                 0.0000                 0.0000
 IR Inten    --    83.0470                40.5807                71.4810
 Raman Activ --     0.0000                 0.0000                 0.0000
 Depolar     --     0.0000                 0.0000                 0.0000
 Atom AN      X      Y      Z        X      Y      Z        X      Y      Z
   1   6    -0.15  -0.25  -0.01     0.14  -0.05  -0.00    -0.00  -0.00  -0.00
   2   6    -0.00  -0.02  -0.00     0.00   0.00   0.00    -0.00  -0.00  -0.00
   3   6    -0.00  -0.01  -0.00    -0.00  -0.00  -0.00     0.00  -0.00  -0.00
   4   6    -0.00  -0.00  -0.00    -0.00   0.00   0.00     0.00  -0.00  -0.00
   5   8    -0.00   0.00   0.00     0.00   0.00   0.00     0.20  -0.13  -0.01
   6   1    -0.03   0.23   0.41     0.01   0.27   0.43    -0.00   0.00   0.00
   7   1     0.56   0.39   0.02    -0.54  -0.41  -0.02     0.00   0.00   0.00
   8   1    -0.02   0.26  -0.39     0.02   0.31  -0.40    -0.00   0.00  -0.00
   9   1     0.00   0.03   0.05     0.00  -0.01  -0.01     0.00  -0.00  -0.00
  10   1     0.00   0.03  -0.04     0.00  -0.01   0.01     0.00  -0.00   0.00
  11   1     0.00   0.02   0.03     0.00   0.01   0.01    -0.00   0.00   0.01
  12   1     0.00   0.02  -0.03     0.00   0.01  -0.01    -0.00   0.00  -0.01
  13   1    -0.00   0.00   0.00    -0.00  -0.00  -0.00    -0.00   0.00  -0.00
  14   1    -0.00   0.00  -0.00    -0.00  -0.00   0.00    -0.00   0.00   0.00
  15   1     0.00  -0.00  -0.00     0.00  -0.00  -0.00    -0.81   0.53   0.02
