      -----------------------------------------------------------      
     |                   =====================                   |     
     |                           x T B                           |     
     |                   =====================                   |     
     |                         S. Grimme                         |     
     |          Mulliken Center for Theoretical Chemistry        |     
     |                    University of Bonn                     |     
      -----------------------------------------------------------      

   * xtb version 6.7.1 (edcfbbe) compiled by 'albert@albert-system' on 2024-07-22

   xtb is free software: you can redistribute it and/or modify it under
   the terms of the GNU Lesser General Public License as published by
   the Free Software Foundation, either version 3 of the License, or
   (at your option) any later version.
   
   xtb is distributed in the hope that it will be useful,
   but WITHOUT ANY WARRANTY; without even the implied warranty of
   MERCHANTABILITY or FITNESS FOR A PARTICULAR PURPOSE.  See the
   GNU Lesser General Public License for more details.
   
   Cite this work as:
   * C. Bannwarth, E. Caldeweyher, S. Ehlert, A. Hansen, P. Pracht,
     J. Seibert, S. Spicher, S. Grimme, WIREs Comput. Mol. Sci., 2020, 11,
     e01493. DOI: 10.1002/wcms.1493
   
   for GFN2-xTB:
   * C. Bannwarth, S. Ehlert and S. Grimme., J. Chem. Theory Comput., 2019,
     15, 1652-1671. DOI: 10.1021/acs.jctc.8b01176
   for GFN1-xTB:
   * S. Grimme, C. Bannwarth, P. Shushkov, J. Chem. Theory Comput., 2017,
     13, 1989-2009. DOI: 10.1021/acs.jctc.7b00118
   for GFN0-xTB:
   * P. Pracht, E. Caldeweyher, S. Ehlert, S. Grimme, ChemRxiv, 2019, preprint.
     DOI: 10.26434/chemrxiv.8326202.v1
   for GFN-FF:
   * S. Spicher and S. Grimme, Angew. Chem. Int. Ed., 2020, 59, 15665-15673.
     DOI: 10.1002/anie.202004239
   
   for ALPB and GBSA implicit solvation:
   * S. Ehlert, M. Stahn, S. Spicher, S. Grimme, J. Chem. Theory Comput.,
     2021, 17, 4250-4261. DOI: 10.1021/acs.jctc.1c00471
   
   for ddCOSMO and CPCM-X implicit solvation:
   * M. Stahn, S. Ehlert, S. Grimme, J. Phys. Chem. A,
     2023, XX, XXXX-XXXX. DOI: 10.1021/acs.jpca.3c04382
   
   for DFT-D4:
   * E. Caldeweyher, C. Bannwarth and S. Grimme, J. Chem. Phys., 2017,
     147, 034112. DOI: 10.1063/1.4993215
   * E. Caldeweyher, S. Ehlert, A. Hansen, H. Neugebauer, S. Spicher,
     C. Bannwarth and S. Grimme, J. Chem. Phys., 2019, 150, 154122.
     DOI: 10.1063/1.5090222
   * E. Caldeweyher, J.-M. Mewes, S. Ehlert and S. Grimme, Phys. Chem. Chem. Phys.
     2020, 22, 8499-8512. DOI: 10.1039/D0CP00502A
   
   for sTDA-xTB:
   * S. Grimme and C. Bannwarth, J. Chem. Phys., 2016, 145, 054103.
     DOI: 10.1063/1.4959605
   
   in the mass-spec context:
   * V. Asgeirsson, C. Bauer and S. Grimme, Chem. Sci., 2017, 8, 4879.
     DOI: 10.1039/c7sc00601b
   * J. Koopman and S. Grimme, ACS Omega 2019, 4, 12, 15120-15133.
     DOI: 10.1021/acsomega.9b02011
   
   for metadynamics refer to:
   * S. Grimme, J. Chem. Theory Comput., 2019, 155, 2847-2862
     DOI: 10.1021/acs.jctc.9b00143
   
   for SPH calculations refer to:
   * S. Spicher and S. Grimme, J. Chem. Theory Comput., 2021, 17, 1701-1714
     DOI: 10.1021/acs.jctc.0c01306
   
   for ONIOM refer to:
   * C. Plett, A. Katbashev, S. Ehlert, S. Grimme, M. Bursch,
     Phys. Chem. Chem. Phys., 2023, 25, 17860-17868. DOI: 10.1039/D3CP02178E
   
   for DIPRO refer to:
   * J. Kohn, N. Gildemeister, S. Grimme, D. Fazzi, A. Hansen,
     J. Chem. Phys., 2023, just accepted.
   
   for PTB refer to:
   * S. Grimme, M. Mueller, A. Hansen, J. Chem. Phys., 2023, 158, 124111.
     DOI: 10.1063/5.0137838
   
   with help from (in alphabetical order)
   P. Atkinson, C. Bannwarth, F. Bohle, G. Brandenburg, E. Caldeweyher
   M. Checinski, S. Dohm, S. Ehlert, S. Ehrlich, I. Gerasimov, C. Hölzer
   A. Katbashev, J. Kohn, J. Koopman, C. Lavigne, S. Lehtola, F. März, M. Müller,
   F. Musil, H. Neugebauer, J. Pisarek, C. Plett, P. Pracht, F. Pultar,
   J. Seibert, P. Shushkov, S. Spicher, M. Stahn, M. Steiner, T. Strunk,
   J. Stückrath, T. Rose, and J. Unsleber
   
 * started run on 2025/04/06 at 22:38:50.624     
   ID    Z sym.   atoms
    1    6 C      1-4
    2    8 O      5
    3    1 H      6-15

           -------------------------------------------------
          |                Calculation Setup                |
           -------------------------------------------------

          program call               : /srv/scratch/z5358697/.xtb/bin/xtb xtb_rrho.coord --gfn2 --ohess vtight --chrg 0 --enso --norestart -I rrho-xcontrol-inp --parallel 1 --alpb water
          hostname                   : k159
          coordinate file            : xtb_rrho.coord
          omp threads                :                     1


           -------------------------------------------------
          |                 G F N 2 - x T B                 |
           -------------------------------------------------

        Reference                      10.1021/acs.jctc.8b01176
      * Hamiltonian:
        H0-scaling (s, p, d)           1.850000    2.230000    2.230000
        zeta-weighting                 0.500000
      * Dispersion:
        s8                             2.700000
        a1                             0.520000
        a2                             5.000000
        s9                             5.000000
      * Repulsion:
        kExp                           1.500000    1.000000
        rExp                           1.000000
      * Coulomb:
        alpha                          2.000000
        third order                    shell-resolved
        anisotropic                    true
        a3                             3.000000
        a5                             4.000000
        cn-shift                       1.200000
        cn-exp                         4.000000
        max-rad                        5.000000

      * Solvation model:               ALPB
        Solvent                        water
        Parameter file                 internal GFN2-xTB/ALPB
        Dielectric constant                8.0200E+01
        Reference state                gsolv [1 M gas/solution]
        Free energy shift                  1.0808E-03 Eh       6.7819E-01 kcal/mol
        Temperature                        2.9815E+02 K
        Density                            1.0000E+00 kg/L
        Solvent mass                       1.8000E+01 g/mol
        Interaction kernel             P16
        Born radius scaling (c1)           1.4744E+00
        Born radii integrator          GBOBC
        Born offset                        0.0000E+00 a0       0.0000E+00 AA
        H-bond correction              true
        Ion screening                  false
        Surface tension                    1.0000E-05 Eh       1.5569E+01 dyn/cm
        Grid points                               974 per atom

          ...................................................
          :                      SETUP                      :
          :.................................................:
          :  # basis functions                  30          :
          :  # atomic orbitals                  30          :
          :  # shells                           20          :
          :  # electrons                        32          :
          :  max. iterations                   250          :
          :  Hamiltonian                  GFN2-xTB          :
          :  restarted?                      false          :
          :  GBSA solvation                   true          :
          :  PC potential                    false          :
          :  electronic temp.          300.0000000     K    :
          :  accuracy                    1.0000000          :
          :  -> integral cutoff          0.2500000E+02      :
          :  -> integral neglect         0.1000000E-07      :
          :  -> SCF convergence          0.1000000E-05 Eh   :
          :  -> wf. convergence          0.1000000E-03 e    :
          :  Broyden damping             0.4000000          :
          :  net charge                          0          :
          :  unpaired electrons                  0          :
          ...................................................

 iter      E             dE          RMSdq      gap      omega  full diag
   1    -17.9047838 -0.179048E+02  0.350E+00   11.87       0.0  T
   2    -17.9333325 -0.285487E-01  0.187E+00   11.53       1.0  T
   3    -17.9341815 -0.848972E-03  0.657E-01   11.52       1.0  T
   4    -17.9343760 -0.194517E-03  0.128E-01   11.54       1.0  T
   5    -17.9344028 -0.267732E-04  0.730E-02   11.56       1.0  T
   6    -17.9344061 -0.333661E-05  0.137E-02   11.56       1.9  T
   7    -17.9344064 -0.299519E-06  0.625E-03   11.56       4.1  T
   8    -17.9344065 -0.649856E-07  0.227E-03   11.56      11.4  T
   9    -17.9344065 -0.616176E-08  0.423E-04   11.56      61.0  T
  10    -17.9344065 -0.792429E-09  0.173E-04   11.56     149.2  T

   *** convergence criteria satisfied after 10 iterations ***

         #    Occupation            Energy/Eh            Energy/eV
      -------------------------------------------------------------
         1        2.0000           -0.6841769             -18.6174
       ...           ...                  ...                  ...
        10        2.0000           -0.4824517             -13.1282
        11        2.0000           -0.4639022             -12.6234
        12        2.0000           -0.4542681             -12.3613
        13        2.0000           -0.4389182             -11.9436
        14        2.0000           -0.4347542             -11.8303
        15        2.0000           -0.4241216             -11.5409
        16        2.0000           -0.4094214             -11.1409 (HOMO)
        17                          0.0155389               0.4228 (LUMO)
        18                          0.1015038               2.7621
        19                          0.1128394               3.0705
        20                          0.1185094               3.2248
        21                          0.1445310               3.9329
       ...                                ...                  ...
        30                          0.2972831               8.0895
      -------------------------------------------------------------
                  HL-Gap            0.4249603 Eh           11.5638 eV
             Fermi-level           -0.1969412 Eh           -5.3590 eV

 SCC (total)                   0 d,  0 h,  0 min,  0.020 sec
 SCC setup                      ...        0 min,  0.001 sec (  3.324%)
 Dispersion                     ...        0 min,  0.000 sec (  0.288%)
 classical contributions        ...        0 min,  0.000 sec (  0.069%)
 integral evaluation            ...        0 min,  0.001 sec (  3.493%)
 iterations                     ...        0 min,  0.017 sec ( 82.132%)
 molecular gradient             ...        0 min,  0.002 sec ( 10.151%)
 printout                       ...        0 min,  0.000 sec (  0.487%)

         :::::::::::::::::::::::::::::::::::::::::::::::::::::
         ::                     SUMMARY                     ::
         :::::::::::::::::::::::::::::::::::::::::::::::::::::
         :: total energy             -17.727224334138 Eh    ::
         :: total w/o Gsasa/hb       -17.722401303687 Eh    ::
         :: gradient norm              0.027214926363 Eh/a0 ::
         :: HOMO-LUMO gap             11.563758072511 eV    ::
         ::.................................................::
         :: SCC energy               -17.934406752490 Eh    ::
         :: -> isotropic ES            0.036895595138 Eh    ::
         :: -> anisotropic ES          0.003933235310 Eh    ::
         :: -> anisotropic XC          0.006611641120 Eh    ::
         :: -> dispersion             -0.006841689026 Eh    ::
         :: -> Gsolv                  -0.009764531936 Eh    ::
         ::    -> Gelec               -0.004941501484 Eh    ::
         ::    -> Gsasa                0.000667655481 Eh    ::
         ::    -> Ghb                 -0.006571445630 Eh    ::
         ::    -> Gshift               0.001080759698 Eh    ::
         :: repulsion energy           0.207182418351 Eh    ::
         :: add. restraining           0.000000000000 Eh    ::
         :: total charge              -0.000000000000 e     ::
         :::::::::::::::::::::::::::::::::::::::::::::::::::::

      ----------------------------------------------------------- 
     |                   =====================                   |
     |                        A N C O P T                        |
     |                   =====================                   |
     |               Approximate Normal Coordinate               |
     |                Rational Function Optimizer                |
      ----------------------------------------------------------- 
      ----------------------------------------------------------- 
     |                   =====================                   |
     |                        A N C O P T                        |
     |                   =====================                   |
     |               Approximate Normal Coordinate               |
     |                Rational Function Optimizer                |
      ----------------------------------------------------------- 

          ...................................................
          :                      SETUP                      :
          :.................................................:
          :   optimization level         verytight          :
          :   max. optcycles                   300          :
          :   ANC micro-cycles                  20          :
          :   degrees of freedom                39          :
          :.................................................:
          :   RF solver                   davidson          :
          :   write xtbopt.log                true          :
          :   linear?                        false          :
          :   energy convergence         0.1000000E-06 Eh   :
          :   grad. convergence          0.2000000E-03 Eh/α :
          :   maxmium RF displ.          1.0000000          :
          :   Hlow (freq-cutoff)         0.1000000E-01      :
          :   Hmax (freq-cutoff)         5.0000000          :
          :   S6 in model hess.         20.0000000          :
          ...................................................

generating ANC from exact Hessian ...
Using Lindh-Hessian (1995)
 Shifting diagonal of input Hessian by   6.428824866169329E-003
 Lowest  eigenvalues of input Hessian
    0.000000    0.000000    0.000000    0.000000    0.000000    0.000000
    0.010000    0.011825    0.011998    0.017322    0.022299    0.035506
    0.037505    0.045475    0.051951    0.057552    0.061013    0.061871
 Highest eigenvalues
    1.152333    1.170123    1.190533    1.250536    1.283261    1.418942
 

........................................................................
.............................. CYCLE    1 ..............................
........................................................................

 iter      E             dE          RMSdq      gap      omega  full diag
   1    -17.9344065 -0.179344E+02  0.421E-05   11.56       0.0  T
   2    -17.9344065 -0.114575E-10  0.162E-05   11.56    1591.5  T
   3    -17.9344065 -0.490274E-12  0.103E-05   11.56    2496.6  T
     SCC iter.                  ...        0 min,  0.001 sec
     gradient                   ...        0 min,  0.003 sec
 * total energy  :   -17.7272243 Eh     change       -0.4688161E-10 Eh
   gradient norm :     0.0272150 Eh/α   predicted     0.0000000E+00 (-100.00%)
   displ. norm   :     0.0658401 α      lambda       -0.1017169E-02
   maximum displ.:     0.0333326 α      in ANC's #10, #26, #16, ...

........................................................................
.............................. CYCLE    2 ..............................
........................................................................

 iter      E             dE          RMSdq      gap      omega  full diag
   1    -17.9403124 -0.179403E+02  0.938E-02   11.84       0.0  T
   2    -17.9403176 -0.516797E-05  0.544E-02   11.84       1.0  T
   3    -17.9403180 -0.432122E-06  0.113E-02   11.85       2.3  T
   4    -17.9403183 -0.334152E-06  0.322E-03   11.84       8.0  T
   5    -17.9403183 -0.146426E-07  0.186E-03   11.84      13.9  T
   6    -17.9403183 -0.502557E-08  0.515E-04   11.84      50.1  T
   7    -17.9403183 -0.482014E-09  0.180E-04   11.84     143.8  T
     SCC iter.                  ...        0 min,  0.001 sec
     gradient                   ...        0 min,  0.002 sec
 * total energy  :   -17.7278894 Eh     change       -0.6650593E-03 Eh
   gradient norm :     0.0125592 Eh/α   predicted    -0.5107876E-03 ( -23.20%)
   displ. norm   :     0.0326450 α      lambda       -0.2475947E-03
   maximum displ.:     0.0149040 α      in ANC's #7, #15, #3, ...

........................................................................
.............................. CYCLE    3 ..............................
........................................................................

 iter      E             dE          RMSdq      gap      omega  full diag
   1    -17.9428393 -0.179428E+02  0.408E-02   12.02       0.0  T
   2    -17.9428420 -0.261297E-05  0.237E-02   12.02       1.1  T
   3    -17.9428421 -0.182567E-06  0.848E-03   12.03       3.0  T
   4    -17.9428422 -0.960987E-07  0.195E-03   12.03      13.3  T
   5    -17.9428422 -0.652097E-08  0.107E-03   12.03      24.1  T
   6    -17.9428422 -0.141595E-08  0.405E-04   12.03      63.7  T
   7    -17.9428422 -0.239361E-09  0.118E-04   12.03     218.1  T
     SCC iter.                  ...        0 min,  0.001 sec
     gradient                   ...        0 min,  0.002 sec
 * total energy  :   -17.7280323 Eh     change       -0.1429156E-03 Eh
   gradient norm :     0.0034787 Eh/α   predicted    -0.1239306E-03 ( -13.28%)
   displ. norm   :     0.0155737 α      lambda       -0.2715689E-04
   maximum displ.:     0.0094144 α      in ANC's #7, #16, #3, ...

........................................................................
.............................. CYCLE    4 ..............................
........................................................................

 iter      E             dE          RMSdq      gap      omega  full diag
   1    -17.9425218 -0.179425E+02  0.146E-02   12.07       0.0  T
   2    -17.9425219 -0.128958E-06  0.868E-03   12.07       3.0  T
   3    -17.9425219 -0.116438E-07  0.185E-03   12.07      14.0  T
   4    -17.9425219 -0.777872E-08  0.553E-04   12.07      46.7  T
   5    -17.9425219 -0.437890E-09  0.233E-04   12.07     110.8  T
     SCC iter.                  ...        0 min,  0.001 sec
     gradient                   ...        0 min,  0.002 sec
 * total energy  :   -17.7280497 Eh     change       -0.1735464E-04 Eh
   gradient norm :     0.0013779 Eh/α   predicted    -0.1358086E-04 ( -21.75%)
   displ. norm   :     0.0125150 α      lambda       -0.5141532E-05
   maximum displ.:     0.0073438 α      in ANC's #16, #7, #2, ...

........................................................................
.............................. CYCLE    5 ..............................
........................................................................

 iter      E             dE          RMSdq      gap      omega  full diag
   1    -17.9418944 -0.179419E+02  0.123E-02   12.09       0.0  T
   2    -17.9418945 -0.564331E-07  0.714E-03   12.09       3.6  T
   3    -17.9418945 -0.548387E-08  0.111E-03   12.09      23.2  T
   4    -17.9418945 -0.215208E-08  0.358E-04   12.09      72.2  T
   5    -17.9418945 -0.125681E-09  0.177E-04   12.09     145.6  T
     SCC iter.                  ...        0 min,  0.001 sec
     gradient                   ...        0 min,  0.002 sec
 * total energy  :   -17.7280522 Eh     change       -0.2552837E-05 Eh
   gradient norm :     0.0005356 Eh/α   predicted    -0.2568971E-05 (   0.63%)
   displ. norm   :     0.0032826 α      lambda       -0.6512662E-06
   maximum displ.:     0.0020735 α      in ANC's #16, #2, #10, ...

........................................................................
.............................. CYCLE    6 ..............................
........................................................................

 iter      E             dE          RMSdq      gap      omega  full diag
   1    -17.9420254 -0.179420E+02  0.392E-03   12.08       0.0  T
   2    -17.9420254 -0.280762E-08  0.234E-03   12.08      11.0  T
   3    -17.9420254 -0.284313E-09  0.223E-04   12.08     116.0  T
   4    -17.9420254 -0.200323E-09  0.907E-05   12.08     284.8  T
     SCC iter.                  ...        0 min,  0.001 sec
     gradient                   ...        0 min,  0.002 sec
 * total energy  :   -17.7280527 Eh     change       -0.5136149E-06 Eh
   gradient norm :     0.0000630 Eh/α   predicted    -0.3270174E-06 ( -36.33%)
   displ. norm   :     0.0027197 α      lambda       -0.4595319E-07
   maximum displ.:     0.0021684 α      in ANC's #2, #1, #3, ...

........................................................................
.............................. CYCLE    7 ..............................
........................................................................

 iter      E             dE          RMSdq      gap      omega  full diag
   1    -17.9420643 -0.179421E+02  0.121E-03   12.08       0.0  T
   2    -17.9420643 -0.128129E-09  0.724E-04   12.08      35.7  T
   3    -17.9420643 -0.189253E-10  0.478E-05   12.08     540.3  T
     SCC iter.                  ...        0 min,  0.000 sec
     gradient                   ...        0 min,  0.002 sec
 * total energy  :   -17.7280528 Eh     change       -0.5190955E-07 Eh
   gradient norm :     0.0000394 Eh/α   predicted    -0.2373208E-07 ( -54.28%)
   displ. norm   :     0.0041717 α      lambda       -0.4506796E-07
   maximum displ.:     0.0032280 α      in ANC's #2, #1, #3, ...

   *** GEOMETRY OPTIMIZATION CONVERGED AFTER 7 ITERATIONS ***

------------------------------------------------------------------------
 total energy gain   :        -0.0008284 Eh       -0.5199 kcal/mol
 total RMSD          :         0.0240453 a0        0.0127 Å
 total power (kW/mol):        -0.3107271 (step)  -58.7749 (real)
------------------------------------------------------------------------

 ANCopt (total)                0 d,  0 h,  0 min,  0.037 sec
 optimizer setup                ...        0 min,  0.000 sec (  0.768%)
 model hessian                  ...        0 min,  0.002 sec (  6.513%)
 ANC generation                 ...        0 min,  0.000 sec (  0.562%)
 coordinate transformation      ...        0 min,  0.000 sec (  0.079%)
 single point calculation       ...        0 min,  0.029 sec ( 77.893%)
 optimization log               ...        0 min,  0.004 sec ( 11.713%)
 hessian update                 ...        0 min,  0.000 sec (  0.070%)
 rational function              ...        0 min,  0.001 sec (  1.696%)

================
 final structure:
================
$coord
        4.83238834100949       -0.66657000817041        0.00157323967454      C
        2.46211186254481        0.96797702021295        0.06173761669735      C
        0.06639969933267       -0.63353000121762       -0.03053432620180      C
       -2.31908186173994        0.98303468588934        0.03789031439174      C
       -4.45137019733012       -0.62801116829865       -0.06133339928357      O
        4.88574915586853       -1.79086232291895       -1.71748857707570      H
        6.51741942641995        0.50627111376853        0.06651028957010      H
        4.86434854797781       -1.94428294165851        1.61044392073752      H
        2.45414974792307        2.10573029334397        1.78360770367125      H
        2.47761106040449        2.26244007564778       -1.54555955015491      H
        0.03524049012348       -1.76693988396875       -1.75375315054566      H
        0.01845602039605       -1.93317007126669        1.57062067084927      H
       -2.34972756279871        2.10685934270756        1.78365634975013      H
       -2.32646272780593        2.28338562391164       -1.58095642040402      H
       -5.97542368372508        0.37691900951685       -0.01985180470816      H
$end
 
 Bond Distances (Angstroems)
 ---------------------------
C1-C2=1.5240         C1-H6=1.0873         C1-H7=1.0870         C1-H8=1.0873         C2-C1=1.5240         C2-C3=1.5257         
C2-H9=1.0921         C2-H10=1.0921        C3-C2=1.5257         C3-C4=1.5253         C3-H11=1.0916        C3-H12=1.0916        
C4-C3=1.5253         C4-O5=1.4152         C4-H13=1.0988        C4-H14=1.0988        O5-C4=1.4152         O5-H15=0.9663        
H6-C1=1.0873         H7-C1=1.0870         H8-C1=1.0873         H9-C2=1.0921         H10-C2=1.0921        H11-C3=1.0916        
H12-C3=1.0916        H13-C4=1.0988        H14-C4=1.0988        H15-O5=0.9663        
 C  H  Rav=1.0918 sigma=0.0042  Rmin=1.0870  Rmax=1.0988     9
 C  C  Rav=1.5250 sigma=0.0008  Rmin=1.5240  Rmax=1.5257     3
 O  H  Rav=0.9663 sigma=0.0000  Rmin=0.9663  Rmax=0.9663     1
 O  C  Rav=1.4152 sigma=0.0000  Rmin=1.4152  Rmax=1.4152     1
 
 selected bond angles (degree)
 --------------------
H6-C1-C2=110.45                H7-C1-C2=110.51                H7-C1-H6=108.52                H8-C1-C2=110.45                
H8-C1-H6=108.33                H8-C1-H7=108.51                C3-C2-C1=111.59                H9-C2-C1=109.48                
H9-C2-C3=109.25                H10-C2-C1=109.48               H10-C2-C3=109.25               H10-C2-H9=107.70               
C4-C3-C2=112.05                H11-C3-C2=110.15               H11-C3-C4=108.39               H12-C3-C2=110.15               
H12-C3-C4=108.40               H12-C3-H11=107.57              O5-C4-C3=108.73                H13-C4-C3=109.62               
H13-C4-O5=110.21               H14-C4-C3=109.61               H14-C4-O5=110.21               H14-C4-H13=108.45              
H15-O5-C4=109.46               
 
 selected dihedral angles (degree)
 ---------------------------------
C3-C2-C1-H6= 59.84            C3-C2-C1-H7=179.94            C3-C2-C1-H8=300.03            H9-C2-C1-H6=180.91            
H9-C2-C1-H7=301.01            H9-C2-C1-H8= 61.10            H10-C2-C1-H6=298.77           H10-C2-C1-H7= 58.86           
H10-C2-C1-H8=178.95           C4-C3-C2-C1=179.80            C4-C3-C2-H9= 58.60            C4-C3-C2-H10=301.01           
H11-C3-C2-C1=300.55           H11-C3-C2-H9=179.34           H11-C3-C2-H10= 61.75          H12-C3-C2-C1= 59.05           
H12-C3-C2-H9=297.84           H12-C3-C2-H10=180.26          O5-C4-C3-C2=179.82            O5-C4-C3-H11= 58.07           
O5-C4-C3-H12=301.58           H13-C4-C3-C2=300.36           H13-C4-C3-H11=178.60          H13-C4-C3-H12= 62.12          
H14-C4-C3-C2= 59.29           H14-C4-C3-H11=297.53          H14-C4-C3-H12=181.05          H15-O5-C4-C3=180.03           
H15-O5-C4-H13= 59.86          H15-O5-C4-H14=300.19          
           -------------------------------------------------
          |                Final Singlepoint                |
           -------------------------------------------------

          ...................................................
          :                      SETUP                      :
          :.................................................:
          :  # basis functions                  30          :
          :  # atomic orbitals                  30          :
          :  # shells                           20          :
          :  # electrons                        32          :
          :  max. iterations                   250          :
          :  Hamiltonian                  GFN2-xTB          :
          :  restarted?                      false          :
          :  GBSA solvation                   true          :
          :  PC potential                    false          :
          :  electronic temp.          300.0000000     K    :
          :  accuracy                    1.0000000          :
          :  -> integral cutoff          0.2500000E+02      :
          :  -> integral neglect         0.1000000E-07      :
          :  -> SCF convergence          0.1000000E-05 Eh   :
          :  -> wf. convergence          0.1000000E-03 e    :
          :  Broyden damping             0.4000000          :
          :  net charge                          0          :
          :  unpaired electrons                  0          :
          ...................................................

 iter      E             dE          RMSdq      gap      omega  full diag
   1    -17.9420643 -0.179421E+02  0.222E-05   12.08       0.0  T
   2    -17.9420643 -0.120792E-12  0.135E-05   12.08    1914.0  T
   3    -17.9420643 -0.461853E-13  0.163E-06   12.08   15882.5  T

   *** convergence criteria satisfied after 3 iterations ***

         #    Occupation            Energy/Eh            Energy/eV
      -------------------------------------------------------------
         1        2.0000           -0.6869670             -18.6933
       ...           ...                  ...                  ...
        10        2.0000           -0.4823579             -13.1256
        11        2.0000           -0.4629301             -12.5970
        12        2.0000           -0.4550853             -12.3835
        13        2.0000           -0.4362436             -11.8708
        14        2.0000           -0.4345245             -11.8240
        15        2.0000           -0.4247279             -11.5574
        16        2.0000           -0.4079667             -11.1013 (HOMO)
        17                          0.0360758               0.9817 (LUMO)
        18                          0.1003258               2.7300
        19                          0.1230557               3.3485
        20                          0.1273207               3.4646
        21                          0.1475390               4.0147
       ...                                ...                  ...
        30                          0.3094166               8.4197
      -------------------------------------------------------------
                  HL-Gap            0.4440425 Eh           12.0830 eV
             Fermi-level           -0.1859454 Eh           -5.0598 eV

 SCC (total)                   0 d,  0 h,  0 min,  0.004 sec
 SCC setup                      ...        0 min,  0.001 sec ( 13.839%)
 Dispersion                     ...        0 min,  0.000 sec (  0.690%)
 classical contributions        ...        0 min,  0.000 sec (  0.226%)
 integral evaluation            ...        0 min,  0.001 sec ( 14.556%)
 iterations                     ...        0 min,  0.001 sec ( 14.606%)
 molecular gradient             ...        0 min,  0.002 sec ( 53.876%)
 printout                       ...        0 min,  0.000 sec (  1.964%)

         :::::::::::::::::::::::::::::::::::::::::::::::::::::
         ::                     SUMMARY                     ::
         :::::::::::::::::::::::::::::::::::::::::::::::::::::
         :: total energy             -17.728052782085 Eh    ::
         :: total w/o Gsasa/hb       -17.723038327247 Eh    ::
         :: gradient norm              0.000039442888 Eh/a0 ::
         :: HOMO-LUMO gap             12.083011669911 eV    ::
         ::.................................................::
         :: SCC energy               -17.942064519006 Eh    ::
         :: -> isotropic ES            0.036219561834 Eh    ::
         :: -> anisotropic ES          0.003559467352 Eh    ::
         :: -> anisotropic XC          0.006001219860 Eh    ::
         :: -> dispersion             -0.006870648755 Eh    ::
         :: -> Gsolv                  -0.009753242696 Eh    ::
         ::    -> Gelec               -0.004738787857 Eh    ::
         ::    -> Gsasa                0.000617903593 Eh    ::
         ::    -> Ghb                 -0.006713118130 Eh    ::
         ::    -> Gshift               0.001080759698 Eh    ::
         :: repulsion energy           0.214011736920 Eh    ::
         :: add. restraining           0.000000000000 Eh    ::
         :: total charge              -0.000000000000 e     ::
         :::::::::::::::::::::::::::::::::::::::::::::::::::::

           ------------------------------------------------- 
          |                Numerical Hessian                |
           ------------------------------------------------- 
step length          :   0.00500
SCC accuracy         :   0.30000
Hessian scale factor :   1.00000
frozen atoms in %    :   0.00000    0
RMS gradient         :   0.00004
estimated CPU  time      0.01 min
estimated wall time      0.01 min

writing file <hessian>.

 projected vibrational frequencies (cm⁻¹)
eigval :       -0.00    -0.00     0.00     0.00     0.00     0.00
eigval :       96.48   103.72   186.40   233.40   272.65   394.97
eigval :      420.29   777.35   837.48   938.30   949.12  1020.36
eigval :     1062.77  1099.32  1125.50  1158.03  1196.74  1219.94
eigval :     1270.21  1277.18  1280.40  1350.35  1375.52  1411.36
eigval :     1482.91  1491.58  1495.95  1497.46  1501.70  2855.45
eigval :     2890.30  2961.45  2977.88  2979.72  2991.68  3030.89
eigval :     3033.55  3042.06  3508.99
           -------------------------------------------------
          |                Property Printout                |
           -------------------------------------------------

    * Orbital Energies and Occupations

         #    Occupation            Energy/Eh            Energy/eV
      -------------------------------------------------------------
         1        2.0000           -0.6869670             -18.6933
       ...           ...                  ...                  ...
         4        2.0000           -0.5790931             -15.7579
         5        2.0000           -0.5690687             -15.4851
         6        2.0000           -0.5470520             -14.8860
         7        2.0000           -0.5329889             -14.5034
         8        2.0000           -0.5118297             -13.9276
         9        2.0000           -0.5004923             -13.6191
        10        2.0000           -0.4823579             -13.1256
        11        2.0000           -0.4629301             -12.5970
        12        2.0000           -0.4550853             -12.3835
        13        2.0000           -0.4362436             -11.8708
        14        2.0000           -0.4345245             -11.8240
        15        2.0000           -0.4247279             -11.5574
        16        2.0000           -0.4079667             -11.1013 (HOMO)
        17                          0.0360758               0.9817 (LUMO)
        18                          0.1003258               2.7300
        19                          0.1230557               3.3485
        20                          0.1273207               3.4646
        21                          0.1475390               4.0147
        22                          0.1617801               4.4023
        23                          0.1690558               4.6002
        24                          0.1876288               5.1056
        25                          0.1890813               5.1452
        26                          0.2371787               6.4540
        27                          0.2449874               6.6664
       ...                                ...                  ...
        30                          0.3094166               8.4197
      -------------------------------------------------------------
                  HL-Gap            0.4440425 Eh           12.0830 eV
             Fermi-level           -0.1859454 Eh           -5.0598 eV

     #   Z          covCN         q      C6AA      α(0)
     1   6 C        3.752    -0.114    22.736     6.800
     2   6 C        3.801    -0.061    21.668     6.627
     3   6 C        3.802    -0.069    21.823     6.651
     4   6 C        3.674     0.085    19.396     6.311
     5   8 O        1.655    -0.526    23.462     6.539
     6   1 H        0.925     0.040     2.443     2.444
     7   1 H        0.925     0.043     2.412     2.429
     8   1 H        0.925     0.040     2.443     2.444
     9   1 H        0.924     0.035     2.521     2.483
    10   1 H        0.924     0.035     2.521     2.483
    11   1 H        0.924     0.046     2.376     2.411
    12   1 H        0.924     0.046     2.377     2.411
    13   1 H        0.923     0.020     2.741     2.589
    14   1 H        0.923     0.020     2.741     2.589
    15   1 H        0.805     0.362     0.561     1.176

 Mol. C6AA /au·bohr⁶  :       1463.309774
 Mol. C8AA /au·bohr⁸  :      29943.712201
 Mol. α(0) /au        :         56.386940


Wiberg/Mayer (AO) data.
largest (>0.10) Wiberg bond orders for each atom

 ---------------------------------------------------------------------------
     #   Z sym  total        # sym  WBO       # sym  WBO       # sym  WBO
 ---------------------------------------------------------------------------
     1   6 C    3.996 --     2 C    1.020     8 H    0.988     6 H    0.988
                             7 H    0.987
     2   6 C    3.997 --     1 C    1.020     3 C    1.008    10 H    0.978
                             9 H    0.978
     3   6 C    3.994 --     2 C    1.008     4 C    1.005    12 H    0.976
                            11 H    0.976
     4   6 C    3.954 --     3 C    1.005     5 O    0.990    13 H    0.972
                            14 H    0.972
     5   8 O    1.897 --     4 C    0.990    15 H    0.856
     6   1 H    0.998 --     1 C    0.988
     7   1 H    0.998 --     1 C    0.987
     8   1 H    0.998 --     1 C    0.988
     9   1 H    0.999 --     2 C    0.978
    10   1 H    0.999 --     2 C    0.978
    11   1 H    0.998 --     3 C    0.976
    12   1 H    0.998 --     3 C    0.976
    13   1 H    1.000 --     4 C    0.972
    14   1 H    1.000 --     4 C    0.972
    15   1 H    0.869 --     5 O    0.856
 ---------------------------------------------------------------------------

Topologies differ in total number of bonds
Writing topology from bond orders to xtbtopo.mol

molecular dipole:
                 x           y           z       tot (Debye)
 q only:        0.034       0.550       0.029
   full:       -0.052       0.747       0.038       1.907
molecular quadrupole (traceless):
                xx          xy          yy          xz          yz          zz
 q only:        3.459      -4.020      -1.627      -0.172      -0.016      -1.832
  q+dip:        2.154      -5.583      -1.957      -0.274      -0.125      -0.197
   full:        3.118      -5.489      -1.913      -0.256      -0.071      -1.205

           -------------------------------------------------
          |                Geometry Summary                 |
           -------------------------------------------------

      molecular mass/u    :       74.1217560
   center of mass at/Å    :        0.0001586      -0.0000429       0.0004730
  moments of inertia/u·Å² :        0.2675405E+02   0.2541546E+03   0.2683089E+03
rotational constants/cm⁻¹ :        0.6300965E+00   0.6632825E-01   0.6282920E-01

 * 14 selected distances

     #   Z          #   Z                                           value/Å
     1   6 C        2   6 C                                       1.5239547
     2   6 C        3   6 C                                       1.5257178 (max)
     3   6 C        4   6 C                                       1.5253240
     4   6 C        5   8 O                                       1.4151874
     1   6 C        6   1 H                                       1.0873343
     1   6 C        7   1 H                                       1.0869542
     1   6 C        8   1 H                                       1.0873320
     2   6 C        9   1 H                                       1.0921304
     2   6 C       10   1 H                                       1.0921171
     3   6 C       11   1 H                                       1.0915776
     3   6 C       12   1 H                                       1.0915761
     4   6 C       13   1 H                                       1.0988070
     4   6 C       14   1 H                                       1.0988085
     5   8 O       15   1 H                                       0.9662876 (min)

 * 4 distinct bonds (by element types)

   Z      Z             #   av. dist./Å        max./Å        min./Å
   1 H    6 C           9     1.0918486     1.0988085     1.0869542
   6 C    6 C           3     1.5249988     1.5257178     1.5239547
   1 H    8 O           1     0.9662876     0.9662876     0.9662876
   6 C    8 O           1     1.4151874     1.4151874     1.4151874

           -------------------------------------------------
          |               Frequency Printout                |
           -------------------------------------------------
 projected vibrational frequencies (cm⁻¹)
eigval :       -0.00    -0.00     0.00     0.00     0.00     0.00
eigval :       96.48   103.72   186.40   233.40   272.65   394.97
eigval :      420.29   777.35   837.48   938.30   949.12  1020.36
eigval :     1062.77  1099.32  1125.50  1158.03  1196.74  1219.94
eigval :     1270.21  1277.18  1280.40  1350.35  1375.52  1411.36
eigval :     1482.91  1491.58  1495.95  1497.46  1501.70  2855.45
eigval :     2890.30  2961.45  2977.88  2979.72  2991.68  3030.89
eigval :     3033.55  3042.06  3508.99
 reduced masses (amu)
   1: 11.44   2:  9.34   3: 10.97   4: 10.78   5: 11.52   6:  8.51   7:  9.26   8:  6.49
   9:  9.99  10:  2.12  11:  2.17  12:  9.81  13: 10.95  14:  1.74  15:  2.40  16:  5.82
  17:  2.37  18:  9.63  19:  9.93  20:  9.31  21:  7.00  22:  5.16  23:  4.53  24:  4.43
  25:  1.59  26:  3.90  27:  2.44  28:  4.34  29:  5.11  30:  3.21  31:  1.85  32:  1.95
  33:  1.83  34:  1.53  35:  1.61  36:  1.98  37:  1.41  38:  1.95  39:  2.01  40:  1.47
  41:  1.49  42:  1.95  43:  1.93  44:  1.26  45:  1.88
 IR intensities (km·mol⁻¹)
   1:  0.21   2:  1.90   3:  0.06   4:  0.41   5:  0.27   6:  3.37   7:  0.26   8:  7.88
   9:  4.43  10:  0.01  11:220.56  12:  0.26  13: 14.79  14:  7.52  15:  3.22  16: 21.54
  17:  0.05  18:  1.95  19:144.86  20:  9.89  21:  2.12  22: 10.83  23: 89.72  24:  0.73
  25:  0.01  26: 19.39  27:  0.47  28:  7.02  29: 14.11  30:  0.21  31:  4.44  32:  0.97
  33:  1.29  34:  1.59  35:  0.60  36:123.10  37: 89.50  38: 32.74  39:128.04  40: 51.05
  41: 73.25  42: 83.53  43: 83.05  44: 40.58  45: 71.48
 Raman intensities (Ä⁴*amu⁻¹)
   1:  0.00   2:  0.00   3:  0.00   4:  0.00   5:  0.00   6:  0.00   7:  0.00   8:  0.00
   9:  0.00  10:  0.00  11:  0.00  12:  0.00  13:  0.00  14:  0.00  15:  0.00  16:  0.00
  17:  0.00  18:  0.00  19:  0.00  20:  0.00  21:  0.00  22:  0.00  23:  0.00  24:  0.00
  25:  0.00  26:  0.00  27:  0.00  28:  0.00  29:  0.00  30:  0.00  31:  0.00  32:  0.00
  33:  0.00  34:  0.00  35:  0.00  36:  0.00  37:  0.00  38:  0.00  39:  0.00  40:  0.00
  41:  0.00  42:  0.00  43:  0.00  44:  0.00  45:  0.00
 output can be read by thermo (or use thermo option).
 writing <g98.out> molden fake output.
 recommended (thermochemical) frequency scaling factor: 1.0
           -------------------------------------------------
          |             Thermodynamic Functions             |
           -------------------------------------------------

Molecule has the following symmetry elements: (sigma) 
It seems to be the Cs point group
cs  symmetry found (for desy threshold:  0.10E+00) used in thermo

          ...................................................
          :                      SETUP                      :
          :.................................................:
          :  # frequencies                          39      :
          :  # imaginary freq.                       0      :
          :  linear?                             false      :
          :  only rotor calc.                    false      :
          :  symmetry                               cs      :
          :  rotational number                       1      :
          :  scaling factor                  1.0000000      :
          :  rotor cutoff                    0.0000000 cm⁻¹ :
          :  imag. cutoff                 -100.0000000 cm⁻¹ :
          :.................................................:

    mode    ω/cm⁻¹     T·S(HO)/kcal·mol⁻¹    T·S(FR)/kcal·mol⁻¹   T·S(vib)
   ------------------------------------------------------------------------
       1     96.48    -1.05073 (100.00%)    -0.86154 (  0.00%)    -1.05073
       2    103.72    -1.00870 (100.00%)    -0.84013 (  0.00%)    -1.00870
       3    186.40    -0.67482 (100.00%)    -0.66659 (  0.00%)    -0.67482
       4    233.40    -0.55237 (100.00%)    -0.60001 (  0.00%)    -0.55237
       5    272.65    -0.47088 (100.00%)    -0.55397 (  0.00%)    -0.47088
   ------------------------------------------------------------------------

   temp. (K)  partition function   enthalpy   heat capacity  entropy
                                   cal/mol     cal/K/mol   cal/K/mol   J/K/mol
 298.15  VIB   35.1                 2582.755     17.392     15.732
         ROT  0.103E+06              888.752      2.981     25.922
         INT  0.362E+07             3471.507     20.373     41.655
         TR   0.617E+27             1481.254      4.968     38.808
         TOT                        4952.7613    25.3414    80.4624   336.6547

       T/K    H(0)-H(T)+PV         H(T)/Eh          T*S/Eh         G(T)/Eh
   ------------------------------------------------------------------------
    298.15    0.789273E-02    0.141848E+00    0.382303E-01    0.103617E+00
   ------------------------------------------------------------------------

         :::::::::::::::::::::::::::::::::::::::::::::::::::::
         ::                  THERMODYNAMIC                  ::
         :::::::::::::::::::::::::::::::::::::::::::::::::::::
         :: total free energy         -17.624435412040 Eh   ::
         ::.................................................::
         :: total energy              -17.728052782131 Eh   ::
         :: zero point energy           0.133954924982 Eh   ::
         :: G(RRHO) w/o ZPVE           -0.030337554891 Eh   ::
         :: G(RRHO) contrib.            0.103617370091 Eh   ::
         :::::::::::::::::::::::::::::::::::::::::::::::::::::

optimized geometry written to: xtbopt.coord


           -------------------------------------------------
          | TOTAL ENERGY              -17.728052782131 Eh   |
          | TOTAL ENTHALPY            -17.586205129616 Eh   |
          | TOTAL FREE ENERGY         -17.624435412040 Eh   |
          | GRADIENT NORM               0.000039440612 Eh/α |
          | HOMO-LUMO GAP              12.083011713776 eV   |
           -------------------------------------------------

------------------------------------------------------------------------
 * finished run on 2025/04/06 at 22:38:51.115     
------------------------------------------------------------------------
 total:
 * wall-time:     0 d,  0 h,  0 min,  0.490 sec
 *  cpu-time:     0 d,  0 h,  0 min,  0.406 sec
 * ratio c/w:     0.829 speedup
 SCF:
 * wall-time:     0 d,  0 h,  0 min,  0.020 sec
 *  cpu-time:     0 d,  0 h,  0 min,  0.007 sec
 * ratio c/w:     0.355 speedup
 ANC optimizer:
 * wall-time:     0 d,  0 h,  0 min,  0.052 sec
 *  cpu-time:     0 d,  0 h,  0 min,  0.038 sec
 * ratio c/w:     0.735 speedup
 analytical hessian:
 * wall-time:     0 d,  0 h,  0 min,  0.361 sec
 *  cpu-time:     0 d,  0 h,  0 min,  0.352 sec
 * ratio c/w:     0.975 speedup

