 Entering Gaussian System
 *********************************************
 Gaussian 98:
 frequency output generated by the xtb code
 *********************************************
                         Standard orientation:
 --------------------------------------------------------------------
  Center     Atomic     Atomic              Coordinates (Angstroms)
  Number     Number      Type              X           Y           Z
 --------------------------------------------------------------------
    1          6             0       -2.518435    0.376155    0.256157
    2          6             0       -2.121951   -0.947457    0.365503
    3          6             0       -0.803270   -1.296730    0.141701
    4          6             0        0.117005   -0.310621   -0.190931
    5          6             0       -0.269061    1.014655   -0.311381
    6          6             0       -1.594371    1.349236   -0.082476
    7          8             0        1.422697   -0.763554   -0.440859
    8          6             0        2.496205   -0.050805   -0.196924
    9          8             0        2.569459    1.053153    0.276442
   10          1             0       -3.546975    0.648133    0.432581
   11          1             0       -2.838555   -1.710029    0.625655
   12          1             0       -0.469124   -2.318654    0.218726
   13          1             0        0.449575    1.773436   -0.575300
   14          1             0       -1.899165    2.379748   -0.173542
   15          1             0        3.378114   -0.641642   -0.491120
 --------------------------------------------------------------------
     1 basis functions        1 primitive gaussians
     1 alpha electrons        1 beta electrons
 
 Harmonic frequencies (cm**-1), IR intensities (km*mol⁻¹),
 Raman scattering activities (A**4/amu), Raman depolarization ratios,
 reduced masses (AMU), force constants (mDyne/A) and normal coordinates:
                      1                      2                      3
                        a                      a                      a 
 Frequencies --    23.8740               144.5423               196.5336
 Red. masses --    13.4001                12.1523                10.4674
 Frc consts  --     0.0000                 0.0000                 0.0000
 IR Inten    --     3.5326                 6.6552                 9.1774
 Raman Activ --     0.0000                 0.0000                 0.0000
 Depolar     --     0.0000                 0.0000                 0.0000
 Atom AN      X      Y      Z        X      Y      Z        X      Y      Z
   1   6     0.07   0.02   0.14     0.19   0.13   0.27    -0.06  -0.08   0.25
   2   6     0.12   0.05   0.28     0.02   0.06  -0.02     0.04  -0.07   0.06
   3   6     0.09   0.04   0.12    -0.06  -0.09  -0.25     0.02   0.07  -0.23
   4   6     0.00   0.01  -0.19     0.02  -0.16  -0.21    -0.07   0.16  -0.24
   5   6    -0.04  -0.02  -0.34     0.14  -0.12  -0.17    -0.21   0.12  -0.25
   6   6    -0.01  -0.01  -0.18     0.23   0.04   0.11    -0.22  -0.02  -0.01
   7   8    -0.00   0.09  -0.42     0.09  -0.19   0.08    -0.03   0.11   0.08
   8   6    -0.05   0.02  -0.00    -0.10   0.05   0.24     0.10  -0.22   0.37
   9   8    -0.18  -0.21   0.57    -0.51   0.26  -0.13     0.39  -0.03  -0.12
  10   1     0.03   0.01   0.08     0.08   0.08   0.16    -0.01  -0.04   0.16
  11   1     0.05   0.02   0.15    -0.01   0.04   0.00     0.05  -0.04   0.05
  12   1     0.04   0.02   0.07    -0.05  -0.04  -0.11     0.04   0.03  -0.09
  13   1    -0.03  -0.02  -0.17     0.05  -0.05  -0.08    -0.09   0.05  -0.09
  14   1    -0.02  -0.01  -0.08     0.10   0.02   0.07    -0.10  -0.01   0.01
  15   1     0.00   0.06  -0.06     0.03   0.02   0.22     0.00  -0.20   0.31
                      4                      5                      6
                        a                      a                      a 
 Frequencies --   287.2505               372.8886               375.0640
 Red. masses --    11.0992                 9.7458                10.9753
 Frc consts  --     0.0000                 0.0000                 0.0000
 IR Inten    --     9.7770                 3.9779                10.1823
 Raman Activ --     0.0000                 0.0000                 0.0000
 Depolar     --     0.0000                 0.0000                 0.0000
 Atom AN      X      Y      Z        X      Y      Z        X      Y      Z
   1   6    -0.01   0.11   0.25    -0.06   0.04  -0.09     0.09  -0.07   0.16
   2   6    -0.18   0.04  -0.04    -0.16  -0.01  -0.29     0.08  -0.11  -0.32
   3   6    -0.24  -0.16  -0.20    -0.02  -0.03   0.43     0.18   0.17   0.07
   4   6    -0.08  -0.21   0.05    -0.05  -0.15  -0.07     0.08   0.26   0.14
   5   6    -0.06  -0.23  -0.21    -0.08  -0.18  -0.28    -0.05   0.19  -0.34
   6   6     0.01  -0.04  -0.10     0.10   0.04   0.40    -0.03   0.04   0.13
   7   8     0.08   0.08   0.29     0.04   0.12  -0.23    -0.08  -0.18   0.38
   8   6     0.07   0.27  -0.21     0.04   0.04   0.13    -0.05  -0.07  -0.21
   9   8     0.38   0.10   0.20     0.17   0.11  -0.02    -0.20  -0.20   0.04
  10   1     0.02   0.07   0.17    -0.02   0.02  -0.06     0.03  -0.04   0.11
  11   1    -0.08   0.03  -0.02    -0.08  -0.00  -0.18     0.03  -0.07  -0.21
  12   1    -0.12  -0.07  -0.09    -0.01  -0.00   0.27     0.12   0.07   0.04
  13   1     0.00  -0.10  -0.10    -0.03  -0.09  -0.19    -0.06   0.06  -0.21
  14   1     0.04  -0.00  -0.06     0.08   0.04   0.24    -0.05   0.00   0.08
  15   1    -0.01   0.13  -0.28     0.01  -0.04   0.13    -0.02   0.05  -0.21
                      7                      8                      9
                        a                      a                      a 
 Frequencies --   470.0694               498.4119               583.5662
 Red. masses --    12.5000                10.2403                11.2298
 Frc consts  --     0.0000                 0.0000                 0.0000
 IR Inten    --     4.5011                 2.2239                 0.0777
 Raman Activ --     0.0000                 0.0000                 0.0000
 Depolar     --     0.0000                 0.0000                 0.0000
 Atom AN      X      Y      Z        X      Y      Z        X      Y      Z
   1   6    -0.42   0.09   0.05    -0.03  -0.09  -0.33    -0.05  -0.16   0.07
   2   6    -0.10   0.20   0.01     0.05  -0.02   0.24    -0.41  -0.23   0.09
   3   6    -0.04   0.26  -0.03    -0.01   0.04  -0.06    -0.25   0.36   0.03
   4   6     0.26  -0.03  -0.10    -0.13  -0.02  -0.56     0.05   0.15  -0.01
   5   6    -0.16  -0.09   0.04     0.03   0.07  -0.09     0.38   0.17  -0.08
   6   6    -0.22  -0.10   0.08     0.07   0.02   0.25     0.26  -0.42  -0.02
   7   8     0.48  -0.25  -0.02    -0.04  -0.14   0.35    -0.01   0.01  -0.09
   8   6     0.34  -0.04  -0.06    -0.08   0.09  -0.11    -0.01   0.04   0.02
   9   8    -0.16  -0.05   0.01     0.09   0.01   0.09     0.04   0.05   0.01
  10   1    -0.12   0.02   0.02    -0.01  -0.02  -0.11     0.02   0.11  -0.02
  11   1     0.03   0.00   0.01     0.06   0.02   0.25    -0.08  -0.11   0.00
  12   1    -0.08   0.05   0.03     0.06   0.04   0.13    -0.02   0.11  -0.03
  13   1    -0.11   0.05   0.04     0.03   0.05   0.13     0.06   0.09  -0.03
  14   1    -0.01  -0.01   0.03     0.04   0.03   0.26     0.02  -0.14  -0.02
  15   1     0.15   0.07  -0.02    -0.03   0.06  -0.14    -0.00   0.01   0.02
                     10                     11                     12
                        a                      a                      a 
 Frequencies --   653.0994               731.8746               759.9531
 Red. masses --     9.8978                10.8877                 5.9233
 Frc consts  --     0.0000                 0.0000                 0.0000
 IR Inten    --     1.7033                11.2723                48.4710
 Raman Activ --     0.0000                 0.0000                 0.0000
 Depolar     --     0.0000                 0.0000                 0.0000
 Atom AN      X      Y      Z        X      Y      Z        X      Y      Z
   1   6    -0.07  -0.05  -0.31     0.25  -0.07  -0.09     0.18  -0.02   0.13
   2   6     0.05   0.04   0.37    -0.25  -0.25   0.04    -0.09  -0.12   0.15
   3   6    -0.08  -0.04  -0.31    -0.20  -0.19   0.01    -0.05  -0.05   0.19
   4   6     0.09   0.07   0.44    -0.20   0.05   0.08    -0.15  -0.01  -0.29
   5   6    -0.05  -0.05  -0.31    -0.06   0.17  -0.07    -0.02   0.16   0.16
   6   6     0.09   0.04   0.36    -0.04   0.24  -0.08    -0.05   0.22   0.09
   7   8     0.00   0.07  -0.03     0.24   0.23   0.02     0.15  -0.18   0.03
   8   6     0.06  -0.04   0.01     0.45  -0.12  -0.06     0.09   0.04  -0.03
   9   8    -0.05  -0.02  -0.02    -0.24  -0.12  -0.05     0.03   0.04   0.03
  10   1    -0.05  -0.03  -0.25     0.11   0.03   0.14    -0.04  -0.08  -0.40
  11   1    -0.00  -0.00   0.02    -0.12   0.03   0.16    -0.14  -0.05  -0.31
  12   1    -0.05  -0.03  -0.25     0.02  -0.02   0.13    -0.04  -0.05  -0.27
  13   1    -0.04  -0.04  -0.25     0.06   0.03   0.13    -0.05  -0.02  -0.28
  14   1     0.01  -0.00   0.02    -0.06   0.07   0.15    -0.15  -0.01  -0.32
  15   1     0.02  -0.01   0.01     0.15   0.00  -0.00     0.05   0.04   0.00
                     13                     14                     15
                        a                      a                      a 
 Frequencies --   814.2893               868.7212               898.1124
 Red. masses --    13.2217                 3.3485                 3.5381
 Frc consts  --     0.0000                 0.0000                 0.0000
 IR Inten    --    79.6666                 0.4402                 1.8701
 Raman Activ --     0.0000                 0.0000                 0.0000
 Depolar     --     0.0000                 0.0000                 0.0000
 Atom AN      X      Y      Z        X      Y      Z        X      Y      Z
   1   6     0.12  -0.07  -0.10    -0.01   0.01   0.01     0.06   0.04   0.28
   2   6    -0.10  -0.13   0.01     0.05   0.04   0.18     0.01   0.01   0.05
   3   6    -0.06   0.01  -0.03     0.06   0.03   0.26    -0.05  -0.04  -0.25
   4   6     0.03   0.04   0.23    -0.01  -0.00  -0.01     0.01   0.01   0.08
   5   6    -0.08   0.15  -0.08    -0.05  -0.04  -0.27    -0.05  -0.02  -0.24
   6   6    -0.13   0.24  -0.05    -0.03  -0.04  -0.16     0.02   0.01   0.07
   7   8     0.15  -0.61  -0.27    -0.00   0.02   0.01     0.01  -0.03  -0.04
   8   6    -0.24   0.13   0.11     0.00  -0.01   0.00    -0.03  -0.00   0.02
   9   8     0.25   0.22   0.06    -0.01  -0.01  -0.00     0.01   0.01  -0.00
  10   1     0.06  -0.02   0.17    -0.01   0.00  -0.02    -0.09  -0.07  -0.44
  11   1    -0.03   0.00   0.11    -0.08  -0.05  -0.37    -0.04  -0.02  -0.17
  12   1     0.03   0.02   0.02    -0.10  -0.07  -0.48     0.09   0.07   0.49
  13   1    -0.00   0.06   0.08     0.10   0.08   0.50     0.09   0.08   0.47
  14   1    -0.08   0.07   0.13     0.08   0.05   0.34    -0.05  -0.03  -0.21
  15   1    -0.01   0.12   0.00     0.00   0.00  -0.00    -0.00   0.02  -0.01
                     16                     17                     18
                        a                      a                      a 
 Frequencies --   923.7093               927.0044               928.6622
 Red. masses --     4.1153                 5.4897                 3.3080
 Frc consts  --     0.0000                 0.0000                 0.0000
 IR Inten    --     0.1166                 6.5770                 0.0688
 Raman Activ --     0.0000                 0.0000                 0.0000
 Depolar     --     0.0000                 0.0000                 0.0000
 Atom AN      X      Y      Z        X      Y      Z        X      Y      Z
   1   6     0.00  -0.01  -0.04    -0.00   0.00   0.04     0.07   0.04   0.30
   2   6     0.06   0.04   0.32     0.02   0.02   0.02    -0.04  -0.03  -0.17
   3   6    -0.05  -0.02  -0.22     0.00   0.00  -0.03    -0.00   0.01  -0.00
   4   6     0.01  -0.00   0.00    -0.02  -0.01  -0.04     0.02   0.01   0.08
   5   6     0.04   0.02   0.20     0.02   0.02   0.05     0.00   0.00   0.04
   6   6    -0.06  -0.03  -0.26    -0.01  -0.02  -0.08    -0.06  -0.03  -0.24
   7   8     0.00  -0.02   0.01    -0.01   0.06  -0.08     0.00  -0.02   0.01
   8   6    -0.01   0.04  -0.09     0.04  -0.23   0.53    -0.01   0.04  -0.09
   9   8     0.01  -0.01   0.03    -0.02   0.06  -0.16     0.01  -0.01   0.03
  10   1     0.02   0.01   0.07    -0.02  -0.01  -0.08    -0.12  -0.08  -0.56
  11   1    -0.11  -0.08  -0.52     0.00  -0.01  -0.03     0.08   0.05   0.38
  12   1     0.07   0.05   0.36     0.01   0.00   0.02    -0.02  -0.01  -0.10
  13   1    -0.06  -0.05  -0.29    -0.01  -0.02  -0.11    -0.03  -0.03  -0.17
  14   1     0.08   0.06   0.41     0.03   0.02   0.14     0.10   0.07   0.48
  15   1     0.00  -0.05   0.12    -0.03   0.29  -0.69     0.00  -0.05   0.11
                     19                     20                     21
                        a                      a                      a 
 Frequencies --   976.1812              1075.1336              1112.7021
 Red. masses --    11.1457                 6.2434                 3.9367
 Frc consts  --     0.0000                 0.0000                 0.0000
 IR Inten    --    13.9922                 2.0344                 3.6937
 Raman Activ --     0.0000                 0.0000                 0.0000
 Depolar     --     0.0000                 0.0000                 0.0000
 Atom AN      X      Y      Z        X      Y      Z        X      Y      Z
   1   6     0.37  -0.10  -0.06    -0.41   0.15   0.07     0.12   0.16  -0.05
   2   6    -0.12  -0.18   0.05    -0.15  -0.32   0.08    -0.09  -0.01   0.02
   3   6    -0.07   0.52  -0.05     0.16  -0.07  -0.02     0.13  -0.14  -0.01
   4   6     0.25  -0.07  -0.06    -0.02   0.02   0.00    -0.05   0.13  -0.00
   5   6    -0.29  -0.44   0.12     0.13  -0.06  -0.02    -0.26  -0.09   0.07
   6   6    -0.02   0.21  -0.02     0.03   0.31  -0.05     0.07  -0.25   0.02
   7   8    -0.07   0.11   0.04     0.02   0.01   0.00    -0.01  -0.07  -0.02
   8   6    -0.06  -0.02   0.01    -0.03  -0.01  -0.00     0.04   0.01   0.01
   9   8    -0.01  -0.03  -0.02    -0.00  -0.01  -0.00     0.01   0.02   0.01
  10   1     0.10  -0.02  -0.02    -0.11   0.08   0.01     0.12   0.39  -0.08
  11   1     0.02  -0.09   0.01     0.13  -0.27   0.01    -0.27   0.23   0.02
  12   1     0.01   0.15  -0.03     0.43   0.10  -0.10     0.47   0.09  -0.10
  13   1    -0.05  -0.15   0.06     0.21  -0.18  -0.01    -0.34   0.22   0.03
  14   1     0.07   0.07  -0.04     0.30   0.17  -0.09     0.17  -0.03  -0.03
  15   1    -0.05  -0.03  -0.03    -0.00   0.00   0.00     0.02   0.02  -0.00
                     22                     23                     24
                        a                      a                      a 
 Frequencies --  1128.7135              1174.1055              1176.2391
 Red. masses --    10.4483                 2.3150                 8.1093
 Frc consts  --     0.0000                 0.0000                 0.0000
 IR Inten    --    93.5502                34.7993               333.2232
 Raman Activ --     0.0000                 0.0000                 0.0000
 Depolar     --     0.0000                 0.0000                 0.0000
 Atom AN      X      Y      Z        X      Y      Z        X      Y      Z
   1   6     0.06  -0.05  -0.00     0.01   0.09  -0.02     0.05  -0.01  -0.01
   2   6     0.18   0.16  -0.06     0.05  -0.10   0.01     0.03   0.14  -0.03
   3   6    -0.09   0.21  -0.02     0.05  -0.05  -0.00     0.04   0.10  -0.02
   4   6    -0.49   0.08   0.09     0.01  -0.03   0.00    -0.30   0.01   0.06
   5   6    -0.06  -0.12   0.03    -0.11   0.05   0.02    -0.05  -0.05   0.02
   6   6     0.06  -0.15   0.01     0.01   0.01  -0.01    -0.03  -0.12   0.02
   7   8    -0.27  -0.26  -0.09    -0.17  -0.08  -0.02     0.47   0.13   0.03
   8   6     0.44   0.05  -0.01     0.15   0.02  -0.00    -0.36  -0.05  -0.01
   9   8    -0.00   0.16   0.07    -0.00   0.06   0.03     0.01  -0.14  -0.06
  10   1    -0.01  -0.14   0.02     0.15   0.64  -0.12     0.07   0.24  -0.05
  11   1     0.14  -0.03  -0.03     0.40  -0.40  -0.03     0.05  -0.00  -0.01
  12   1     0.19   0.13  -0.05    -0.27  -0.10   0.07     0.19   0.09  -0.05
  13   1     0.17  -0.22   0.01    -0.06   0.04   0.01     0.28  -0.30  -0.01
  14   1     0.05  -0.03  -0.01    -0.16  -0.04   0.04    -0.37  -0.14   0.10
  15   1     0.15   0.07   0.03     0.03   0.00  -0.00    -0.03   0.04   0.02
                     25                     26                     27
                        a                      a                      a 
 Frequencies --  1197.3387              1269.8191              1318.3948
 Red. masses --     6.1703                 3.4740                11.7995
 Frc consts  --     0.0000                 0.0000                 0.0000
 IR Inten    --   214.3845                 0.3033                 5.8420
 Raman Activ --     0.0000                 0.0000                 0.0000
 Depolar     --     0.0000                 0.0000                 0.0000
 Atom AN      X      Y      Z        X      Y      Z        X      Y      Z
   1   6    -0.07   0.05   0.01    -0.05  -0.15   0.03    -0.10  -0.39   0.08
   2   6    -0.10  -0.01   0.02     0.06  -0.13   0.01    -0.29   0.26   0.02
   3   6     0.10  -0.05  -0.02     0.20   0.02  -0.04     0.38   0.10  -0.09
   4   6     0.36  -0.11  -0.06     0.05   0.27  -0.05    -0.06  -0.39   0.07
   5   6     0.16  -0.05  -0.03    -0.15   0.07   0.02    -0.29   0.29   0.02
   6   6    -0.14   0.08   0.02    -0.10  -0.08   0.03     0.38   0.11  -0.10
   7   8    -0.35  -0.05  -0.01    -0.04  -0.06  -0.00    -0.03  -0.00   0.00
   8   6     0.22   0.03   0.00    -0.00  -0.02  -0.01     0.06   0.02   0.00
   9   8    -0.02   0.09   0.04     0.01   0.02   0.01    -0.02   0.02   0.01
  10   1    -0.00   0.11  -0.02     0.05   0.26  -0.05    -0.00   0.01  -0.00
  11   1    -0.24   0.20   0.02    -0.31   0.28   0.03    -0.02   0.02   0.00
  12   1     0.22   0.04  -0.05    -0.36  -0.12   0.09     0.01  -0.00  -0.00
  13   1     0.22  -0.17  -0.01     0.35  -0.35  -0.01     0.00   0.00  -0.00
  14   1    -0.55  -0.11   0.13     0.34   0.08  -0.08     0.01   0.01  -0.00
  15   1    -0.01  -0.05  -0.02     0.05   0.07   0.02    -0.07  -0.11  -0.03
                     28                     29                     30
                        a                      a                      a 
 Frequencies --  1352.2960              1434.4264              1452.5719
 Red. masses --     2.7072                 9.0401                 8.7540
 Frc consts  --     0.0000                 0.0000                 0.0000
 IR Inten    --    20.1416                 1.2583                27.6997
 Raman Activ --     0.0000                 0.0000                 0.0000
 Depolar     --     0.0000                 0.0000                 0.0000
 Atom AN      X      Y      Z        X      Y      Z        X      Y      Z
   1   6    -0.02  -0.02   0.01     0.11   0.36  -0.08     0.23  -0.13  -0.03
   2   6    -0.09   0.03   0.02    -0.34   0.03   0.07    -0.10   0.32  -0.03
   3   6     0.08  -0.00  -0.01     0.18  -0.22  -0.01    -0.31  -0.20   0.09
   4   6     0.05  -0.06  -0.01     0.13   0.38  -0.08     0.35  -0.12  -0.05
   5   6    -0.02  -0.01   0.01    -0.31  -0.01   0.07    -0.11   0.32  -0.03
   6   6     0.09   0.04  -0.02     0.26  -0.20  -0.03    -0.29  -0.17   0.09
   7   8    -0.16   0.08   0.04     0.00  -0.06  -0.00    -0.05   0.03   0.01
   8   6    -0.14  -0.11  -0.04    -0.00  -0.01  -0.00    -0.02  -0.01  -0.00
   9   8     0.10  -0.14  -0.06    -0.00   0.04   0.02     0.00  -0.01  -0.01
  10   1    -0.02  -0.05   0.01    -0.07  -0.34   0.06     0.09   0.03  -0.02
  11   1     0.00  -0.02   0.00     0.11  -0.19   0.01     0.21  -0.13  -0.02
  12   1    -0.00  -0.01   0.00    -0.07  -0.11   0.03     0.26   0.05  -0.06
  13   1    -0.05   0.03  -0.00     0.10  -0.19   0.01     0.22  -0.14  -0.02
  14   1    -0.07  -0.01   0.02    -0.12  -0.11   0.04     0.28   0.05  -0.07
  15   1     0.54   0.70   0.28    -0.04  -0.05  -0.03     0.02   0.04   0.02
                     31                     32                     33
                        a                      a                      a 
 Frequencies --  1586.2253              1592.1292              1711.0456
 Red. masses --    11.4973                11.5948                13.4499
 Frc consts  --     0.0000                 0.0000                 0.0000
 IR Inten    --    10.6364                 2.3028               889.1637
 Raman Activ --     0.0000                 0.0000                 0.0000
 Depolar     --     0.0000                 0.0000                 0.0000
 Atom AN      X      Y      Z        X      Y      Z        X      Y      Z
   1   6     0.17  -0.20  -0.01    -0.18  -0.46   0.11     0.00   0.01  -0.00
   2   6    -0.41   0.33   0.04     0.07   0.21  -0.05     0.01  -0.01  -0.00
   3   6     0.37  -0.07  -0.07    -0.32  -0.22   0.10    -0.01   0.01   0.00
   4   6    -0.15   0.21   0.00     0.15   0.46  -0.09     0.00  -0.04   0.00
   5   6     0.38  -0.30  -0.03    -0.05  -0.24   0.05     0.00   0.01  -0.00
   6   6    -0.37   0.05   0.07     0.33   0.25  -0.11    -0.01  -0.00   0.00
   7   8    -0.01  -0.02  -0.00     0.02  -0.03  -0.00     0.05   0.06   0.02
   8   6     0.02  -0.01  -0.00    -0.02  -0.02  -0.00    -0.11  -0.70  -0.30
   9   8    -0.00   0.02   0.01     0.00   0.02   0.01     0.02   0.57   0.25
  10   1     0.06   0.02  -0.01     0.01   0.11  -0.02     0.00  -0.00  -0.00
  11   1     0.08  -0.09  -0.00     0.05   0.03  -0.01    -0.00   0.00  -0.00
  12   1    -0.06  -0.07   0.02     0.08  -0.01  -0.01     0.01   0.01  -0.00
  13   1    -0.07   0.08   0.00    -0.06  -0.02   0.02    -0.01   0.01  -0.00
  14   1     0.06   0.06  -0.02    -0.10   0.02   0.02     0.00  -0.00   0.00
  15   1    -0.00  -0.01  -0.01    -0.01  -0.01  -0.01     0.08  -0.06  -0.03
                     34                     35                     36
                        a                      a                      a 
 Frequencies --  2843.1331              3094.9064              3099.4057
 Red. masses --     1.7079                 1.7605                 1.8089
 Frc consts  --     0.0000                 0.0000                 0.0000
 IR Inten    --   122.6394                 1.2954                22.3990
 Raman Activ --     0.0000                 0.0000                 0.0000
 Depolar     --     0.0000                 0.0000                 0.0000
 Atom AN      X      Y      Z        X      Y      Z        X      Y      Z
   1   6    -0.00   0.00   0.00    -0.17   0.05   0.03     0.03  -0.01  -0.00
   2   6     0.00  -0.00   0.00     0.07   0.07  -0.02    -0.13  -0.13   0.05
   3   6    -0.00   0.00   0.00     0.01  -0.02   0.00    -0.02   0.07  -0.01
   4   6     0.00  -0.00  -0.00     0.00   0.00  -0.00    -0.00   0.00  -0.00
   5   6    -0.00   0.00  -0.00     0.02   0.02  -0.01     0.03   0.03  -0.01
   6   6     0.00  -0.00   0.00     0.04  -0.15   0.01     0.05  -0.16   0.01
   7   8    -0.03  -0.00   0.00     0.00  -0.00  -0.00     0.00  -0.00   0.00
   8   6    -0.19   0.15   0.07    -0.00  -0.00  -0.00    -0.00   0.00   0.00
   9   8    -0.01   0.01   0.00     0.00   0.00   0.00     0.00  -0.00   0.00
  10   1     0.00  -0.00  -0.00     0.63  -0.17  -0.11    -0.10   0.03   0.02
  11   1     0.00   0.00  -0.00    -0.26  -0.27   0.09     0.45   0.48  -0.16
  12   1     0.00  -0.00   0.00    -0.03   0.09  -0.01     0.09  -0.28   0.02
  13   1     0.00   0.00  -0.00    -0.08  -0.08   0.03    -0.13  -0.13   0.05
  14   1     0.00  -0.00   0.00    -0.16   0.55  -0.05    -0.17   0.56  -0.05
  15   1     0.78  -0.51  -0.26     0.00  -0.00  -0.00     0.00  -0.00  -0.00
                     37                     38                     39
                        a                      a                      a 
 Frequencies --  3107.6673              3114.6025              3118.7247
 Red. masses --     1.8601                 1.8908                 1.8860
 Frc consts  --     0.0000                 0.0000                 0.0000
 IR Inten    --    65.2549                46.5128                13.6513
 Raman Activ --     0.0000                 0.0000                 0.0000
 Depolar     --     0.0000                 0.0000                 0.0000
 Atom AN      X      Y      Z        X      Y      Z        X      Y      Z
   1   6    -0.18   0.05   0.03     0.07  -0.02  -0.01    -0.06   0.01   0.01
   2   6    -0.05  -0.06   0.02     0.09   0.10  -0.03    -0.03  -0.03   0.01
   3   6    -0.04   0.13  -0.01    -0.07   0.21  -0.02     0.01  -0.05   0.00
   4   6    -0.01   0.00   0.00    -0.01   0.00   0.00     0.01  -0.00  -0.00
   5   6    -0.04  -0.05   0.02     0.06   0.06  -0.02     0.16   0.18  -0.06
   6   6    -0.03   0.11  -0.01     0.00  -0.01   0.00    -0.03   0.10  -0.01
   7   8    -0.00  -0.00  -0.00     0.00   0.00   0.00    -0.00   0.00   0.00
   8   6     0.00   0.00  -0.00    -0.00  -0.00  -0.00    -0.00   0.00   0.00
   9   8    -0.00  -0.00  -0.00     0.00  -0.00   0.00     0.00  -0.00   0.00
  10   1     0.59  -0.16  -0.10    -0.23   0.06   0.04     0.19  -0.05  -0.03
  11   1     0.19   0.21  -0.07    -0.31  -0.32   0.11     0.10   0.10  -0.04
  12   1     0.15  -0.47   0.04     0.23  -0.71   0.05    -0.05   0.17  -0.01
  13   1     0.16   0.17  -0.06    -0.20  -0.21   0.07    -0.57  -0.60   0.21
  14   1     0.11  -0.38   0.03    -0.01   0.02  -0.00     0.09  -0.31   0.03
  15   1    -0.00   0.00   0.00     0.00  -0.00  -0.00     0.00  -0.00  -0.00
