! pbe def2-sv(p) def2/J RI DEFGRID1 loosescf d4 GCP(DFT/SV(P)) printgap
%output
    printlevel normal
end
* xyz 0 1
C -2.4961276555 -0.2754092554 -0.494325847
C -1.1929291793 -0.1926587618 0.3085495729
H -1.3736263976 -0.5262477874 1.3423616938
C -0.6357586704 1.2442750984 0.3805784708
H -1.3746469148 1.9373713423 -0.0489442096
C 0.6498303637 1.3525219561 -0.4722114852
H 1.0702683883 2.3574039337 -0.3535997464
C 1.7065848843 0.3156788545 -0.0279895472
H 2.3756894126 0.1268622834 -0.8791197608
C 1.0104725969 -1.017356483 0.3042012477
H 0.8920218129 -1.0702529175 1.4029699382
O -0.2668592558 -1.0810564588 -0.3018622489
O 1.780434427 -2.0476973195 -0.1903409115
O 2.4256652714 0.7176224557 1.1064277496
O 0.3540119916 1.225956878 -1.8399523447
O -0.4137723114 1.5359602542 1.7366447315
O -3.0413044292 -1.5677797982 -0.4953333723
H -2.3093810895 0.0703083687 -1.5190349743
H -3.2427883644 0.3693649356 -0.0282740734
H 1.38247731 -2.9049740731 0.0275822569
H 3.0951084927 1.3717987256 0.858950924
H 0.1082028238 0.3047093455 -2.0178483016
H -0.1286925987 2.4549749158 1.8408858427
H -2.3843432267 -2.1787293825 -0.85903216
*
