 Entering Gaussian System
 *********************************************
 Gaussian 98:
 frequency output generated by the xtb code
 *********************************************
                         Standard orientation:
 --------------------------------------------------------------------
  Center     Atomic     Atomic              Coordinates (Angstroms)
  Number     Number      Type              X           Y           Z
 --------------------------------------------------------------------
    1          6             0        1.892422    0.630173   -0.281607
    2          6             0        1.016318   -0.199559    0.653948
    3          8             0       -0.000049   -0.944278   -0.000383
    4          6             0       -1.016341   -0.199093   -0.654299
    5          6             0       -1.892305    0.630274    0.281711
    6          1             0        1.342068    1.471253   -0.695511
    7          1             0        2.741046    1.014360    0.275923
    8          1             0        2.255025    0.009906   -1.097536
    9          1             0        0.578655    0.441871    1.429243
   10          1             0        1.619566   -0.968642    1.142461
   11          1             0       -0.578624    0.442676   -1.429283
   12          1             0       -1.619705   -0.967851   -1.143182
   13          1             0       -2.740953    1.014773   -0.275566
   14          1             0       -2.254877    0.009658    1.097389
   15          1             0       -1.341858    1.471130    0.695950
 --------------------------------------------------------------------
     1 basis functions        1 primitive gaussians
     1 alpha electrons        1 beta electrons
 
 Harmonic frequencies (cm**-1), IR intensities (km*mol⁻¹),
 Raman scattering activities (A**4/amu), Raman depolarization ratios,
 reduced masses (AMU), force constants (mDyne/A) and normal coordinates:
                      1                      2                      3
                        a                      a                      a 
 Frequencies --    44.4445               133.8072               206.7895
 Red. masses --     7.9691                 4.9618                 1.3345
 Frc consts  --     0.0000                 0.0000                 0.0000
 IR Inten    --     0.1201                 5.3041                 0.2723
 Raman Activ --     0.0000                 0.0000                 0.0000
 Depolar     --     0.0000                 0.0000                 0.0000
 Atom AN      X      Y      Z        X      Y      Z        X      Y      Z
   1   6     0.37  -0.30  -0.10     0.16  -0.05   0.16    -0.04   0.06  -0.03
   2   6     0.00   0.20  -0.01    -0.19   0.11  -0.03     0.04  -0.04  -0.06
   3   8     0.00   0.23   0.00     0.07   0.00  -0.33    -0.00  -0.06   0.00
   4   6    -0.00   0.20   0.01    -0.19  -0.11  -0.03    -0.04  -0.04   0.06
   5   6    -0.37  -0.30   0.10     0.16   0.05   0.16     0.04   0.06   0.03
   6   1     0.18  -0.10  -0.15     0.03  -0.15  -0.21    -0.14  -0.21  -0.29
   7   1     0.09  -0.07  -0.02    -0.12   0.18   0.17    -0.23   0.35   0.10
   8   1     0.13  -0.19   0.06     0.29  -0.10   0.22     0.33  -0.05   0.19
   9   1    -0.01   0.16  -0.09    -0.14   0.07  -0.09     0.02  -0.02  -0.01
  10   1    -0.07   0.07   0.11    -0.10   0.06   0.10     0.03  -0.00  -0.03
  11   1     0.01   0.16   0.09    -0.14  -0.07  -0.09    -0.02  -0.02   0.01
  12   1     0.07   0.07  -0.11    -0.10  -0.06   0.10    -0.03  -0.00   0.03
  13   1    -0.09  -0.07   0.02    -0.12  -0.18   0.17     0.23   0.35  -0.10
  14   1    -0.13  -0.19  -0.06     0.29   0.10   0.22    -0.33  -0.05  -0.19
  15   1    -0.18  -0.10   0.15     0.03   0.15  -0.21     0.14  -0.21   0.29
                      4                      5                      6
                        a                      a                      a 
 Frequencies --   269.4650               289.5554               437.5890
 Red. masses --     4.9067                 8.0968                10.6992
 Frc consts  --     0.0000                 0.0000                 0.0000
 IR Inten    --     3.6299                 0.3663                16.0337
 Raman Activ --     0.0000                 0.0000                 0.0000
 Depolar     --     0.0000                 0.0000                 0.0000
 Atom AN      X      Y      Z        X      Y      Z        X      Y      Z
   1   6    -0.14  -0.00  -0.09    -0.36  -0.13  -0.13     0.23   0.18   0.02
   2   6     0.20  -0.26  -0.01    -0.31   0.17   0.16    -0.06   0.06  -0.26
   3   8    -0.13  -0.00   0.22     0.00  -0.10  -0.00    -0.50  -0.00   0.39
   4   6     0.20   0.26  -0.01     0.31   0.17  -0.16    -0.06  -0.06  -0.26
   5   6    -0.14   0.00  -0.09     0.36  -0.13   0.13     0.23  -0.18   0.02
   6   1    -0.19  -0.18  -0.18    -0.10  -0.07  -0.10     0.15   0.11   0.02
   7   1    -0.19   0.27   0.02    -0.08   0.01  -0.11     0.00  -0.03   0.17
   8   1     0.19  -0.01   0.08    -0.15  -0.13   0.01     0.17   0.13  -0.00
   9   1     0.14  -0.12   0.09    -0.17   0.11  -0.06     0.08   0.04  -0.04
  10   1     0.10  -0.12  -0.12    -0.09   0.13   0.17    -0.02  -0.01  -0.11
  11   1     0.14   0.12   0.09     0.17   0.11   0.06     0.08  -0.04  -0.04
  12   1     0.10   0.12  -0.12     0.09   0.13  -0.17    -0.02   0.01  -0.11
  13   1    -0.19  -0.27   0.02     0.08   0.01   0.11     0.00   0.03   0.17
  14   1     0.19   0.01   0.08     0.15  -0.13  -0.01     0.17  -0.13  -0.00
  15   1    -0.19   0.18  -0.18     0.10  -0.07   0.10     0.15  -0.11   0.02
                      7                      8                      9
                        a                      a                      a 
 Frequencies --   478.2021               807.4983               816.6945
 Red. masses --     9.0683                 2.1558                 5.4472
 Frc consts  --     0.0000                 0.0000                 0.0000
 IR Inten    --     6.5949                 9.4027                22.1381
 Raman Activ --     0.0000                 0.0000                 0.0000
 Depolar     --     0.0000                 0.0000                 0.0000
 Atom AN      X      Y      Z        X      Y      Z        X      Y      Z
   1   6    -0.12  -0.16   0.04     0.03  -0.08  -0.01    -0.16  -0.05   0.02
   2   6     0.18  -0.04   0.31     0.10  -0.17  -0.06    -0.28   0.04  -0.23
   3   8    -0.00   0.54   0.00    -0.02  -0.00   0.06     0.00   0.25   0.00
   4   6    -0.18  -0.04  -0.31     0.10   0.17  -0.06     0.28   0.04   0.23
   5   6     0.12  -0.16  -0.04     0.03   0.08  -0.01     0.16  -0.05  -0.02
   6   1    -0.14  -0.12  -0.01    -0.23  -0.06   0.22     0.20   0.07  -0.13
   7   1     0.01   0.06  -0.13    -0.05   0.09   0.02    -0.07  -0.19   0.16
   8   1    -0.11  -0.11   0.03     0.08   0.24  -0.17     0.01  -0.13   0.12
   9   1     0.17  -0.07   0.21    -0.06   0.21  -0.27     0.04  -0.15   0.14
  10   1     0.02  -0.14  -0.07    -0.14   0.04   0.31     0.05  -0.06  -0.31
  11   1    -0.17  -0.07  -0.21    -0.06  -0.21  -0.27    -0.04  -0.15  -0.14
  12   1    -0.02  -0.14   0.07    -0.14  -0.04   0.31    -0.05  -0.06   0.31
  13   1    -0.01   0.06   0.13    -0.05  -0.09   0.02     0.07  -0.19  -0.16
  14   1     0.11  -0.11  -0.03     0.08  -0.24  -0.17    -0.01  -0.13  -0.12
  15   1     0.14  -0.12   0.01    -0.23   0.06   0.22    -0.20   0.07   0.13
                     10                     11                     12
                        a                      a                      a 
 Frequencies --   864.8089               936.0993              1047.4650
 Red. masses --     6.3464                 8.2025                 7.9915
 Frc consts  --     0.0000                 0.0000                 0.0000
 IR Inten    --     3.9167                12.2690                26.7113
 Raman Activ --     0.0000                 0.0000                 0.0000
 Depolar     --     0.0000                 0.0000                 0.0000
 Atom AN      X      Y      Z        X      Y      Z        X      Y      Z
   1   6     0.11   0.20  -0.01    -0.27  -0.19   0.03     0.25   0.17  -0.11
   2   6     0.08   0.12   0.22    -0.03  -0.01  -0.22    -0.38  -0.22   0.02
   3   8    -0.00  -0.42  -0.00     0.44  -0.00   0.21     0.00   0.16   0.00
   4   6    -0.08   0.12  -0.22    -0.03   0.01  -0.22     0.38  -0.22  -0.02
   5   6    -0.11   0.20   0.01    -0.27   0.19   0.03    -0.25   0.17   0.11
   6   1     0.15   0.04  -0.20     0.09   0.07   0.03    -0.05  -0.04  -0.04
   7   1     0.14   0.02  -0.15    -0.18  -0.21   0.29     0.13   0.16  -0.20
   8   1    -0.11  -0.21   0.13     0.10   0.03   0.02    -0.03   0.02  -0.06
   9   1    -0.06  -0.17   0.17     0.05   0.03  -0.04    -0.10  -0.11   0.05
  10   1     0.18   0.06  -0.10     0.11   0.09  -0.04    -0.20  -0.17  -0.03
  11   1     0.06  -0.17  -0.17     0.05  -0.03  -0.04     0.10  -0.11  -0.05
  12   1    -0.18   0.06   0.10     0.11  -0.09  -0.04     0.20  -0.17   0.03
  13   1    -0.14   0.02   0.15    -0.18   0.21   0.29    -0.13   0.16   0.20
  14   1     0.11  -0.21  -0.13     0.10  -0.03   0.02     0.03   0.02   0.06
  15   1    -0.15   0.04   0.20     0.09  -0.07   0.03     0.05  -0.04   0.04
                     13                     14                     15
                        a                      a                      a 
 Frequencies --  1068.0313              1082.1883              1108.7211
 Red. masses --     9.2916                 6.9717                 8.7832
 Frc consts  --     0.0000                 0.0000                 0.0000
 IR Inten    --    37.3759                 0.1003               124.6018
 Raman Activ --     0.0000                 0.0000                 0.0000
 Depolar     --     0.0000                 0.0000                 0.0000
 Atom AN      X      Y      Z        X      Y      Z        X      Y      Z
   1   6    -0.08  -0.15   0.32    -0.00   0.03  -0.34    -0.07  -0.13  -0.14
   2   6     0.25   0.29  -0.27    -0.07  -0.08   0.38     0.17   0.26   0.28
   3   8    -0.18   0.00  -0.05     0.00  -0.01   0.00    -0.27   0.00  -0.36
   4   6     0.25  -0.29  -0.27     0.07  -0.08  -0.38     0.17  -0.26   0.28
   5   6    -0.08   0.15   0.32     0.00   0.03   0.34    -0.07   0.13  -0.14
   6   1    -0.16  -0.13   0.09     0.16   0.14  -0.02     0.02   0.05   0.08
   7   1     0.04   0.05  -0.09    -0.13  -0.12   0.20    -0.14  -0.08   0.18
   8   1    -0.15  -0.11   0.08     0.23   0.17  -0.10     0.16   0.14  -0.08
   9   1     0.07   0.06  -0.06     0.07   0.02   0.12     0.18   0.10   0.10
  10   1     0.01   0.01  -0.11     0.02  -0.03   0.04    -0.03  -0.06  -0.05
  11   1     0.07  -0.06  -0.06    -0.07   0.02  -0.12     0.18  -0.10   0.10
  12   1     0.01  -0.01  -0.11    -0.02  -0.03  -0.04    -0.03   0.06  -0.05
  13   1     0.04  -0.05  -0.09     0.13  -0.12  -0.20    -0.14   0.08   0.18
  14   1    -0.15   0.11   0.08    -0.23   0.17   0.10     0.16  -0.14  -0.08
  15   1    -0.16   0.13   0.09    -0.16   0.14   0.02     0.02  -0.05   0.08
                     16                     17                     18
                        a                      a                      a 
 Frequencies --  1123.4835              1181.0968              1251.6515
 Red. masses --     6.4513                 6.6727                 2.3275
 Frc consts  --     0.0000                 0.0000                 0.0000
 IR Inten    --    50.0596                17.4149                 2.0301
 Raman Activ --     0.0000                 0.0000                 0.0000
 Depolar     --     0.0000                 0.0000                 0.0000
 Atom AN      X      Y      Z        X      Y      Z        X      Y      Z
   1   6    -0.16   0.13   0.01    -0.15   0.21  -0.01     0.11  -0.16  -0.03
   2   6     0.32  -0.14   0.04     0.17  -0.33  -0.02    -0.04   0.08   0.03
   3   8    -0.33   0.00  -0.13     0.00   0.28   0.00    -0.13  -0.00  -0.00
   4   6     0.32   0.14   0.04    -0.17  -0.33   0.02    -0.04  -0.08   0.03
   5   6    -0.16  -0.13   0.01     0.15   0.21   0.01     0.11   0.16  -0.03
   6   1     0.19   0.10  -0.15     0.19   0.10  -0.19    -0.10  -0.06   0.12
   7   1    -0.00  -0.14   0.06     0.03  -0.11   0.01    -0.02   0.05   0.01
   8   1    -0.03  -0.13   0.13    -0.06  -0.16   0.14     0.06   0.12  -0.11
   9   1    -0.17   0.01  -0.17    -0.12   0.04  -0.19    -0.31  -0.25   0.05
  10   1     0.14   0.16   0.21    -0.06  -0.01   0.24     0.37   0.28  -0.06
  11   1    -0.17  -0.01  -0.17     0.12   0.04   0.19    -0.31   0.25   0.05
  12   1     0.14  -0.16   0.21     0.06  -0.01  -0.24     0.37  -0.28  -0.06
  13   1    -0.00   0.14   0.06    -0.03  -0.11  -0.01    -0.02  -0.05   0.01
  14   1    -0.03   0.13   0.13     0.06  -0.16  -0.14     0.06  -0.12  -0.11
  15   1     0.19  -0.10  -0.15    -0.19   0.10   0.19    -0.10   0.06   0.12
                     19                     20                     21
                        a                      a                      a 
 Frequencies --  1280.3855              1326.5051              1327.1210
 Red. masses --     2.5996                 3.5890                 3.0849
 Frc consts  --     0.0000                 0.0000                 0.0000
 IR Inten    --     1.9604                22.4813                23.6057
 Raman Activ --     0.0000                 0.0000                 0.0000
 Depolar     --     0.0000                 0.0000                 0.0000
 Atom AN      X      Y      Z        X      Y      Z        X      Y      Z
   1   6    -0.05   0.12   0.06    -0.02   0.00  -0.10     0.00  -0.01   0.12
   2   6    -0.03   0.04  -0.00     0.22   0.22  -0.02    -0.19  -0.15   0.04
   3   8     0.00  -0.27  -0.00    -0.00  -0.09  -0.00    -0.07   0.00  -0.16
   4   6     0.03   0.04   0.00    -0.22   0.22   0.02    -0.19   0.15   0.04
   5   6     0.05   0.12  -0.05     0.02   0.00   0.10    -0.00   0.01   0.11
   6   1     0.05   0.02  -0.09    -0.04   0.02   0.06     0.04  -0.01  -0.05
   7   1     0.03  -0.03  -0.02    -0.07  -0.06   0.10     0.07   0.07  -0.12
   8   1    -0.06  -0.07   0.07     0.01  -0.05   0.03    -0.01   0.04  -0.01
   9   1     0.43   0.31   0.01    -0.27  -0.22   0.03     0.37   0.29  -0.02
  10   1    -0.29  -0.23  -0.03    -0.38  -0.29  -0.01     0.32   0.25  -0.01
  11   1    -0.43   0.31  -0.01     0.27  -0.22  -0.03     0.37  -0.28  -0.02
  12   1     0.29  -0.23   0.03     0.38  -0.29   0.01     0.32  -0.25  -0.01
  13   1    -0.03  -0.03   0.02     0.07  -0.06  -0.10     0.07  -0.07  -0.12
  14   1     0.06  -0.07  -0.07    -0.01  -0.05  -0.03    -0.01  -0.04  -0.01
  15   1    -0.05   0.02   0.09     0.04   0.02  -0.06     0.04   0.01  -0.05
                     22                     23                     24
                        a                      a                      a 
 Frequencies --  1393.2014              1393.9172              1460.1312
 Red. masses --     3.1554                 3.1378                 1.8728
 Frc consts  --     0.0000                 0.0000                 0.0000
 IR Inten    --     5.6270                13.9500                 1.0769
 Raman Activ --     0.0000                 0.0000                 0.0000
 Depolar     --     0.0000                 0.0000                 0.0000
 Atom AN      X      Y      Z        X      Y      Z        X      Y      Z
   1   6     0.20   0.16  -0.16     0.20   0.16  -0.17    -0.00  -0.05  -0.02
   2   6    -0.05  -0.05  -0.02    -0.05  -0.04   0.01     0.01   0.03  -0.18
   3   8     0.00   0.01   0.00    -0.02   0.00  -0.04    -0.04   0.00  -0.05
   4   6     0.05  -0.05   0.02    -0.05   0.04   0.01     0.01  -0.03  -0.18
   5   6    -0.20   0.16   0.16     0.20  -0.16  -0.17    -0.00   0.05  -0.02
   6   1    -0.28  -0.11   0.14    -0.28  -0.09   0.16     0.09   0.09   0.06
   7   1    -0.13  -0.13   0.32    -0.13  -0.12   0.31    -0.07   0.14  -0.01
   8   1    -0.23  -0.27   0.09    -0.22  -0.29   0.11    -0.04  -0.03   0.00
   9   1     0.09   0.00   0.05     0.09   0.05   0.01     0.21  -0.24   0.32
  10   1     0.05   0.09   0.08     0.07   0.06   0.02    -0.11   0.17   0.41
  11   1    -0.09   0.00  -0.05     0.09  -0.05   0.01     0.21   0.24   0.32
  12   1    -0.05   0.09  -0.08     0.07  -0.06   0.02    -0.11  -0.17   0.41
  13   1     0.13  -0.13  -0.32    -0.13   0.12   0.31    -0.07  -0.14  -0.01
  14   1     0.23  -0.27  -0.09    -0.22   0.29   0.11    -0.04   0.03   0.00
  15   1     0.28  -0.11  -0.14    -0.28   0.09   0.16     0.09  -0.09   0.06
                     25                     26                     27
                        a                      a                      a 
 Frequencies --  1461.6710              1483.9399              1486.5294
 Red. masses --     1.7702                 1.5697                 1.5631
 Frc consts  --     0.0000                 0.0000                 0.0000
 IR Inten    --     0.0224                 3.3929                 3.3222
 Raman Activ --     0.0000                 0.0000                 0.0000
 Depolar     --     0.0000                 0.0000                 0.0000
 Atom AN      X      Y      Z        X      Y      Z        X      Y      Z
   1   6    -0.05   0.03   0.03     0.10  -0.10   0.05    -0.08   0.12  -0.04
   2   6    -0.01   0.04  -0.17     0.03  -0.02   0.04    -0.03   0.00   0.06
   3   8     0.00  -0.01   0.00     0.01  -0.00   0.01    -0.00   0.01  -0.00
   4   6     0.01   0.04   0.17     0.03   0.02   0.04     0.03   0.00  -0.06
   5   6     0.05   0.03  -0.03     0.10   0.10   0.05     0.08   0.12   0.04
   6   1    -0.05  -0.08  -0.10     0.22   0.07  -0.13    -0.26  -0.11   0.10
   7   1     0.11  -0.16  -0.06    -0.25   0.31   0.18     0.24  -0.34  -0.13
   8   1     0.12   0.10  -0.02    -0.39   0.04  -0.21     0.34  -0.03   0.18
   9   1     0.18  -0.25   0.31    -0.05   0.06  -0.08    -0.06   0.09  -0.10
  10   1    -0.11   0.16   0.38     0.00  -0.05  -0.07     0.06  -0.04  -0.14
  11   1    -0.18  -0.25  -0.32    -0.05  -0.06  -0.08     0.06   0.09   0.10
  12   1     0.11   0.16  -0.38     0.00   0.05  -0.07    -0.06  -0.04   0.14
  13   1    -0.11  -0.16   0.06    -0.25  -0.31   0.18    -0.24  -0.34   0.13
  14   1    -0.12   0.10   0.02    -0.39  -0.04  -0.21    -0.34  -0.03  -0.18
  15   1     0.05  -0.08   0.10     0.22  -0.07  -0.13     0.26  -0.11  -0.10
                     28                     29                     30
                        a                      a                      a 
 Frequencies --  1493.4915              1496.1170              2889.1716
 Red. masses --     1.5378                 1.6062                 1.7578
 Frc consts  --     0.0000                 0.0000                 0.0000
 IR Inten    --     1.7258                 0.6185               118.3806
 Raman Activ --     0.0000                 0.0000                 0.0000
 Depolar     --     0.0000                 0.0000                 0.0000
 Atom AN      X      Y      Z        X      Y      Z        X      Y      Z
   1   6    -0.04  -0.08  -0.12    -0.06  -0.06  -0.12    -0.00  -0.00  -0.00
   2   6    -0.01  -0.03   0.03    -0.03  -0.02  -0.06    -0.09   0.12   0.11
   3   8     0.01  -0.00   0.02    -0.00  -0.00  -0.00     0.01  -0.00   0.01
   4   6    -0.01   0.03   0.03     0.03  -0.02   0.06    -0.09  -0.12   0.11
   5   6    -0.04   0.08  -0.12     0.06  -0.06   0.12    -0.00   0.00  -0.00
   6   1     0.13   0.28   0.39     0.09   0.26   0.40     0.00  -0.00  -0.00
   7   1    -0.06   0.28  -0.12    -0.02   0.22  -0.14     0.00   0.00   0.00
   8   1     0.11  -0.23   0.21     0.17  -0.23   0.24    -0.01   0.01   0.02
   9   1    -0.05   0.07  -0.10     0.09  -0.03   0.07     0.28  -0.40  -0.47
  10   1     0.03  -0.04  -0.10    -0.01   0.05   0.09     0.03  -0.04   0.06
  11   1    -0.05  -0.07  -0.10    -0.09  -0.03  -0.07     0.28   0.40  -0.47
  12   1     0.03   0.04  -0.10     0.01   0.05  -0.09     0.03   0.04   0.06
  13   1    -0.06  -0.28  -0.12     0.02   0.22   0.14     0.00  -0.00   0.00
  14   1     0.11   0.23   0.21    -0.17  -0.23  -0.24    -0.01  -0.01   0.02
  15   1     0.13  -0.28   0.39    -0.09   0.26  -0.40    -0.00  -0.00  -0.00
                     31                     32                     33
                        a                      a                      a 
 Frequencies --  2891.3641              2965.3431              2965.8636
 Red. masses --     1.7529                 1.6665                 1.6605
 Frc consts  --     0.0000                 0.0000                 0.0000
 IR Inten    --    49.1132                32.1984                65.4388
 Raman Activ --     0.0000                 0.0000                 0.0000
 Depolar     --     0.0000                 0.0000                 0.0000
 Atom AN      X      Y      Z        X      Y      Z        X      Y      Z
   1   6    -0.00   0.01   0.00    -0.01   0.00  -0.00    -0.01   0.01  -0.00
   2   6     0.09  -0.11  -0.11     0.09  -0.12   0.09     0.09  -0.12   0.09
   3   8    -0.00  -0.02  -0.00     0.00   0.00   0.00     0.02  -0.00   0.01
   4   6    -0.09  -0.11   0.11    -0.09  -0.12  -0.09     0.09   0.12   0.09
   5   6     0.00   0.01  -0.00     0.01   0.00   0.00    -0.01  -0.01  -0.00
   6   1     0.01  -0.02   0.01     0.02  -0.04   0.02     0.02  -0.04   0.02
   7   1    -0.01  -0.00  -0.01     0.01   0.01   0.01     0.02   0.01   0.01
   8   1     0.01  -0.01  -0.02    -0.00  -0.00  -0.00     0.00  -0.00  -0.01
   9   1    -0.28   0.40   0.47     0.04  -0.06  -0.04     0.05  -0.07  -0.05
  10   1    -0.03   0.03  -0.05    -0.38   0.48  -0.29    -0.38   0.48  -0.29
  11   1     0.28   0.40  -0.47    -0.04  -0.06   0.04     0.05   0.07  -0.05
  12   1     0.03   0.03   0.05     0.38   0.48   0.29    -0.38  -0.48  -0.29
  13   1     0.01  -0.00   0.01    -0.01   0.01  -0.01     0.02  -0.01   0.01
  14   1    -0.01  -0.01   0.02     0.00  -0.00   0.00     0.00   0.00  -0.01
  15   1    -0.01  -0.02  -0.01    -0.02  -0.04  -0.02     0.02   0.04   0.02
                     34                     35                     36
                        a                      a                      a 
 Frequencies --  3036.9616              3037.0712              3042.0475
 Red. masses --     1.9261                 1.9256                 1.6222
 Frc consts  --     0.0000                 0.0000                 0.0000
 IR Inten    --    75.3095                44.0736                 2.1309
 Raman Activ --     0.0000                 0.0000                 0.0000
 Depolar     --     0.0000                 0.0000                 0.0000
 Atom AN      X      Y      Z        X      Y      Z        X      Y      Z
   1   6    -0.12   0.16  -0.02    -0.13   0.16  -0.03    -0.00   0.05   0.16
   2   6    -0.01   0.02  -0.00    -0.01   0.01  -0.01    -0.00   0.00   0.01
   3   8     0.00   0.00   0.00    -0.00   0.00  -0.00    -0.00  -0.00   0.00
   4   6     0.01   0.02   0.00    -0.01  -0.01  -0.01     0.00   0.00  -0.01
   5   6     0.13   0.16   0.02    -0.13  -0.15  -0.02     0.00   0.05  -0.16
   6   1     0.31  -0.46   0.23     0.32  -0.48   0.24    -0.14   0.22  -0.08
   7   1     0.05   0.05   0.04     0.07   0.06   0.05    -0.07  -0.02  -0.03
   8   1     0.07  -0.14  -0.21     0.07  -0.14  -0.21     0.21  -0.37  -0.46
   9   1     0.01  -0.01  -0.02     0.00  -0.00  -0.00     0.01  -0.01  -0.01
  10   1     0.03  -0.03   0.02     0.03  -0.04   0.02    -0.01   0.01  -0.01
  11   1    -0.01  -0.01   0.02     0.00   0.00  -0.00    -0.01  -0.01   0.01
  12   1    -0.03  -0.03  -0.02     0.03   0.04   0.02     0.01   0.01   0.01
  13   1    -0.05   0.05  -0.04     0.06  -0.06   0.05     0.07  -0.02   0.03
  14   1    -0.08  -0.15   0.22     0.07   0.13  -0.20    -0.21  -0.37   0.46
  15   1    -0.32  -0.48  -0.24     0.31   0.47   0.23     0.14   0.22   0.08
                     37                     38                     39
                        a                      a                      a 
 Frequencies --  3042.2110              3053.0819              3053.5236
 Red. masses --     1.6309                 1.6084                 1.5987
 Frc consts  --     0.0000                 0.0000                 0.0000
 IR Inten    --    75.0239                14.8909                45.6228
 Raman Activ --     0.0000                 0.0000                 0.0000
 Depolar     --     0.0000                 0.0000                 0.0000
 Atom AN      X      Y      Z        X      Y      Z        X      Y      Z
   1   6    -0.00   0.05   0.16     0.13   0.08   0.07     0.12   0.08   0.07
   2   6    -0.00   0.00   0.01     0.00   0.00   0.01     0.00  -0.00   0.00
   3   8     0.00  -0.00  -0.00     0.00   0.00  -0.00     0.00   0.00  -0.00
   4   6    -0.00  -0.00   0.01    -0.00   0.00  -0.01     0.00   0.00   0.00
   5   6    -0.00  -0.05   0.16    -0.13   0.08  -0.07     0.12  -0.08   0.07
   6   1    -0.13   0.21  -0.07     0.08  -0.08   0.05     0.09  -0.09   0.06
   7   1    -0.07  -0.02  -0.03    -0.53  -0.23  -0.35    -0.52  -0.23  -0.35
   8   1     0.22  -0.37  -0.47     0.00   0.04   0.04     0.00   0.03   0.04
   9   1     0.01  -0.02  -0.02     0.01  -0.01  -0.01     0.00  -0.00  -0.00
  10   1    -0.01   0.01  -0.00    -0.01   0.01  -0.01    -0.01   0.01  -0.01
  11   1     0.01   0.02  -0.02    -0.01  -0.01   0.01     0.00   0.00  -0.00
  12   1    -0.01  -0.01  -0.00     0.01   0.01   0.01    -0.01  -0.01  -0.01
  13   1    -0.07   0.02  -0.03     0.52  -0.23   0.35    -0.52   0.23  -0.35
  14   1     0.21   0.37  -0.46    -0.00   0.04  -0.04     0.00  -0.03   0.04
  15   1    -0.13  -0.20  -0.07    -0.08  -0.08  -0.05     0.09   0.09   0.06
