! r2scan-3c def2/J RI DEFGRID2 scfconv6 printgap
%output
    printlevel normal
end
* xyz 0 1
C -2.3806606515 -1.1392707134 -0.3799963095
C -1.0789593681 -0.6196126558 0.2393851642
H -1.1624029053 -0.6297924532 1.3387611943
C -0.790198047 0.8337604837 -0.1870251015
H -0.9006801683 0.9277791875 -1.2789677559
C 0.644457117 1.2486976421 0.1670889094
H 0.6957414513 1.4069821642 1.2553879384
C 1.6592038918 0.164964223 -0.2157906271
H 1.7082759383 0.0924432475 -1.3128462234
C 1.2055793169 -1.1988150446 0.3203965019
H 1.1715674817 -1.1554970525 1.4300363079
O -0.0725636674 -1.5204754366 -0.1740015569
O 2.0993982851 -2.1547727957 -0.1184964796
O 2.9024929082 0.5403608836 0.3182834112
O 0.9257683302 2.4461528988 -0.5109394382
O -1.6528747112 1.721699233 0.4749107151
O -3.4567068882 -0.3484009953 0.064491218
H -2.5020312157 -2.1854584088 -0.0770510957
H -2.2790482116 -1.0968627155 -1.4712848201
H 1.7297682078 -3.0407251364 0.020808883
H 3.5519367873 -0.150313699 0.1178173776
H 1.8255187815 2.722544176 -0.2796406428
H -2.5651167037 1.3966708995 0.369930795
H -4.282460443 -0.6902744745 -0.3074359935
*
