! r2scan-3c def2/J RI DEFGRID2 scfconv6 printgap
%output
    printlevel normal
end
%cpcm
    smd true
    smdsolvent "water"
end
* xyz 0 1
C -1.7285649416 0.3490597773 -0.5884269328
C -0.8818310081 0.3416274082 0.6799108308
C 0.584359291 -0.0711057223 0.4815975583
C 0.7114017205 -1.5023668617 -0.0370121045
C 1.3324189145 0.8949556845 -0.4353370778
H -2.74492223 0.6534764718 -0.3486276919
H -1.7695089592 -0.6399867946 -1.0362491144
H -1.3307875504 1.0477402667 -1.319204637
H -0.9005517656 1.3415734064 1.1207432775
H -1.3364325735 -0.3416540026 1.4017405651
H 1.057404859 -0.0292778491 1.4708034857
H 0.3389748851 -1.5792167045 -1.0552060374
H 0.1496689791 -2.1893824698 0.5918338891
H 1.7545070044 -1.8104301142 -0.035314639
H 0.9618063063 0.8259438949 -1.4547575677
H 2.3935261059 0.6563863609 -0.4454373771
H 1.2143858403 1.9197959782 -0.0907362406
*
