! wb97x-v def2-tzvp def2/J RIJCOSX DEFGRID2 scfconv7 GCP(DFT/TZ) printgap
%output
    printlevel normal
end
%cpcm
    smd true
    smdsolvent "water"
end
* xyz 0 1
C -3.407643390263457 0.5434832163140138 -0.03856456006187884
C -1.9238913806660203 0.538697490041325 0.29339707686099464
H -1.7622300798504713 0.9484139307093928 1.3023460811756356
C -1.1020970928847527 1.4103733572417068 -0.6836873982864944
C 0.389661562246779 1.3983285751231098 -0.3622374969614062
C 0.9435359095543766 -0.034586035382436986 -0.38358530171685795
H 0.7734654194923858 -0.4398686497250578 -1.3898391625269362
C 0.1495616506116496 -0.9089288463931549 0.617946890005792
C -1.3226899065055977 -0.846879758614897 0.31635902653537795
O -1.9778388180330468 -1.857937004862683 0.07715871422472638
C 2.4309599752168785 -0.08579893692926473 -0.11349090098868198
C 3.288796100412115 -0.372127907050266 -1.0979997944445758
C 2.8987660939441966 0.20585854007012372 1.282714201374322
H -3.583673163588498 0.14043827634845943 -1.0412019779574135
H -3.980046418729509 -0.057798191781260555 0.6734175430210081
H -3.79305279312354 1.566870444079881 -0.010305499502692144
H -1.26525451098131 1.0382449922705663 -1.7041061249442386
H -1.4929118074843055 2.432770878034122 -0.6460281717136921
H 0.9325334211933329 2.005331935602569 -1.095317967834965
H 0.5558592158023439 1.8473314715716593 0.6248816648480804
H 0.4867689185741788 -1.948807449189327 0.5921333865445791
H 0.2989726814346031 -0.5114665587825518 1.630467928850312
H 4.362212498685918 -0.3861946397662144 -0.9265122178824334
H 2.9395560200387916 -0.5998631326842749 -2.102225191895451
H 2.588707705306501 -0.5880129134444025 1.9729840341302538
H 3.9883233907819333 0.2802872519483354 1.3218004925014952
H 2.471665146531671 1.13962871834661 1.6656088181204816
*
