 Entering Gaussian System
 *********************************************
 Gaussian 98:
 frequency output generated by the xtb code
 *********************************************
                         Standard orientation:
 --------------------------------------------------------------------
  Center     Atomic     Atomic              Coordinates (Angstroms)
  Number     Number      Type              X           Y           Z
 --------------------------------------------------------------------
    1          6             0        1.665560    0.820819    0.379919
    2          6             0        1.262502   -0.564851   -0.117518
    3          8             0       -0.033924   -0.641191   -0.680836
    4          6             0       -1.124784   -0.506974    0.221565
    5          6             0       -1.770921    0.875242    0.172956
    6          1             0        1.508542    1.556803   -0.404238
    7          1             0        1.086779    1.104276    1.255229
    8          1             0        2.717498    0.809276    0.649676
    9          1             0        1.351169   -1.295103    0.700693
   10          1             0        1.920908   -0.872952   -0.933514
   11          1             0       -1.858085   -1.258285   -0.092341
   12          1             0       -0.798977   -0.746298    1.240565
   13          1             0       -2.657623    0.880127    0.800191
   14          1             0       -1.086762    1.643280    0.521108
   15          1             0       -2.057423    1.105210   -0.849645
 --------------------------------------------------------------------
     1 basis functions        1 primitive gaussians
     1 alpha electrons        1 beta electrons
 
 Harmonic frequencies (cm**-1), IR intensities (km*mol⁻¹),
 Raman scattering activities (A**4/amu), Raman depolarization ratios,
 reduced masses (AMU), force constants (mDyne/A) and normal coordinates:
                      1                      2                      3
                        a                      a                      a 
 Frequencies --    79.4274               117.1274               190.2637
 Red. masses --     6.2000                 8.5944                 2.3194
 Frc consts  --     0.0000                 0.0000                 0.0000
 IR Inten    --     0.6808                 4.0248                 0.4926
 Raman Activ --     0.0000                 0.0000                 0.0000
 Depolar     --     0.0000                 0.0000                 0.0000
 Atom AN      X      Y      Z        X      Y      Z        X      Y      Z
   1   6     0.08  -0.20   0.22    -0.46   0.06   0.18    -0.10   0.06   0.02
   2   6     0.07  -0.02  -0.24     0.02   0.05  -0.20    -0.05   0.01   0.13
   3   8    -0.05   0.16   0.01    -0.04  -0.39  -0.01     0.05  -0.06  -0.11
   4   6     0.16   0.15   0.28     0.09   0.04   0.09    -0.02  -0.05  -0.18
   5   6    -0.27  -0.07  -0.26     0.38   0.17  -0.06     0.12   0.02   0.10
   6   1     0.05   0.02   0.13    -0.31   0.08   0.15     0.05  -0.01  -0.04
   7   1    -0.01  -0.13   0.07    -0.07  -0.16   0.15    -0.08   0.07  -0.05
   8   1     0.01  -0.09   0.10    -0.10   0.13  -0.06    -0.05   0.01   0.08
   9   1     0.08  -0.10  -0.16     0.13  -0.05  -0.13    -0.07   0.04   0.07
  10   1    -0.02   0.09  -0.14    -0.00   0.16  -0.12     0.03  -0.04   0.09
  11   1     0.09  -0.07   0.26    -0.03   0.04   0.07    -0.03   0.02  -0.09
  12   1     0.16   0.23   0.09     0.04   0.03   0.03    -0.02  -0.07  -0.06
  13   1     0.02   0.03   0.06     0.10   0.12  -0.03     0.34   0.15   0.46
  14   1    -0.08   0.09  -0.32     0.14   0.02  -0.02     0.25   0.02  -0.42
  15   1    -0.25  -0.23  -0.08     0.14   0.04  -0.03    -0.45  -0.12   0.14
                      4                      5                      6
                        a                      a                      a 
 Frequencies --   242.2373               331.7659               398.0198
 Red. masses --     2.1775                 8.4654                 9.9241
 Frc consts  --     0.0000                 0.0000                 0.0000
 IR Inten    --     0.2783                 2.2760                 7.3390
 Raman Activ --     0.0000                 0.0000                 0.0000
 Depolar     --     0.0000                 0.0000                 0.0000
 Atom AN      X      Y      Z        X      Y      Z        X      Y      Z
   1   6     0.17  -0.02   0.01    -0.37  -0.14  -0.12     0.09  -0.00   0.00
   2   6     0.01  -0.02   0.13     0.06  -0.33   0.17     0.30  -0.01  -0.11
   3   8     0.03   0.10   0.07     0.23   0.16  -0.20     0.18  -0.46   0.18
   4   6    -0.11  -0.02  -0.09     0.32   0.25  -0.03    -0.11   0.24  -0.21
   5   6    -0.10  -0.02  -0.08    -0.13   0.06   0.14    -0.38   0.22   0.13
   6   1    -0.44   0.05   0.15    -0.26  -0.13  -0.09     0.04   0.02   0.02
   7   1     0.44  -0.17   0.31    -0.13  -0.07  -0.04    -0.03  -0.04  -0.02
   8   1     0.19   0.12  -0.52    -0.09   0.15  -0.07     0.01   0.02   0.05
   9   1    -0.01  -0.00   0.04    -0.12  -0.05   0.10     0.22  -0.03  -0.07
  10   1    -0.01  -0.03   0.03     0.09  -0.17   0.14     0.03   0.08  -0.11
  11   1    -0.01  -0.01  -0.08     0.10   0.02   0.08    -0.04   0.11  -0.15
  12   1    -0.07  -0.02  -0.02     0.16   0.13  -0.02    -0.14   0.02  -0.03
  13   1     0.02   0.02   0.05    -0.04  -0.14   0.04    -0.06  -0.11   0.11
  14   1     0.02  -0.01  -0.10    -0.14   0.09   0.10    -0.17   0.10   0.07
  15   1    -0.11  -0.03  -0.01    -0.07   0.04   0.05    -0.22   0.14   0.09
                      7                      8                      9
                        a                      a                      a 
 Frequencies --   486.7843               804.7624               816.9072
 Red. masses --     9.4926                 3.6200                 3.5212
 Frc consts  --     0.0000                 0.0000                 0.0000
 IR Inten    --    10.3007                17.4316                12.4575
 Raman Activ --     0.0000                 0.0000                 0.0000
 Depolar     --     0.0000                 0.0000                 0.0000
 Atom AN      X      Y      Z        X      Y      Z        X      Y      Z
   1   6     0.17   0.12   0.15     0.07   0.07   0.07    -0.10  -0.08   0.06
   2   6    -0.30   0.19   0.09     0.21  -0.09   0.10    -0.26   0.01   0.21
   3   8    -0.11  -0.44  -0.39    -0.02   0.00  -0.16     0.02   0.04   0.14
   4   6     0.22   0.13  -0.05    -0.29  -0.14  -0.09     0.17   0.07  -0.15
   5   6    -0.05   0.01   0.07    -0.11   0.03  -0.03     0.09  -0.07  -0.05
   6   1     0.11   0.11   0.10    -0.04  -0.09  -0.07     0.02  -0.27  -0.23
   7   1     0.19   0.08   0.12    -0.01   0.09  -0.02     0.15   0.39  -0.01
   8   1     0.07  -0.17  -0.06     0.02   0.15   0.02     0.02  -0.12  -0.17
   9   1    -0.18   0.12   0.10     0.07  -0.10  -0.05     0.17  -0.29  -0.23
  10   1     0.02  -0.03   0.14     0.05   0.07  -0.01    -0.11   0.44  -0.15
  11   1     0.02  -0.01   0.19     0.04  -0.30   0.34     0.04   0.02  -0.03
  12   1     0.21   0.16  -0.03     0.13   0.39   0.01     0.02   0.04  -0.03
  13   1    -0.02  -0.13   0.01     0.03   0.17   0.08     0.05  -0.16   0.03
  14   1    -0.10   0.04   0.09     0.24  -0.29   0.13    -0.03   0.01   0.03
  15   1    -0.03   0.05   0.04    -0.00   0.35   0.06    -0.05   0.04   0.02
                     10                     11                     12
                        a                      a                      a 
 Frequencies --   864.9271               942.1827              1052.4255
 Red. masses --     6.7572                 7.9540                 8.6699
 Frc consts  --     0.0000                 0.0000                 0.0000
 IR Inten    --     3.1894                12.5076                24.9226
 Raman Activ --     0.0000                 0.0000                 0.0000
 Depolar     --     0.0000                 0.0000                 0.0000
 Atom AN      X      Y      Z        X      Y      Z        X      Y      Z
   1   6    -0.12  -0.12  -0.16     0.27   0.21   0.14    -0.17  -0.17  -0.07
   2   6    -0.19   0.13  -0.12     0.10  -0.19   0.01     0.30   0.17   0.08
   3   8     0.06   0.09   0.43    -0.46   0.01   0.07     0.02   0.03  -0.19
   4   6     0.13   0.07  -0.25     0.06   0.15  -0.15    -0.41   0.33   0.16
   5   6     0.10  -0.14  -0.15     0.25  -0.18  -0.10     0.23  -0.32  -0.03
   6   1     0.06   0.18   0.14    -0.11  -0.04  -0.02     0.06  -0.02  -0.01
   7   1    -0.03  -0.22   0.02    -0.11  -0.03  -0.05     0.07   0.02   0.03
   8   1    -0.05  -0.20   0.02     0.05   0.41   0.14    -0.02  -0.23  -0.09
   9   1    -0.00   0.18   0.11    -0.04  -0.08  -0.03     0.04   0.08   0.05
  10   1    -0.12  -0.14  -0.03    -0.09  -0.11  -0.07     0.20   0.08   0.11
  11   1     0.13  -0.12   0.03    -0.10   0.11   0.03    -0.17   0.14   0.07
  12   1    -0.04   0.25   0.02    -0.02   0.05  -0.02    -0.13   0.13   0.05
  13   1     0.13  -0.21   0.11     0.11  -0.36   0.04     0.08  -0.26   0.03
  14   1     0.09  -0.17   0.13    -0.10   0.06   0.05    -0.02  -0.03   0.04
  15   1    -0.10   0.28   0.07    -0.08  -0.00   0.03    -0.02  -0.09   0.02
                     13                     14                     15
                        a                      a                      a 
 Frequencies --  1072.4278              1084.4248              1097.8346
 Red. masses --     9.1337                 6.8681                 7.3805
 Frc consts  --     0.0000                 0.0000                 0.0000
 IR Inten    --    26.1538                23.0015                98.8803
 Raman Activ --     0.0000                 0.0000                 0.0000
 Depolar     --     0.0000                 0.0000                 0.0000
 Atom AN      X      Y      Z        X      Y      Z        X      Y      Z
   1   6    -0.09   0.46   0.08     0.10  -0.10  -0.01     0.17  -0.11   0.14
   2   6    -0.14  -0.55  -0.19    -0.09   0.12   0.05    -0.32   0.17  -0.27
   3   8     0.21   0.02  -0.01     0.01  -0.10   0.06     0.34  -0.09  -0.06
   4   6    -0.08   0.21   0.11     0.03   0.47  -0.21    -0.10   0.07   0.33
   5   6    -0.01  -0.16   0.00    -0.12  -0.37   0.23     0.00  -0.05  -0.14
   6   1     0.15   0.24   0.10    -0.07  -0.07  -0.03    -0.15  -0.23  -0.13
   7   1     0.14   0.20   0.10    -0.08  -0.09  -0.05    -0.09   0.05  -0.08
   8   1    -0.01  -0.14  -0.03     0.01   0.15   0.06     0.04   0.29   0.03
   9   1     0.00  -0.14  -0.04     0.01   0.01  -0.01    -0.28  -0.01  -0.08
  10   1    -0.00  -0.11  -0.04    -0.11   0.01  -0.05     0.06  -0.03   0.07
  11   1     0.04   0.05  -0.09     0.08   0.06  -0.07     0.09   0.02  -0.16
  12   1    -0.11   0.04   0.05     0.06   0.07  -0.08    -0.23   0.02   0.14
  13   1     0.01   0.03   0.02    -0.10   0.35  -0.06     0.07  -0.08   0.07
  14   1     0.08  -0.13   0.01     0.22  -0.25  -0.10     0.03  -0.09   0.08
  15   1     0.03  -0.01   0.00     0.25  -0.23  -0.05    -0.08   0.17   0.03
                     16                     17                     18
                        a                      a                      a 
 Frequencies --  1130.3284              1184.2596              1258.5310
 Red. masses --     7.6561                 6.8717                 2.3480
 Frc consts  --     0.0000                 0.0000                 0.0000
 IR Inten    --    95.4814                27.6216                 4.7885
 Raman Activ --     0.0000                 0.0000                 0.0000
 Depolar     --     0.0000                 0.0000                 0.0000
 Atom AN      X      Y      Z        X      Y      Z        X      Y      Z
   1   6     0.16   0.04  -0.15    -0.08  -0.01   0.24     0.06   0.04  -0.18
   2   6    -0.35  -0.05   0.18     0.03   0.03  -0.39    -0.00  -0.03   0.07
   3   8     0.41   0.02  -0.09     0.12   0.02   0.26    -0.11  -0.03   0.03
   4   6    -0.34  -0.06  -0.03    -0.20  -0.08  -0.30     0.03  -0.06  -0.12
   5   6     0.16   0.04   0.09     0.13   0.06   0.20     0.09   0.05   0.17
   6   1    -0.04   0.14   0.10    -0.01  -0.19  -0.12     0.02   0.15   0.08
   7   1    -0.12  -0.24  -0.05     0.07   0.27   0.03    -0.03  -0.16  -0.01
   8   1    -0.00   0.11   0.12     0.02   0.00  -0.11    -0.01  -0.00   0.05
   9   1     0.19  -0.08  -0.03    -0.18   0.12   0.04    -0.28  -0.24  -0.17
  10   1    -0.24   0.09  -0.13     0.07  -0.23   0.04     0.31   0.28   0.17
  11   1    -0.14  -0.03   0.20    -0.04  -0.13   0.17     0.26  -0.23  -0.12
  12   1     0.14   0.11  -0.06     0.12   0.20  -0.07    -0.34   0.32   0.17
  13   1    -0.01  -0.13  -0.04    -0.06  -0.03  -0.09    -0.05   0.01  -0.06
  14   1    -0.14   0.19  -0.03    -0.11   0.20  -0.08    -0.07   0.14  -0.07
  15   1    -0.01  -0.17  -0.00     0.06  -0.26  -0.02     0.05  -0.18  -0.01
                     19                     20                     21
                        a                      a                      a 
 Frequencies --  1289.2722              1332.8175              1335.7391
 Red. masses --     2.7207                 3.2047                 3.0405
 Frc consts  --     0.0000                 0.0000                 0.0000
 IR Inten    --    12.0548                20.9670                19.7794
 Raman Activ --     0.0000                 0.0000                 0.0000
 Depolar     --     0.0000                 0.0000                 0.0000
 Atom AN      X      Y      Z        X      Y      Z        X      Y      Z
   1   6    -0.05  -0.03   0.12    -0.08   0.15  -0.02    -0.02   0.02   0.01
   2   6     0.07   0.03   0.10     0.26   0.21   0.15     0.05   0.07   0.03
   3   8    -0.07  -0.02  -0.26     0.07  -0.08   0.02     0.11   0.03  -0.06
   4   6     0.01  -0.01   0.07    -0.10   0.06   0.06     0.27  -0.22  -0.09
   5   6     0.08   0.05   0.09     0.01   0.04  -0.04    -0.06  -0.13   0.06
   6   1    -0.00  -0.10  -0.06     0.02  -0.03  -0.06     0.00  -0.01  -0.01
   7   1     0.02   0.09   0.02    -0.01  -0.11   0.04    -0.01  -0.00   0.00
   8   1     0.01  -0.01  -0.04    -0.02  -0.20  -0.04    -0.00  -0.04  -0.02
   9   1     0.30   0.20   0.15    -0.48  -0.37  -0.28    -0.13  -0.06  -0.05
  10   1    -0.40  -0.23  -0.22    -0.36  -0.27  -0.19    -0.17  -0.09  -0.10
  11   1     0.34  -0.23  -0.22     0.10  -0.09  -0.03    -0.47   0.38   0.21
  12   1    -0.34   0.22   0.17     0.14  -0.11  -0.06    -0.40   0.28   0.20
  13   1    -0.02  -0.01  -0.03     0.02  -0.06   0.02    -0.05   0.20  -0.03
  14   1    -0.06   0.10  -0.03     0.02  -0.02   0.03    -0.04   0.03  -0.05
  15   1     0.01  -0.09   0.00    -0.01  -0.02  -0.01     0.01   0.10   0.03
                     22                     23                     24
                        a                      a                      a 
 Frequencies --  1392.3417              1396.2428              1457.3370
 Red. masses --     3.1910                 3.1287                 1.8269
 Frc consts  --     0.0000                 0.0000                 0.0000
 IR Inten    --    11.1778                 7.9831                 0.9285
 Raman Activ --     0.0000                 0.0000                 0.0000
 Depolar     --     0.0000                 0.0000                 0.0000
 Atom AN      X      Y      Z        X      Y      Z        X      Y      Z
   1   6    -0.13  -0.30  -0.11     0.09   0.23   0.08     0.00  -0.01  -0.03
   2   6     0.05   0.04   0.03    -0.06  -0.03  -0.03    -0.08   0.16   0.02
   3   8     0.04  -0.01  -0.01     0.01   0.02  -0.02    -0.07   0.00   0.02
   4   6     0.03  -0.04  -0.01     0.07  -0.03  -0.04    -0.03  -0.17   0.08
   5   6    -0.13   0.23   0.00    -0.18   0.28   0.01    -0.03   0.02  -0.00
   6   1     0.21   0.26   0.22    -0.15  -0.23  -0.20    -0.06   0.02   0.02
   7   1     0.22   0.30   0.04    -0.14  -0.25   0.00     0.03   0.05   0.01
   8   1    -0.03   0.41   0.08     0.02  -0.29  -0.02    -0.02  -0.02   0.07
   9   1    -0.12  -0.02  -0.01     0.10   0.04   0.03     0.31  -0.23  -0.24
  10   1    -0.11  -0.01  -0.08     0.06   0.01   0.04     0.12  -0.36   0.24
  11   1    -0.06   0.03   0.05    -0.08   0.03   0.11    -0.06   0.24  -0.43
  12   1    -0.06   0.02   0.03    -0.15   0.01   0.05     0.30   0.40  -0.01
  13   1     0.05  -0.30   0.10     0.07  -0.37   0.14     0.03  -0.02   0.05
  14   1     0.21  -0.19   0.02     0.28  -0.25   0.02     0.02  -0.03   0.03
  15   1     0.15  -0.25  -0.11     0.22  -0.31  -0.14     0.04  -0.06  -0.03
                     25                     26                     27
                        a                      a                      a 
 Frequencies --  1461.5063              1473.3258              1481.0206
 Red. masses --     1.8558                 1.5406                 1.5648
 Frc consts  --     0.0000                 0.0000                 0.0000
 IR Inten    --     1.4399                 1.0978                 3.1219
 Raman Activ --     0.0000                 0.0000                 0.0000
 Depolar     --     0.0000                 0.0000                 0.0000
 Atom AN      X      Y      Z        X      Y      Z        X      Y      Z
   1   6     0.04   0.03  -0.02    -0.05   0.04  -0.02    -0.06  -0.01   0.18
   2   6     0.11  -0.17  -0.01    -0.02   0.00  -0.01    -0.01  -0.02   0.03
   3   8     0.00  -0.01   0.02    -0.00  -0.00  -0.00    -0.00  -0.00   0.00
   4   6    -0.05  -0.14   0.09     0.02  -0.01   0.05    -0.03  -0.03   0.04
   5   6    -0.02   0.01  -0.02     0.09   0.07   0.17    -0.06  -0.03   0.05
   6   1    -0.11  -0.05  -0.03     0.11  -0.09  -0.11     0.44   0.07  -0.01
   7   1     0.02  -0.02   0.02     0.12  -0.13   0.12    -0.34  -0.19  -0.15
   8   1    -0.02  -0.08   0.09    -0.02   0.07   0.08     0.15   0.16  -0.60
   9   1    -0.35   0.26   0.27     0.01   0.01   0.01    -0.02   0.00   0.01
  10   1    -0.13   0.39  -0.26     0.00   0.01   0.00     0.00   0.05  -0.01
  11   1    -0.04   0.20  -0.38    -0.02   0.05  -0.05    -0.00   0.04  -0.11
  12   1     0.30   0.33  -0.01     0.04   0.02   0.00     0.09   0.08  -0.01
  13   1     0.03   0.00   0.04    -0.37  -0.25  -0.51     0.02  -0.12   0.05
  14   1    -0.00  -0.02   0.05     0.34  -0.14  -0.31     0.03   0.07  -0.23
  15   1     0.02  -0.05  -0.02    -0.35   0.12   0.14     0.20   0.17  -0.02
                     28                     29                     30
                        a                      a                      a 
 Frequencies --  1494.1257              1497.1405              2854.3224
 Red. masses --     1.5602                 1.5715                 1.7220
 Frc consts  --     0.0000                 0.0000                 0.0000
 IR Inten    --     0.2395                 2.3145               111.7110
 Raman Activ --     0.0000                 0.0000                 0.0000
 Depolar     --     0.0000                 0.0000                 0.0000
 Atom AN      X      Y      Z        X      Y      Z        X      Y      Z
   1   6     0.11  -0.05  -0.05    -0.14   0.09  -0.08     0.00   0.00   0.00
   2   6     0.03   0.01  -0.00    -0.04   0.00  -0.02     0.01   0.16  -0.20
   3   8     0.00  -0.00  -0.00     0.00   0.00   0.00    -0.01   0.00  -0.01
   4   6    -0.03   0.01   0.03    -0.03  -0.00   0.00     0.00  -0.00   0.00
   5   6    -0.10  -0.07   0.12    -0.08  -0.09   0.01    -0.00   0.00   0.00
   6   1    -0.37   0.10   0.16     0.27  -0.22  -0.28    -0.00   0.02  -0.02
   7   1    -0.05   0.26  -0.13     0.39  -0.30   0.36     0.01  -0.01  -0.01
   8   1    -0.03  -0.19   0.14    -0.08   0.19   0.26    -0.01   0.00  -0.00
   9   1    -0.02  -0.01  -0.01     0.03   0.02   0.01     0.07  -0.63   0.72
  10   1    -0.02  -0.02  -0.01     0.02   0.00   0.02    -0.04   0.04   0.02
  11   1     0.02  -0.03   0.01     0.01  -0.02   0.00    -0.00  -0.00  -0.00
  12   1     0.01  -0.05  -0.01     0.01  -0.01  -0.01    -0.01   0.00  -0.00
  13   1     0.00  -0.25   0.03     0.13  -0.02   0.19     0.00  -0.00  -0.00
  14   1     0.07   0.16  -0.52    -0.12   0.18  -0.18    -0.00  -0.00  -0.00
  15   1     0.36   0.37  -0.01     0.31   0.19  -0.04     0.00   0.00  -0.00
                     31                     32                     33
                        a                      a                      a 
 Frequencies --  2901.6612              2921.3646              2962.9726
 Red. masses --     1.8803                 1.5432                 1.6894
 Frc consts  --     0.0000                 0.0000                 0.0000
 IR Inten    --    73.9978                74.2282                50.0427
 Raman Activ --     0.0000                 0.0000                 0.0000
 Depolar     --     0.0000                 0.0000                 0.0000
 Atom AN      X      Y      Z        X      Y      Z        X      Y      Z
   1   6    -0.00   0.00   0.00    -0.00   0.00  -0.00     0.01   0.00  -0.01
   2   6    -0.00  -0.00   0.00     0.00  -0.00  -0.00    -0.15   0.08   0.18
   3   8     0.00   0.00  -0.01    -0.01   0.00   0.01    -0.01   0.00   0.00
   4   6    -0.14  -0.01  -0.25    -0.13  -0.18  -0.00     0.00  -0.00   0.00
   5   6    -0.00   0.00   0.01     0.01  -0.00  -0.00    -0.00  -0.00  -0.00
   6   1     0.00  -0.00   0.00     0.00  -0.00   0.00     0.00  -0.01   0.01
   7   1     0.00  -0.00  -0.00     0.00  -0.00  -0.00    -0.04   0.02   0.06
   8   1     0.00   0.00   0.00     0.00   0.00  -0.00    -0.03   0.00  -0.01
   9   1     0.01  -0.01   0.01    -0.00  -0.00   0.00    -0.02  -0.03   0.07
  10   1     0.01  -0.00  -0.01    -0.01   0.00   0.01     0.58  -0.26  -0.72
  11   1     0.21   0.23   0.07     0.62   0.61   0.29     0.00   0.00   0.00
  12   1     0.27  -0.19   0.84    -0.12   0.04  -0.31    -0.00   0.00  -0.02
  13   1     0.01   0.00  -0.00    -0.02   0.00   0.01    -0.00   0.00   0.00
  14   1    -0.01  -0.02  -0.00    -0.02  -0.03  -0.01     0.00   0.00   0.00
  15   1    -0.01   0.01  -0.04     0.00   0.00   0.00     0.00  -0.00   0.00
                     34                     35                     36
                        a                      a                      a 
 Frequencies --  3038.7299              3044.5171              3045.8321
 Red. masses --     1.8705                 1.7688                 1.7570
 Frc consts  --     0.0000                 0.0000                 0.0000
 IR Inten    --    64.8888                30.3741                34.5509
 Raman Activ --     0.0000                 0.0000                 0.0000
 Depolar     --     0.0000                 0.0000                 0.0000
 Atom AN      X      Y      Z        X      Y      Z        X      Y      Z
   1   6    -0.18   0.04   0.21    -0.06   0.14  -0.15     0.09  -0.09   0.08
   2   6    -0.01   0.01   0.02    -0.00   0.01  -0.01     0.00  -0.01   0.00
   3   8    -0.00  -0.00   0.00     0.00   0.00  -0.00    -0.00   0.00  -0.00
   4   6    -0.00  -0.00   0.00    -0.00  -0.00   0.01    -0.01  -0.00   0.00
   5   6    -0.03  -0.01   0.02    -0.10   0.00   0.11    -0.17  -0.00   0.13
   6   1    -0.05   0.09  -0.07     0.11  -0.53   0.58    -0.06   0.33  -0.36
   7   1     0.50  -0.23  -0.74     0.01   0.01  -0.05    -0.05   0.02   0.11
   8   1     0.18  -0.00   0.08     0.08   0.02   0.00    -0.20  -0.01  -0.04
   9   1    -0.00   0.00  -0.00     0.00  -0.01   0.02    -0.00   0.01  -0.01
  10   1     0.04  -0.02  -0.05    -0.00   0.00   0.00    -0.00   0.00   0.01
  11   1     0.00   0.00   0.00     0.00   0.00   0.00     0.01   0.01   0.01
  12   1    -0.00   0.00  -0.01    -0.00   0.00  -0.01    -0.00   0.00  -0.01
  13   1     0.09  -0.00  -0.06     0.42   0.00  -0.30     0.65   0.01  -0.46
  14   1     0.03   0.03   0.02    -0.04  -0.03   0.00    -0.03  -0.01   0.02
  15   1    -0.01   0.01  -0.03    -0.04   0.02  -0.10    -0.03   0.00  -0.01
                     37                     38                     39
                        a                      a                      a 
 Frequencies --  3047.5568              3048.4596              3055.0974
 Red. masses --     1.8656                 1.5127                 1.5384
 Frc consts  --     0.0000                 0.0000                 0.0000
 IR Inten    --    54.9800                33.0611                29.4385
 Raman Activ --     0.0000                 0.0000                 0.0000
 Depolar     --     0.0000                 0.0000                 0.0000
 Atom AN      X      Y      Z        X      Y      Z        X      Y      Z
   1   6    -0.03   0.01  -0.02     0.19   0.04   0.08    -0.03  -0.00   0.00
   2   6    -0.00   0.00  -0.00     0.01  -0.00   0.00    -0.00   0.00   0.00
   3   8    -0.00  -0.00  -0.00    -0.00   0.00   0.00    -0.00  -0.00  -0.00
   4   6    -0.01  -0.00  -0.02     0.00   0.00  -0.00     0.01   0.01   0.00
   5   6    -0.14  -0.02  -0.23     0.02   0.02  -0.04     0.12   0.18  -0.01
   6   1     0.01  -0.05   0.05     0.05  -0.12   0.14    -0.01   0.01  -0.02
   7   1    -0.01   0.01   0.01     0.16  -0.06  -0.19     0.01  -0.01  -0.02
   8   1     0.11  -0.00   0.02    -0.88   0.02  -0.22     0.12  -0.00   0.03
   9   1     0.00  -0.00   0.00     0.00   0.00  -0.00     0.00  -0.00   0.00
  10   1    -0.00  -0.00   0.00    -0.01   0.00   0.01     0.00  -0.00  -0.01
  11   1     0.02   0.02   0.01    -0.00  -0.00  -0.00    -0.02  -0.02  -0.01
  12   1     0.01  -0.00   0.03     0.00  -0.00   0.01     0.00  -0.00   0.01
  13   1     0.06  -0.00  -0.09    -0.08   0.00   0.05     0.04   0.02  -0.01
  14   1     0.23   0.27   0.09    -0.04  -0.05  -0.03    -0.57  -0.61  -0.30
  15   1     0.21  -0.18   0.82     0.04  -0.03   0.13     0.12  -0.05   0.35
