      -----------------------------------------------------------      
     |                   =====================                   |     
     |                           x T B                           |     
     |                   =====================                   |     
     |                         S. Grimme                         |     
     |          Mulliken Center for Theoretical Chemistry        |     
     |                    University of Bonn                     |     
      -----------------------------------------------------------      

   * xtb version 6.7.1 (edcfbbe) compiled by 'albert@albert-system' on 2024-07-22

   xtb is free software: you can redistribute it and/or modify it under
   the terms of the GNU Lesser General Public License as published by
   the Free Software Foundation, either version 3 of the License, or
   (at your option) any later version.
   
   xtb is distributed in the hope that it will be useful,
   but WITHOUT ANY WARRANTY; without even the implied warranty of
   MERCHANTABILITY or FITNESS FOR A PARTICULAR PURPOSE.  See the
   GNU Lesser General Public License for more details.
   
   Cite this work as:
   * C. Bannwarth, E. Caldeweyher, S. Ehlert, A. Hansen, P. Pracht,
     J. Seibert, S. Spicher, S. Grimme, WIREs Comput. Mol. Sci., 2020, 11,
     e01493. DOI: 10.1002/wcms.1493
   
   for GFN2-xTB:
   * C. Bannwarth, S. Ehlert and S. Grimme., J. Chem. Theory Comput., 2019,
     15, 1652-1671. DOI: 10.1021/acs.jctc.8b01176
   for GFN1-xTB:
   * S. Grimme, C. Bannwarth, P. Shushkov, J. Chem. Theory Comput., 2017,
     13, 1989-2009. DOI: 10.1021/acs.jctc.7b00118
   for GFN0-xTB:
   * P. Pracht, E. Caldeweyher, S. Ehlert, S. Grimme, ChemRxiv, 2019, preprint.
     DOI: 10.26434/chemrxiv.8326202.v1
   for GFN-FF:
   * S. Spicher and S. Grimme, Angew. Chem. Int. Ed., 2020, 59, 15665-15673.
     DOI: 10.1002/anie.202004239
   
   for ALPB and GBSA implicit solvation:
   * S. Ehlert, M. Stahn, S. Spicher, S. Grimme, J. Chem. Theory Comput.,
     2021, 17, 4250-4261. DOI: 10.1021/acs.jctc.1c00471
   
   for ddCOSMO and CPCM-X implicit solvation:
   * M. Stahn, S. Ehlert, S. Grimme, J. Phys. Chem. A,
     2023, XX, XXXX-XXXX. DOI: 10.1021/acs.jpca.3c04382
   
   for DFT-D4:
   * E. Caldeweyher, C. Bannwarth and S. Grimme, J. Chem. Phys., 2017,
     147, 034112. DOI: 10.1063/1.4993215
   * E. Caldeweyher, S. Ehlert, A. Hansen, H. Neugebauer, S. Spicher,
     C. Bannwarth and S. Grimme, J. Chem. Phys., 2019, 150, 154122.
     DOI: 10.1063/1.5090222
   * E. Caldeweyher, J.-M. Mewes, S. Ehlert and S. Grimme, Phys. Chem. Chem. Phys.
     2020, 22, 8499-8512. DOI: 10.1039/D0CP00502A
   
   for sTDA-xTB:
   * S. Grimme and C. Bannwarth, J. Chem. Phys., 2016, 145, 054103.
     DOI: 10.1063/1.4959605
   
   in the mass-spec context:
   * V. Asgeirsson, C. Bauer and S. Grimme, Chem. Sci., 2017, 8, 4879.
     DOI: 10.1039/c7sc00601b
   * J. Koopman and S. Grimme, ACS Omega 2019, 4, 12, 15120-15133.
     DOI: 10.1021/acsomega.9b02011
   
   for metadynamics refer to:
   * S. Grimme, J. Chem. Theory Comput., 2019, 155, 2847-2862
     DOI: 10.1021/acs.jctc.9b00143
   
   for SPH calculations refer to:
   * S. Spicher and S. Grimme, J. Chem. Theory Comput., 2021, 17, 1701-1714
     DOI: 10.1021/acs.jctc.0c01306
   
   for ONIOM refer to:
   * C. Plett, A. Katbashev, S. Ehlert, S. Grimme, M. Bursch,
     Phys. Chem. Chem. Phys., 2023, 25, 17860-17868. DOI: 10.1039/D3CP02178E
   
   for DIPRO refer to:
   * J. Kohn, N. Gildemeister, S. Grimme, D. Fazzi, A. Hansen,
     J. Chem. Phys., 2023, just accepted.
   
   for PTB refer to:
   * S. Grimme, M. Mueller, A. Hansen, J. Chem. Phys., 2023, 158, 124111.
     DOI: 10.1063/5.0137838
   
   with help from (in alphabetical order)
   P. Atkinson, C. Bannwarth, F. Bohle, G. Brandenburg, E. Caldeweyher
   M. Checinski, S. Dohm, S. Ehlert, S. Ehrlich, I. Gerasimov, C. Hölzer
   A. Katbashev, J. Kohn, J. Koopman, C. Lavigne, S. Lehtola, F. März, M. Müller,
   F. Musil, H. Neugebauer, J. Pisarek, C. Plett, P. Pracht, F. Pultar,
   J. Seibert, P. Shushkov, S. Spicher, M. Stahn, M. Steiner, T. Strunk,
   J. Stückrath, T. Rose, and J. Unsleber
   
 * started run on 2025/04/07 at 02:45:59.842     
   ID    Z sym.   atoms
    1    6 C      1, 2, 4, 5
    2    8 O      3
    3    1 H      6-15

           -------------------------------------------------
          |                Calculation Setup                |
           -------------------------------------------------

          program call               : /srv/scratch/z5358697/.xtb/bin/xtb xtb_rrho.coord --gfn2 --bhess vtight --chrg 0 --enso --norestart -I rrho-xcontrol-inp --parallel 1 --alpb water
          hostname                   : k140
          coordinate file            : xtb_rrho.coord
          omp threads                :                     1


           -------------------------------------------------
          |                 G F N 2 - x T B                 |
           -------------------------------------------------

        Reference                      10.1021/acs.jctc.8b01176
      * Hamiltonian:
        H0-scaling (s, p, d)           1.850000    2.230000    2.230000
        zeta-weighting                 0.500000
      * Dispersion:
        s8                             2.700000
        a1                             0.520000
        a2                             5.000000
        s9                             5.000000
      * Repulsion:
        kExp                           1.500000    1.000000
        rExp                           1.000000
      * Coulomb:
        alpha                          2.000000
        third order                    shell-resolved
        anisotropic                    true
        a3                             3.000000
        a5                             4.000000
        cn-shift                       1.200000
        cn-exp                         4.000000
        max-rad                        5.000000

      * Solvation model:               ALPB
        Solvent                        water
        Parameter file                 internal GFN2-xTB/ALPB
        Dielectric constant                8.0200E+01
        Reference state                gsolv [1 M gas/solution]
        Free energy shift                  1.0808E-03 Eh       6.7819E-01 kcal/mol
        Temperature                        2.9815E+02 K
        Density                            1.0000E+00 kg/L
        Solvent mass                       1.8000E+01 g/mol
        Interaction kernel             P16
        Born radius scaling (c1)           1.4744E+00
        Born radii integrator          GBOBC
        Born offset                        0.0000E+00 a0       0.0000E+00 AA
        H-bond correction              true
        Ion screening                  false
        Surface tension                    1.0000E-05 Eh       1.5569E+01 dyn/cm
        Grid points                               974 per atom

          ...................................................
          :                      SETUP                      :
          :.................................................:
          :  # basis functions                  30          :
          :  # atomic orbitals                  30          :
          :  # shells                           20          :
          :  # electrons                        32          :
          :  max. iterations                   250          :
          :  Hamiltonian                  GFN2-xTB          :
          :  restarted?                      false          :
          :  GBSA solvation                   true          :
          :  PC potential                    false          :
          :  electronic temp.          300.0000000     K    :
          :  accuracy                    1.0000000          :
          :  -> integral cutoff          0.2500000E+02      :
          :  -> integral neglect         0.1000000E-07      :
          :  -> SCF convergence          0.1000000E-05 Eh   :
          :  -> wf. convergence          0.1000000E-03 e    :
          :  Broyden damping             0.4000000          :
          :  net charge                          0          :
          :  unpaired electrons                  0          :
          ...................................................

 iter      E             dE          RMSdq      gap      omega  full diag
   1    -17.8821957 -0.178822E+02  0.371E+00   11.12       0.0  T
   2    -17.9220474 -0.398517E-01  0.182E+00   10.68       1.0  T
   3    -17.9227462 -0.698852E-03  0.735E-01   10.73       1.0  T
   4    -17.9229184 -0.172118E-03  0.125E-01   10.75       1.0  T
   5    -17.9229368 -0.184471E-04  0.671E-02   10.77       1.0  T
   6    -17.9229384 -0.159967E-05  0.832E-03   10.78       3.1  T
   7    -17.9229386 -0.165816E-06  0.276E-03   10.78       9.4  T
   8    -17.9229386 -0.965825E-08  0.128E-03   10.78      20.2  T
   9    -17.9229386 -0.324341E-08  0.179E-04   10.78     144.2  T
  10    -17.9229386 -0.425082E-10  0.105E-04   10.78     246.0  T

   *** convergence criteria satisfied after 10 iterations ***

         #    Occupation            Energy/Eh            Energy/eV
      -------------------------------------------------------------
         1        2.0000           -0.6927229             -18.8500
       ...           ...                  ...                  ...
        10        2.0000           -0.4854085             -13.2086
        11        2.0000           -0.4738095             -12.8930
        12        2.0000           -0.4654153             -12.6646
        13        2.0000           -0.4556098             -12.3978
        14        2.0000           -0.4374895             -11.9047
        15        2.0000           -0.4336565             -11.8004
        16        2.0000           -0.3988503             -10.8533 (HOMO)
        17                         -0.0028225              -0.0768 (LUMO)
        18                          0.0764314               2.0798
        19                          0.1165056               3.1703
        20                          0.1238779               3.3709
        21                          0.1338266               3.6416
       ...                                ...                  ...
        30                          0.2893114               7.8726
      -------------------------------------------------------------
                  HL-Gap            0.3960278 Eh           10.7765 eV
             Fermi-level           -0.2008364 Eh           -5.4650 eV

 SCC (total)                   0 d,  0 h,  0 min,  0.029 sec
 SCC setup                      ...        0 min,  0.001 sec (  2.323%)
 Dispersion                     ...        0 min,  0.000 sec (  0.179%)
 classical contributions        ...        0 min,  0.000 sec (  0.041%)
 integral evaluation            ...        0 min,  0.001 sec (  3.198%)
 iterations                     ...        0 min,  0.025 sec ( 87.853%)
 molecular gradient             ...        0 min,  0.002 sec (  6.055%)
 printout                       ...        0 min,  0.000 sec (  0.314%)

         :::::::::::::::::::::::::::::::::::::::::::::::::::::
         ::                     SUMMARY                     ::
         :::::::::::::::::::::::::::::::::::::::::::::::::::::
         :: total energy             -17.720895505991 Eh    ::
         :: total w/o Gsasa/hb       -17.721203713931 Eh    ::
         :: gradient norm              0.026706792273 Eh/a0 ::
         :: HOMO-LUMO gap             10.776464980243 eV    ::
         ::.................................................::
         :: SCC energy               -17.922925297152 Eh    ::
         :: -> isotropic ES            0.027506543526 Eh    ::
         :: -> anisotropic ES          0.004024010012 Eh    ::
         :: -> anisotropic XC          0.006684972516 Eh    ::
         :: -> dispersion             -0.007175200257 Eh    ::
         :: -> Gsolv                  -0.003567705549 Eh    ::
         ::    -> Gelec               -0.003875913489 Eh    ::
         ::    -> Gsasa                0.000158390989 Eh    ::
         ::    -> Ghb                 -0.000930942747 Eh    ::
         ::    -> Gshift               0.001080759698 Eh    ::
         :: repulsion energy           0.202029791162 Eh    ::
         :: add. restraining           0.000000000000 Eh    ::
         :: total charge              -0.000000000000 e     ::
         :::::::::::::::::::::::::::::::::::::::::::::::::::::

metadynamics with 1 initial structures loaded
           -------------------------------------------------
          |           Optimal kpush determination           |
           -------------------------------------------------
      ----------------------------------------------------------- 
     |                   =====================                   |
     |                        A N C O P T                        |
     |                   =====================                   |
     |               Approximate Normal Coordinate               |
     |                Rational Function Optimizer                |
      ----------------------------------------------------------- 
target rmsd / Å         0.100000
unbiased initial rmsd   0.119713
 
iter. min.        max.        rmsd       kpush
      ----------------------------------------------------------- 
     |                   =====================                   |
     |                        A N C O P T                        |
     |                   =====================                   |
     |               Approximate Normal Coordinate               |
     |                Rational Function Optimizer                |
      ----------------------------------------------------------- 
 1    0.000000    0.681818    0.010239   -0.340909
      ----------------------------------------------------------- 
     |                   =====================                   |
     |                        A N C O P T                        |
     |                   =====================                   |
     |               Approximate Normal Coordinate               |
     |                Rational Function Optimizer                |
      ----------------------------------------------------------- 
 2    0.000000    0.340909    0.012702   -0.170455
      ----------------------------------------------------------- 
     |                   =====================                   |
     |                        A N C O P T                        |
     |                   =====================                   |
     |               Approximate Normal Coordinate               |
     |                Rational Function Optimizer                |
      ----------------------------------------------------------- 
 3    0.000000    0.170455    0.015667   -0.085227
      ----------------------------------------------------------- 
     |                   =====================                   |
     |                        A N C O P T                        |
     |                   =====================                   |
     |               Approximate Normal Coordinate               |
     |                Rational Function Optimizer                |
      ----------------------------------------------------------- 
 4    0.000000    0.085227    0.019904   -0.042614
      ----------------------------------------------------------- 
     |                   =====================                   |
     |                        A N C O P T                        |
     |                   =====================                   |
     |               Approximate Normal Coordinate               |
     |                Rational Function Optimizer                |
      ----------------------------------------------------------- 
 5    0.000000    0.042614    0.026715   -0.021307
      ----------------------------------------------------------- 
     |                   =====================                   |
     |                        A N C O P T                        |
     |                   =====================                   |
     |               Approximate Normal Coordinate               |
     |                Rational Function Optimizer                |
      ----------------------------------------------------------- 
 6    0.000000    0.021307    0.037642   -0.010653
      ----------------------------------------------------------- 
     |                   =====================                   |
     |                        A N C O P T                        |
     |                   =====================                   |
     |               Approximate Normal Coordinate               |
     |                Rational Function Optimizer                |
      ----------------------------------------------------------- 
 7    0.000000    0.010653    0.052760   -0.005327
      ----------------------------------------------------------- 
     |                   =====================                   |
     |                        A N C O P T                        |
     |                   =====================                   |
     |               Approximate Normal Coordinate               |
     |                Rational Function Optimizer                |
      ----------------------------------------------------------- 
 8    0.000000    0.005327    0.070283   -0.002663
      ----------------------------------------------------------- 
     |                   =====================                   |
     |                        A N C O P T                        |
     |                   =====================                   |
     |               Approximate Normal Coordinate               |
     |                Rational Function Optimizer                |
      ----------------------------------------------------------- 
 9    0.000000    0.002663    0.087581   -0.001332
      ----------------------------------------------------------- 
     |                   =====================                   |
     |                        A N C O P T                        |
     |                   =====================                   |
     |               Approximate Normal Coordinate               |
     |                Rational Function Optimizer                |
      ----------------------------------------------------------- 
10    0.000000    0.001332    0.100574   -0.000666
final kpush: -0.000666
           -------------------------------------------------
          |            Biased Numerical Hessian             |
           -------------------------------------------------
kpush                :  -0.00067
alpha                :   1.00000
step length          :   0.00500
SCC accuracy         :   0.30000
Hessian scale factor :   1.00000
frozen atoms in %    :   0.00000    0
RMS gradient         :   0.00004
estimated CPU  time      0.01 min
estimated wall time      0.01 min

writing file <hessian>.

 projected vibrational frequencies (cm⁻¹)
eigval :       -0.00    -0.00    -0.00     0.00     0.00     0.00
eigval :       79.43   117.13   190.26   242.24   331.77   398.02
eigval :      486.78   804.76   816.91   864.93   942.18  1052.43
eigval :     1072.43  1084.42  1097.83  1130.33  1184.26  1258.53
eigval :     1289.27  1332.82  1335.74  1392.34  1396.24  1457.34
eigval :     1461.51  1473.33  1481.02  1494.13  1497.14  2854.32
eigval :     2901.66  2921.36  2962.97  3038.73  3044.52  3045.83
eigval :     3047.56  3048.46  3055.10
           -------------------------------------------------
          |                Property Printout                |
           -------------------------------------------------

    * Orbital Energies and Occupations

         #    Occupation            Energy/Eh            Energy/eV
      -------------------------------------------------------------
         1        2.0000           -0.6973238             -18.9751
       ...           ...                  ...                  ...
         4        2.0000           -0.5889098             -16.0251
         5        2.0000           -0.5795081             -15.7692
         6        2.0000           -0.5474152             -14.8959
         7        2.0000           -0.5365369             -14.5999
         8        2.0000           -0.5247528             -14.2792
         9        2.0000           -0.4925271             -13.4023
        10        2.0000           -0.4845623             -13.1856
        11        2.0000           -0.4742738             -12.9056
        12        2.0000           -0.4680376             -12.7360
        13        2.0000           -0.4556055             -12.3977
        14        2.0000           -0.4360092             -11.8644
        15        2.0000           -0.4330063             -11.7827
        16        2.0000           -0.3980041             -10.8302 (HOMO)
        17                          0.0157009               0.4272 (LUMO)
        18                          0.0915869               2.4922
        19                          0.1146514               3.1198
        20                          0.1247202               3.3938
        21                          0.1387166               3.7747
        22                          0.1536992               4.1824
        23                          0.1729953               4.7074
        24                          0.1798489               4.8939
        25                          0.1900038               5.1703
        26                          0.2105420               5.7291
        27                          0.2435267               6.6267
       ...                                ...                  ...
        30                          0.3078127               8.3760
      -------------------------------------------------------------
                  HL-Gap            0.4137051 Eh           11.2575 eV
             Fermi-level           -0.1911516 Eh           -5.2015 eV

     #   Z          covCN         q      C6AA      α(0)
     1   6 C        3.750    -0.125    22.965     6.835
     2   6 C        3.686     0.080    19.431     6.310
     3   8 O        1.699    -0.369    20.241     6.074
     4   6 C        3.685     0.080    19.440     6.312
     5   6 C        3.750    -0.126    22.985     6.837
     6   1 H        0.925     0.054     2.271     2.357
     7   1 H        0.925     0.049     2.339     2.391
     8   1 H        0.925     0.053     2.283     2.363
     9   1 H        0.923     0.022     2.703     2.571
    10   1 H        0.924     0.053     2.283     2.363
    11   1 H        0.924     0.042     2.424     2.435
    12   1 H        0.924     0.030     2.593     2.518
    13   1 H        0.925     0.052     2.290     2.366
    14   1 H        0.925     0.052     2.290     2.367
    15   1 H        0.925     0.053     2.277     2.360

 Mol. C6AA /au·bohr⁶  :       1460.979071
 Mol. C8AA /au·bohr⁸  :      29723.720850
 Mol. α(0) /au        :         56.459689


Wiberg/Mayer (AO) data.
largest (>0.10) Wiberg bond orders for each atom

 ---------------------------------------------------------------------------
     #   Z sym  total        # sym  WBO       # sym  WBO       # sym  WBO
 ---------------------------------------------------------------------------
     1   6 C    3.994 --     2 C    1.010     6 H    0.986     7 H    0.985
                             8 H    0.984
     2   6 C    3.947 --     1 C    1.010     3 O    0.976    10 H    0.970
                             9 H    0.969
     3   8 O    2.048 --     2 C    0.976     4 C    0.970
     4   6 C    3.947 --     5 C    1.011    11 H    0.972    12 H    0.971
                             3 O    0.970
     5   6 C    3.993 --     4 C    1.011    15 H    0.986    13 H    0.984
                            14 H    0.984
     6   1 H    0.997 --     1 C    0.986
     7   1 H    0.998 --     1 C    0.985
     8   1 H    0.997 --     1 C    0.984
     9   1 H    1.000 --     2 C    0.969
    10   1 H    0.997 --     2 C    0.970
    11   1 H    0.998 --     4 C    0.972
    12   1 H    0.999 --     4 C    0.971
    13   1 H    0.997 --     5 C    0.984
    14   1 H    0.997 --     5 C    0.984
    15   1 H    0.997 --     5 C    0.986
 ---------------------------------------------------------------------------

Topologies differ in total number of bonds
Writing topology from bond orders to xtbtopo.mol

molecular dipole:
                 x           y           z       tot (Debye)
 q only:        0.078       0.302       0.541
   full:        0.102       0.261       0.673       1.853
molecular quadrupole (traceless):
                xx          xy          yy          xz          yz          zz
 q only:        3.169      -0.233      -0.951      -0.525      -0.693      -2.218
  q+dip:        2.295      -0.026      -0.848      -0.417      -1.450      -1.448
   full:        2.869      -0.131      -0.985      -0.518      -1.261      -1.884

           -------------------------------------------------
          |                Geometry Summary                 |
           -------------------------------------------------

      molecular mass/u    :       74.1217560
   center of mass at/Å    :       -0.0003656       0.0025423      -0.0012439
  moments of inertia/u·Å² :        0.6124540E+02   0.1506061E+03   0.1881974E+03
rotational constants/cm⁻¹ :        0.2752473E+00   0.1119319E+00   0.8957420E-01

 * 14 selected distances

     #   Z          #   Z                                           value/Å
     1   6 C        2   6 C                                       1.5264271
     2   6 C        3   8 O                                       1.4155834
     3   8 O        4   6 C                                       1.4220821
     4   6 C        5   6 C                                       1.5265571 (max)
     1   6 C        6   1 H                                       1.0868435
     1   6 C        7   1 H                                       1.0869691
     1   6 C        8   1 H                                       1.0860373
     2   6 C        9   1 H                                       1.1002724
     2   6 C       10   1 H                                       1.0928283
     4   6 C       11   1 H                                       1.0957819
     4   6 C       12   1 H                                       1.0962603
     5   6 C       13   1 H                                       1.0861348
     5   6 C       14   1 H                                       1.0858937 (min)
     5   6 C       15   1 H                                       1.0865909

 * 3 distinct bonds (by element types)

   Z      Z             #   av. dist./Å        max./Å        min./Å
   1 H    6 C          10     1.0903612     1.1002724     1.0858937
   6 C    6 C           2     1.5264921     1.5265571     1.5264271
   6 C    8 O           2     1.4188328     1.4220821     1.4155834

           -------------------------------------------------
          |               Frequency Printout                |
           -------------------------------------------------
 projected vibrational frequencies (cm⁻¹)
eigval :       -0.00    -0.00    -0.00     0.00     0.00     0.00
eigval :       79.43   117.13   190.26   242.24   331.77   398.02
eigval :      486.78   804.76   816.91   864.93   942.18  1052.43
eigval :     1072.43  1084.42  1097.83  1130.33  1184.26  1258.53
eigval :     1289.27  1332.82  1335.74  1392.34  1396.24  1457.34
eigval :     1461.51  1473.33  1481.02  1494.13  1497.14  2854.32
eigval :     2901.66  2921.36  2962.97  3038.73  3044.52  3045.83
eigval :     3047.56  3048.46  3055.10
 reduced masses (amu)
   1:  9.17   2: 11.11   3:  9.27   4: 11.54   5:  9.89   6: 11.08   7:  6.20   8:  8.59
   9:  2.32  10:  2.18  11:  8.47  12:  9.92  13:  9.49  14:  3.62  15:  3.52  16:  6.76
  17:  7.95  18:  8.67  19:  9.13  20:  6.87  21:  7.38  22:  7.66  23:  6.87  24:  2.35
  25:  2.72  26:  3.20  27:  3.04  28:  3.19  29:  3.13  30:  1.83  31:  1.86  32:  1.54
  33:  1.56  34:  1.56  35:  1.57  36:  1.72  37:  1.88  38:  1.54  39:  1.69  40:  1.87
  41:  1.77  42:  1.76  43:  1.87  44:  1.51  45:  1.54
 IR intensities (km·mol⁻¹)
   1:  1.00   2:  0.43   3:  0.65   4:  0.44   5:  0.66   6:  0.13   7:  0.68   8:  4.02
   9:  0.49  10:  0.28  11:  2.28  12:  7.34  13: 10.30  14: 17.43  15: 12.46  16:  3.19
  17: 12.51  18: 24.92  19: 26.15  20: 23.00  21: 98.88  22: 95.48  23: 27.62  24:  4.79
  25: 12.05  26: 20.97  27: 19.78  28: 11.18  29:  7.98  30:  0.93  31:  1.44  32:  1.10
  33:  3.12  34:  0.24  35:  2.31  36:111.71  37: 74.00  38: 74.23  39: 50.04  40: 64.89
  41: 30.37  42: 34.55  43: 54.98  44: 33.06  45: 29.44
 Raman intensities (Ä⁴*amu⁻¹)
   1:  0.00   2:  0.00   3:  0.00   4:  0.00   5:  0.00   6:  0.00   7:  0.00   8:  0.00
   9:  0.00  10:  0.00  11:  0.00  12:  0.00  13:  0.00  14:  0.00  15:  0.00  16:  0.00
  17:  0.00  18:  0.00  19:  0.00  20:  0.00  21:  0.00  22:  0.00  23:  0.00  24:  0.00
  25:  0.00  26:  0.00  27:  0.00  28:  0.00  29:  0.00  30:  0.00  31:  0.00  32:  0.00
  33:  0.00  34:  0.00  35:  0.00  36:  0.00  37:  0.00  38:  0.00  39:  0.00  40:  0.00
  41:  0.00  42:  0.00  43:  0.00  44:  0.00  45:  0.00
 output can be read by thermo (or use thermo option).
 writing <g98.out> molden fake output.
 recommended (thermochemical) frequency scaling factor: 1.0
           -------------------------------------------------
          |             Thermodynamic Functions             |
           -------------------------------------------------

Molecule has no symmetry elements
It seems to be the C1 point group
c1  symmetry found (for desy threshold:  0.10E+00) used in thermo

          ...................................................
          :                      SETUP                      :
          :.................................................:
          :  # frequencies                          39      :
          :  # imaginary freq.                       0      :
          :  linear?                             false      :
          :  only rotor calc.                    false      :
          :  symmetry                               c1      :
          :  rotational number                       1      :
          :  scaling factor                  1.0000000      :
          :  rotor cutoff                    0.0000000 cm⁻¹ :
          :  imag. cutoff                 -100.0000000 cm⁻¹ :
          :.................................................:

    mode    ω/cm⁻¹     T·S(HO)/kcal·mol⁻¹    T·S(FR)/kcal·mol⁻¹   T·S(vib)
   ------------------------------------------------------------------------
       1     79.43    -1.16427 (100.00%)    -0.91897 (  0.00%)    -1.16427
       2    117.13    -0.93834 (100.00%)    -0.80406 (  0.00%)    -0.93834
       3    190.26    -0.66346 (100.00%)    -0.66046 (  0.00%)    -0.66346
       4    242.24    -0.53261 (100.00%)    -0.58896 (  0.00%)    -0.53261
   ------------------------------------------------------------------------

   temp. (K)  partition function   enthalpy   heat capacity  entropy
                                   cal/mol     cal/K/mol   cal/K/mol   J/K/mol
 298.15  VIB   31.9                 2496.261     17.120     15.251
         ROT  0.101E+06              888.752      2.981     25.873
         INT  0.321E+07             3385.014     20.101     41.124
         TR   0.617E+27             1481.254      4.968     38.808
         TOT                        4866.2677    25.0689    79.9314   334.4330

       T/K    H(0)-H(T)+PV         H(T)/Eh          T*S/Eh         G(T)/Eh
   ------------------------------------------------------------------------
    298.15    0.775489E-02    0.141451E+00    0.379780E-01    0.103473E+00
   ------------------------------------------------------------------------

         :::::::::::::::::::::::::::::::::::::::::::::::::::::
         ::                  THERMODYNAMIC                  ::
         :::::::::::::::::::::::::::::::::::::::::::::::::::::
         :: total free energy         -17.619236558064 Eh   ::
         ::.................................................::
         :: total energy              -17.722710048916 Eh   ::
         :: zero point energy           0.133696590478 Eh   ::
         :: G(RRHO) w/o ZPVE           -0.030223099627 Eh   ::
         :: G(RRHO) contrib.            0.103473490852 Eh   ::
         :::::::::::::::::::::::::::::::::::::::::::::::::::::

optimized geometry written to: xtbopt.coord


           -------------------------------------------------
          | TOTAL ENERGY              -17.722710048916 Eh   |
          | TOTAL ENTHALPY            -17.581258567166 Eh   |
          | TOTAL FREE ENERGY         -17.619236558064 Eh   |
          | GRADIENT NORM               0.000035152098 Eh/α |
          | HOMO-LUMO GAP              11.257487735171 eV   |
           -------------------------------------------------

------------------------------------------------------------------------
 * finished run on 2025/04/07 at 02:46:01.148     
------------------------------------------------------------------------
 total:
 * wall-time:     0 d,  0 h,  0 min,  1.305 sec
 *  cpu-time:     0 d,  0 h,  0 min,  1.134 sec
 * ratio c/w:     0.869 speedup
 SCF:
 * wall-time:     0 d,  0 h,  0 min,  0.029 sec
 *  cpu-time:     0 d,  0 h,  0 min,  0.007 sec
 * ratio c/w:     0.252 speedup
 analytical hessian:
 * wall-time:     0 d,  0 h,  0 min,  0.367 sec
 *  cpu-time:     0 d,  0 h,  0 min,  0.360 sec
 * ratio c/w:     0.982 speedup

