! pbe def2-sv(p) def2/J RI DEFGRID1 loosescf d4 GCP(DFT/SV(P)) printgap
%output
    printlevel normal
end
* xyz 0 1
C -0.6919837011 -3.0127209628 -0.0045842764
C 0.6913925417 -3.012879943 0.0045787278
C 1.3857810796 -1.814121871 0.0122081969
C 0.6996018422 -0.6058819594 0.0115192611
C -0.699616561 -0.6057132492 -0.0118552031
C -1.3860769609 -1.8137944668 -0.0123589073
C -1.5009317154 0.6674140375 -0.0028010788
F -1.571561656 1.2274490423 1.2239732566
F -1.0292029382 1.619647297 -0.8268950365
F -2.7760976071 0.4710572281 -0.3776086195
C 1.5011021042 0.6671408935 0.0027177117
F 1.030053177 1.6186343749 0.8281439698
F 2.7765481073 0.4703750255 0.3763054793
F 1.5707824937 1.2283078567 -1.2235614498
H -1.2388264532 -3.9411280312 -0.0067930434
H 1.2380092149 -3.94142465 0.0070407863
H 2.4638112076 -1.8094909416 0.0240231572
H -2.4641097828 -1.8089014364 -0.0241525124
*
