! pbe def2-sv(p) def2/J RI DEFGRID1 loosescf d4 GCP(DFT/SV(P)) printgap
%output
    printlevel normal
end
* xyz 0 1
C -1.0006583306 -1.6005615165 -4.2272e-06
S -0.4689177888 0.0897081979 2.9463e-06
O -0.8000756381 0.7699174041 1.2244684828
O -0.8001957463 0.769956262 -1.2244124005
Cl 1.5791627937 -0.0718702111 -2.79351e-05
H -0.607851153 -2.0575751624 0.8975909865
H -2.083466673 -1.5821242917 0.0017315966
H -0.6106400995 -2.056671918 -0.8992735742
*
