 Entering Gaussian System
 *********************************************
 Gaussian 98:
 frequency output generated by the xtb code
 *********************************************
                         Standard orientation:
 --------------------------------------------------------------------
  Center     Atomic     Atomic              Coordinates (Angstroms)
  Number     Number      Type              X           Y           Z
 --------------------------------------------------------------------
    1          6             0        2.148409   -0.297338    0.592329
    2          6             0        1.390602    0.513664   -0.453533
    3          6             0       -0.007701   -0.032337   -0.742135
    4          6             0       -0.964122    0.115512    0.442310
    5          8             0       -2.301861   -0.193989    0.103686
    6          1             0        1.661661   -0.235772    1.561849
    7          1             0        2.202851   -1.342692    0.297242
    8          1             0        3.161844    0.081841    0.697454
    9          1             0        1.310120    1.550809   -0.121778
   10          1             0        1.959738    0.506965   -1.385378
   11          1             0       -0.437368    0.509612   -1.587793
   12          1             0        0.065804   -1.086727   -1.019567
   13          1             0       -0.639963   -0.511244    1.282608
   14          1             0       -0.987117    1.156002    0.776626
   15          1             0       -2.344036   -1.110285   -0.203198
 --------------------------------------------------------------------
     1 basis functions        1 primitive gaussians
     1 alpha electrons        1 beta electrons
 
 Harmonic frequencies (cm**-1), IR intensities (km*mol⁻¹),
 Raman scattering activities (A**4/amu), Raman depolarization ratios,
 reduced masses (AMU), force constants (mDyne/A) and normal coordinates:
                      1                      2                      3
                        a                      a                      a 
 Frequencies --    74.3885               114.1098               215.5403
 Red. masses --     7.8050                 7.4383                 4.9210
 Frc consts  --     0.0000                 0.0000                 0.0000
 IR Inten    --     7.4884                 1.5676                 0.5317
 Raman Activ --     0.0000                 0.0000                 0.0000
 Depolar     --     0.0000                 0.0000                 0.0000
 Atom AN      X      Y      Z        X      Y      Z        X      Y      Z
   1   6     0.05  -0.26  -0.11    -0.36  -0.04   0.21     0.27   0.02  -0.11
   2   6     0.03   0.03   0.13     0.10  -0.06  -0.15     0.04  -0.01   0.03
   3   6     0.00   0.13   0.06    -0.04   0.34  -0.22    -0.04   0.05   0.27
   4   6    -0.14   0.51  -0.11     0.14   0.03  -0.05    -0.18   0.01   0.15
   5   8     0.03  -0.39   0.01     0.17  -0.26   0.20    -0.10  -0.06  -0.29
   6   1     0.01  -0.17  -0.03    -0.05   0.25   0.07     0.36   0.33   0.09
   7   1     0.03  -0.05  -0.13    -0.34  -0.07   0.23    -0.28  -0.07   0.16
   8   1     0.01  -0.07   0.01    -0.02  -0.21  -0.04     0.21  -0.25  -0.39
   9   1     0.02  -0.01   0.11     0.12   0.02  -0.13     0.06   0.01  -0.01
  10   1    -0.00   0.07   0.03     0.07  -0.15  -0.02    -0.06  -0.04  -0.03
  11   1     0.05  -0.02  -0.04    -0.00   0.21   0.00    -0.01   0.01   0.07
  12   1    -0.02   0.01   0.10    -0.08   0.12  -0.17    -0.02   0.01   0.08
  13   1     0.03   0.36   0.10     0.12  -0.00  -0.05    -0.09  -0.00   0.06
  14   1    -0.18   0.21  -0.24    -0.00  -0.00   0.02    -0.09  -0.00   0.05
  15   1     0.14  -0.17   0.19     0.09  -0.06   0.02     0.03   0.00  -0.13
                      4                      5                      6
                        a                      a                      a 
 Frequencies --   279.9753               329.6968               349.5979
 Red. masses --     5.4763                 4.5167                 8.7520
 Frc consts  --     0.0000                 0.0000                 0.0000
 IR Inten    --    22.4269               101.5517               105.7090
 Raman Activ --     0.0000                 0.0000                 0.0000
 Depolar     --     0.0000                 0.0000                 0.0000
 Atom AN      X      Y      Z        X      Y      Z        X      Y      Z
   1   6    -0.11  -0.05  -0.02    -0.29  -0.05  -0.10    -0.32  -0.04  -0.13
   2   6    -0.15   0.25   0.23    -0.13   0.16  -0.02    -0.01   0.14  -0.17
   3   6     0.14  -0.24  -0.21     0.04  -0.20   0.10     0.03  -0.02   0.27
   4   6     0.12  -0.09  -0.24     0.14   0.12   0.09     0.09  -0.04   0.32
   5   8     0.00   0.14   0.13     0.24  -0.03   0.07     0.29   0.05  -0.41
   6   1     0.14   0.13   0.07    -0.09  -0.01  -0.03    -0.18  -0.04  -0.08
   7   1    -0.29  -0.04   0.03    -0.17  -0.01  -0.06    -0.12   0.00  -0.09
   8   1     0.06  -0.22  -0.18    -0.05  -0.10  -0.01    -0.08  -0.07   0.07
   9   1    -0.18   0.02   0.21    -0.09   0.03   0.04     0.03   0.05  -0.08
  10   1     0.02   0.27   0.10    -0.03   0.10   0.00    -0.03  -0.01  -0.06
  11   1     0.04  -0.15  -0.11    -0.03  -0.20  -0.04    -0.10  -0.08   0.09
  12   1     0.15  -0.08   0.00     0.08  -0.09   0.18     0.04  -0.01   0.12
  13   1     0.06   0.01  -0.05     0.03   0.08   0.07    -0.05  -0.04   0.10
  14   1     0.10  -0.01  -0.11     0.03   0.05  -0.03     0.02  -0.02   0.10
  15   1    -0.13  -0.06   0.35     0.24   0.21  -0.65     0.00  -0.17   0.45
                      7                      8                      9
                        a                      a                      a 
 Frequencies --   482.6587               786.0551               821.8097
 Red. masses --     9.5623                 2.7054                 2.7854
 Frc consts  --     0.0000                 0.0000                 0.0000
 IR Inten    --     4.6401                 8.6355                11.5076
 Raman Activ --     0.0000                 0.0000                 0.0000
 Depolar     --     0.0000                 0.0000                 0.0000
 Atom AN      X      Y      Z        X      Y      Z        X      Y      Z
   1   6     0.08   0.03   0.08     0.02   0.03  -0.08    -0.08   0.10  -0.01
   2   6    -0.42  -0.26   0.18     0.18  -0.07  -0.17    -0.11   0.09   0.18
   3   6    -0.33  -0.03  -0.14     0.10  -0.19   0.04     0.08  -0.12   0.14
   4   6     0.19   0.10   0.08    -0.01  -0.07   0.14     0.06  -0.20  -0.09
   5   8     0.42   0.06  -0.20    -0.08   0.01  -0.01     0.04   0.05   0.02
   6   1     0.15   0.01   0.08    -0.20   0.20  -0.13     0.13  -0.20   0.09
   7   1     0.12   0.00   0.07    -0.01  -0.05   0.18    -0.10   0.10  -0.27
   8   1    -0.01   0.15  -0.13    -0.00  -0.02   0.14     0.02  -0.05  -0.09
   9   1    -0.20  -0.10   0.12    -0.17  -0.13   0.25     0.08   0.14  -0.29
  10   1    -0.09   0.04   0.07     0.03   0.37  -0.06    -0.04  -0.35   0.04
  11   1    -0.09   0.13   0.04    -0.03   0.27   0.24    -0.01   0.22   0.21
  12   1    -0.22   0.01  -0.15    -0.12   0.04  -0.34     0.06   0.06  -0.29
  13   1     0.08   0.04   0.02    -0.12   0.19   0.24    -0.05   0.22   0.20
  14   1     0.07   0.04   0.00    -0.01   0.07  -0.24     0.04   0.06  -0.37
  15   1     0.14  -0.02   0.04    -0.04   0.02  -0.05    -0.10   0.03  -0.05
                     10                     11                     12
                        a                      a                      a 
 Frequencies --   928.8747               960.5374               992.7100
 Red. masses --     7.1168                 5.5184                 6.4596
 Frc consts  --     0.0000                 0.0000                 0.0000
 IR Inten    --     1.9721                19.2035                32.7667
 Raman Activ --     0.0000                 0.0000                 0.0000
 Depolar     --     0.0000                 0.0000                 0.0000
 Atom AN      X      Y      Z        X      Y      Z        X      Y      Z
   1   6     0.27  -0.00   0.28    -0.16   0.24  -0.14    -0.23  -0.09   0.04
   2   6     0.16   0.25  -0.13     0.05  -0.21   0.10     0.04   0.00  -0.07
   3   6    -0.29  -0.19  -0.32     0.30  -0.18   0.03     0.19   0.04  -0.31
   4   6    -0.04   0.07   0.24     0.00   0.27   0.07     0.10   0.03   0.42
   5   8    -0.05  -0.01  -0.06    -0.18  -0.07  -0.01    -0.26  -0.04  -0.09
   6   1     0.03  -0.19   0.07     0.02  -0.08   0.00     0.24  -0.07   0.16
   7   1    -0.16   0.06  -0.20    -0.14   0.11  -0.24     0.18  -0.02   0.04
   8   1     0.17  -0.30   0.21    -0.00  -0.04  -0.08    -0.12   0.26  -0.33
   9   1    -0.13   0.09  -0.16    -0.26  -0.04  -0.08     0.06  -0.02   0.05
  10   1     0.17   0.04   0.04     0.12  -0.01   0.09     0.26   0.01   0.13
  11   1    -0.19  -0.06  -0.04     0.34   0.19   0.03    -0.14  -0.08  -0.05
  12   1    -0.16  -0.06  -0.07    -0.24  -0.04  -0.10     0.20   0.01  -0.05
  13   1    -0.03  -0.00   0.05    -0.04  -0.17  -0.14    -0.06   0.09   0.19
  14   1     0.03   0.02   0.06     0.07  -0.02   0.29     0.01   0.05  -0.01
  15   1     0.10  -0.01   0.01     0.19  -0.04   0.05     0.04  -0.01  -0.02
                     13                     14                     15
                        a                      a                      a 
 Frequencies --  1056.1595              1083.4964              1119.4970
 Red. masses --     7.5340                 6.5645                 7.9316
 Frc consts  --     0.0000                 0.0000                 0.0000
 IR Inten    --   134.4909                 2.3807                 5.5337
 Raman Activ --     0.0000                 0.0000                 0.0000
 Depolar     --     0.0000                 0.0000                 0.0000
 Atom AN      X      Y      Z        X      Y      Z        X      Y      Z
   1   6     0.11  -0.11   0.02    -0.00   0.03   0.09    -0.03  -0.24   0.32
   2   6    -0.16   0.13   0.04    -0.01  -0.08  -0.12    -0.12   0.17  -0.45
   3   6    -0.04  -0.07   0.09    -0.01   0.15   0.17     0.18  -0.00   0.28
   4   6     0.43   0.19  -0.06     0.55   0.02  -0.03    -0.14   0.04  -0.26
   5   8    -0.44  -0.10  -0.09    -0.25  -0.11  -0.12     0.09   0.01   0.08
   6   1    -0.08   0.08  -0.06     0.05  -0.08   0.05     0.22  -0.15   0.20
   7   1     0.04  -0.06   0.13    -0.04   0.03  -0.09     0.14  -0.05   0.05
   8   1     0.01  -0.02   0.11     0.02  -0.05   0.01    -0.03   0.07  -0.14
   9   1     0.14   0.06  -0.02    -0.20  -0.04  -0.01    -0.27   0.02  -0.10
  10   1    -0.24  -0.07  -0.11     0.04   0.09   0.00     0.02   0.16  -0.08
  11   1    -0.10   0.04   0.11    -0.04  -0.02   0.03    -0.06   0.09   0.17
  12   1     0.15   0.03  -0.11    -0.24  -0.02   0.22    -0.04   0.03  -0.05
  13   1    -0.06  -0.08  -0.07     0.25   0.08  -0.01    -0.11  -0.08  -0.10
  14   1     0.40   0.04   0.01    -0.15   0.01  -0.04     0.04  -0.03   0.06
  15   1     0.31  -0.06   0.05    -0.49   0.02  -0.09     0.11  -0.00   0.03
                     16                     17                     18
                        a                      a                      a 
 Frequencies --  1129.7563              1191.9853              1253.2081
 Red. masses --     7.0369                 5.7543                 3.4280
 Frc consts  --     0.0000                 0.0000                 0.0000
 IR Inten    --     9.6650                 9.5510                27.9272
 Raman Activ --     0.0000                 0.0000                 0.0000
 Depolar     --     0.0000                 0.0000                 0.0000
 Atom AN      X      Y      Z        X      Y      Z        X      Y      Z
   1   6    -0.21   0.09  -0.08    -0.03  -0.26  -0.08     0.08   0.04  -0.10
   2   6     0.44   0.06   0.09     0.04   0.42   0.11    -0.09  -0.09   0.11
   3   6    -0.37  -0.14   0.20    -0.02  -0.35  -0.06     0.14  -0.08  -0.03
   4   6     0.06  -0.01  -0.28     0.01   0.16   0.09     0.01   0.31  -0.13
   5   8     0.00  -0.01   0.02     0.06  -0.04  -0.03     0.12  -0.09   0.05
   6   1     0.10  -0.01   0.05     0.00   0.14  -0.02    -0.10   0.05  -0.08
   7   1     0.04   0.04  -0.06     0.18  -0.12   0.24    -0.05  -0.01   0.02
   8   1    -0.07   0.13  -0.18    -0.08   0.16  -0.04     0.02  -0.03   0.05
   9   1     0.22  -0.02   0.17     0.12   0.17  -0.15    -0.04  -0.01  -0.03
  10   1     0.25   0.05   0.11    -0.05  -0.12  -0.01     0.18  -0.10   0.15
  11   1    -0.25  -0.02   0.14     0.21   0.13   0.01    -0.54  -0.04   0.26
  12   1    -0.26  -0.05   0.06    -0.27  -0.07  -0.14     0.24   0.03  -0.15
  13   1    -0.04  -0.06  -0.10     0.17  -0.02  -0.09    -0.22  -0.12  -0.09
  14   1     0.19  -0.01  -0.05    -0.20  -0.01   0.15    -0.16  -0.02   0.25
  15   1     0.10  -0.01   0.02    -0.26   0.02  -0.04    -0.31   0.02  -0.05
                     19                     20                     21
                        a                      a                      a 
 Frequencies --  1258.3010              1293.6108              1316.6866
 Red. masses --     3.1332                 2.2817                 3.3030
 Frc consts  --     0.0000                 0.0000                 0.0000
 IR Inten    --     6.3956                27.8041                49.9395
 Raman Activ --     0.0000                 0.0000                 0.0000
 Depolar     --     0.0000                 0.0000                 0.0000
 Atom AN      X      Y      Z        X      Y      Z        X      Y      Z
   1   6    -0.10   0.17   0.20     0.00   0.01   0.07    -0.02   0.01   0.05
   2   6     0.06  -0.08  -0.14    -0.04   0.04  -0.00     0.03   0.02   0.10
   3   6    -0.04  -0.21  -0.01     0.07   0.07  -0.15     0.23  -0.00  -0.17
   4   6    -0.04   0.18   0.07     0.04   0.08   0.01     0.19  -0.14  -0.12
   5   8     0.04  -0.03  -0.03     0.14  -0.16   0.05    -0.08   0.14   0.06
   6   1     0.12  -0.18   0.13     0.00  -0.04   0.02    -0.00  -0.00   0.01
   7   1    -0.06   0.10  -0.19    -0.02   0.02  -0.03    -0.02   0.02  -0.05
   8   1     0.03  -0.06  -0.06     0.00   0.01  -0.06    -0.01   0.02  -0.04
   9   1     0.39  -0.11   0.32     0.16   0.01   0.06     0.10   0.00   0.05
  10   1    -0.36   0.13  -0.26    -0.16   0.03  -0.10    -0.28  -0.03  -0.15
  11   1     0.03   0.04   0.03     0.13  -0.01  -0.11    -0.24  -0.04   0.08
  12   1     0.22   0.02  -0.22    -0.28  -0.05   0.14    -0.32  -0.07   0.11
  13   1     0.18  -0.03  -0.11    -0.65  -0.08   0.18    -0.21   0.02   0.11
  14   1    -0.11   0.00   0.13     0.34   0.03  -0.00    -0.55  -0.08   0.08
  15   1    -0.17   0.01  -0.03    -0.34   0.00  -0.06     0.35  -0.01   0.07
                     22                     23                     24
                        a                      a                      a 
 Frequencies --  1348.4546              1361.9577              1411.5005
 Red. masses --     4.5329                 4.5197                 3.2359
 Frc consts  --     0.0000                 0.0000                 0.0000
 IR Inten    --     1.7582                13.2273                 0.6705
 Raman Activ --     0.0000                 0.0000                 0.0000
 Depolar     --     0.0000                 0.0000                 0.0000
 Atom AN      X      Y      Z        X      Y      Z        X      Y      Z
   1   6     0.09   0.10  -0.04     0.02   0.01  -0.00    -0.23   0.21  -0.29
   2   6    -0.45   0.08  -0.26    -0.11   0.00   0.05     0.10  -0.00   0.06
   3   6     0.07  -0.06   0.08     0.42   0.05  -0.11     0.01   0.02  -0.05
   4   6     0.06  -0.05  -0.04    -0.31  -0.02   0.10    -0.01  -0.00  -0.02
   5   8    -0.03   0.03   0.01    -0.01  -0.02  -0.04     0.01  -0.01   0.00
   6   1     0.02  -0.10   0.01    -0.01   0.00  -0.00     0.37  -0.28   0.19
   7   1    -0.02  -0.02   0.10    -0.04   0.00  -0.01     0.29  -0.09   0.42
   8   1     0.07  -0.14   0.16    -0.00   0.01   0.04     0.08  -0.35   0.33
   9   1     0.45  -0.05   0.27     0.13   0.00   0.05    -0.12  -0.01  -0.01
  10   1     0.42  -0.07   0.26    -0.09  -0.03  -0.03    -0.11  -0.06  -0.06
  11   1     0.16   0.08   0.01    -0.35  -0.08   0.14    -0.05   0.01   0.02
  12   1    -0.14  -0.03   0.03    -0.39  -0.06   0.10     0.01  -0.01   0.04
  13   1    -0.03   0.00   0.02     0.40   0.05  -0.12    -0.04   0.03   0.03
  14   1    -0.12  -0.02   0.01     0.37   0.04  -0.10     0.03  -0.01   0.04
  15   1     0.08  -0.00   0.02    -0.04   0.00  -0.03    -0.01   0.00  -0.00
                     25                     26                     27
                        a                      a                      a 
 Frequencies --  1477.4816              1481.4501              1489.1350
 Red. masses --     1.8493                 1.8633                 1.9019
 Frc consts  --     0.0000                 0.0000                 0.0000
 IR Inten    --     3.0799                 0.0572                 0.2775
 Raman Activ --     0.0000                 0.0000                 0.0000
 Depolar     --     0.0000                 0.0000                 0.0000
 Atom AN      X      Y      Z        X      Y      Z        X      Y      Z
   1   6     0.03  -0.01  -0.00    -0.04  -0.00   0.04    -0.01  -0.03   0.05
   2   6     0.00  -0.02   0.00    -0.05  -0.09   0.05     0.08   0.21  -0.13
   3   6    -0.04  -0.05  -0.07    -0.05  -0.10  -0.21    -0.02  -0.03  -0.10
   4   6    -0.04  -0.09  -0.23    -0.02   0.01   0.06    -0.03  -0.00   0.01
   5   8    -0.03  -0.01  -0.03     0.01   0.00   0.00     0.00  -0.01  -0.00
   6   1    -0.00  -0.03   0.00    -0.04   0.06  -0.01    -0.03   0.16  -0.02
   7   1    -0.11  -0.01   0.01     0.14   0.02  -0.05     0.11   0.04  -0.14
   8   1    -0.03   0.09   0.01     0.04  -0.11  -0.06     0.03  -0.06  -0.03
   9   1     0.04   0.02  -0.04     0.14   0.08  -0.22    -0.31  -0.17   0.49
  10   1     0.01   0.07  -0.00     0.01   0.27   0.01    -0.04  -0.60  -0.03
  11   1     0.03   0.16   0.09     0.01   0.50   0.31     0.02   0.21   0.12
  12   1     0.08  -0.04   0.15     0.20  -0.13   0.52     0.09  -0.05   0.22
  13   1     0.11   0.53   0.36     0.01  -0.14  -0.11     0.01   0.01   0.00
  14   1     0.20  -0.19   0.58    -0.04   0.05  -0.16     0.04   0.00  -0.00
  15   1    -0.01  -0.00  -0.00     0.00  -0.00   0.01    -0.01  -0.00   0.00
                     28                     29                     30
                        a                      a                      a 
 Frequencies --  1500.5124              1506.4004              2889.6244
 Red. masses --     1.6125                 1.5592                 1.7602
 Frc consts  --     0.0000                 0.0000                 0.0000
 IR Inten    --     1.6052                 1.0488                93.8441
 Raman Activ --     0.0000                 0.0000                 0.0000
 Depolar     --     0.0000                 0.0000                 0.0000
 Atom AN      X      Y      Z        X      Y      Z        X      Y      Z
   1   6    -0.16   0.00   0.12     0.07   0.18   0.09     0.00  -0.00  -0.00
   2   6    -0.07  -0.03   0.03     0.04   0.06   0.02    -0.00  -0.00  -0.00
   3   6     0.03   0.03   0.06    -0.00  -0.01  -0.00    -0.01   0.01  -0.00
   4   6    -0.00  -0.02  -0.05    -0.01  -0.01   0.01     0.06  -0.18   0.18
   5   8    -0.01  -0.00  -0.00    -0.01   0.00  -0.01     0.01  -0.00   0.01
   6   1    -0.12   0.34  -0.07    -0.45  -0.49  -0.19    -0.01   0.00   0.01
   7   1     0.60   0.11  -0.25     0.04  -0.09   0.36     0.00  -0.00  -0.00
   8   1     0.18  -0.46  -0.17     0.12  -0.16  -0.54    -0.00  -0.00  -0.00
   9   1     0.06   0.03  -0.07    -0.05   0.00   0.02     0.00   0.01   0.00
  10   1     0.04   0.07   0.04    -0.01  -0.06  -0.00     0.00  -0.00  -0.00
  11   1    -0.01  -0.14  -0.08     0.00   0.01   0.00     0.02  -0.02   0.05
  12   1    -0.07   0.04  -0.15    -0.01  -0.00   0.01     0.00  -0.03  -0.01
  13   1     0.02   0.11   0.08     0.05   0.01  -0.01    -0.28   0.56  -0.72
  14   1     0.04  -0.04   0.12     0.01  -0.00  -0.00     0.01   0.09   0.07
  15   1    -0.00   0.00  -0.00     0.01  -0.00   0.00    -0.00   0.00  -0.00
                     31                     32                     33
                        a                      a                      a 
 Frequencies --  2959.7503              2965.6404              2969.1984
 Red. masses --     1.8276                 1.8627                 1.8340
 Frc consts  --     0.0000                 0.0000                 0.0000
 IR Inten    --    23.0035                13.3021               125.2055
 Raman Activ --     0.0000                 0.0000                 0.0000
 Depolar     --     0.0000                 0.0000                 0.0000
 Atom AN      X      Y      Z        X      Y      Z        X      Y      Z
   1   6    -0.01  -0.00   0.00    -0.01   0.01   0.01     0.01  -0.01  -0.01
   2   6     0.02  -0.05  -0.05     0.09  -0.13  -0.17    -0.07   0.05   0.11
   3   6    -0.05   0.24  -0.02     0.01   0.00   0.02    -0.05   0.13  -0.06
   4   6    -0.00  -0.07  -0.05    -0.00   0.13   0.06    -0.01   0.16   0.06
   5   8    -0.00  -0.00  -0.00     0.01   0.00   0.00     0.01   0.00   0.00
   6   1     0.01  -0.00  -0.02     0.02   0.00  -0.04    -0.01   0.00   0.03
   7   1     0.00  -0.01   0.00     0.00  -0.04  -0.01     0.00   0.03   0.01
   8   1     0.01   0.00   0.00     0.01   0.00   0.00    -0.01  -0.00  -0.00
   9   1    -0.01   0.22   0.07    -0.03   0.48   0.14     0.00  -0.17  -0.04
  10   1    -0.07  -0.01   0.12    -0.30  -0.01   0.49     0.23  -0.00  -0.38
  11   1     0.13  -0.14   0.26    -0.04   0.06  -0.08     0.16  -0.20   0.33
  12   1     0.05  -0.75  -0.20     0.00  -0.06  -0.01     0.02  -0.26  -0.08
  13   1     0.03  -0.07   0.06    -0.02   0.06  -0.04    -0.02   0.05  -0.03
  14   1    -0.01   0.35   0.11     0.01  -0.54  -0.16     0.02  -0.64  -0.19
  15   1    -0.00  -0.00  -0.00    -0.00   0.01   0.00    -0.00   0.01   0.00
                     34                     35                     36
                        a                      a                      a 
 Frequencies --  2978.3373              2984.6212              3029.8043
 Red. masses --     1.5446                 1.5171                 1.8953
 Frc consts  --     0.0000                 0.0000                 0.0000
 IR Inten    --   103.3319                87.2990                81.4135
 Raman Activ --     0.0000                 0.0000                 0.0000
 Depolar     --     0.0000                 0.0000                 0.0000
 Atom AN      X      Y      Z        X      Y      Z        X      Y      Z
   1   6    -0.00  -0.01  -0.01     0.02   0.01  -0.00     0.07   0.26   0.09
   2   6     0.01   0.12   0.02    -0.07  -0.15   0.09    -0.00   0.03   0.01
   3   6     0.06   0.04   0.17     0.04  -0.03   0.10    -0.00   0.01  -0.00
   4   6     0.00   0.03   0.03     0.00  -0.01   0.00    -0.00   0.00   0.00
   5   8     0.00  -0.00  -0.00    -0.00   0.00  -0.00     0.00  -0.00  -0.00
   6   1    -0.01  -0.00   0.01    -0.01   0.00   0.03     0.04   0.03  -0.04
   7   1    -0.00   0.04   0.01     0.01  -0.04  -0.01     0.05  -0.85  -0.25
   8   1     0.02   0.01   0.00    -0.06  -0.03  -0.01    -0.34  -0.10  -0.02
   9   1     0.04  -0.45  -0.15    -0.06   0.57   0.21     0.01  -0.08  -0.03
  10   1    -0.05   0.02   0.09     0.31  -0.04  -0.52    -0.00   0.00   0.00
  11   1    -0.26   0.36  -0.50    -0.17   0.23  -0.33     0.01  -0.01   0.01
  12   1     0.05  -0.48  -0.09     0.01  -0.12  -0.02    -0.00  -0.02  -0.01
  13   1    -0.01   0.03  -0.03    -0.00   0.01  -0.01    -0.00   0.00   0.00
  14   1     0.00  -0.15  -0.04    -0.00   0.02   0.01     0.00  -0.00  -0.00
  15   1    -0.00   0.00   0.00     0.00  -0.00   0.00    -0.00   0.00   0.00
                     37                     38                     39
                        a                      a                      a 
 Frequencies --  3035.1124              3046.6675              3496.8237
 Red. masses --     1.8776                 1.3717                 1.8758
 Frc consts  --     0.0000                 0.0000                 0.0000
 IR Inten    --    74.4894                47.0439                62.1901
 Raman Activ --     0.0000                 0.0000                 0.0000
 Depolar     --     0.0000                 0.0000                 0.0000
 Atom AN      X      Y      Z        X      Y      Z        X      Y      Z
   1   6    -0.25   0.01   0.12     0.02  -0.00   0.18     0.00  -0.00  -0.00
   2   6    -0.02  -0.00   0.02    -0.00   0.00   0.01     0.00  -0.00  -0.00
   3   6     0.00  -0.00   0.00    -0.00  -0.00   0.00     0.00   0.00   0.00
   4   6     0.00  -0.00   0.00     0.00  -0.00   0.00    -0.00  -0.01  -0.00
   5   8    -0.00  -0.00   0.00     0.00  -0.00  -0.00    -0.01  -0.23  -0.08
   6   1     0.21  -0.04  -0.45     0.39  -0.05  -0.72    -0.00  -0.00   0.00
   7   1    -0.03  -0.28  -0.06    -0.01   0.24   0.10    -0.00   0.00   0.00
   8   1     0.70   0.29   0.09    -0.44  -0.17  -0.01     0.00   0.00   0.00
   9   1    -0.00   0.00   0.00     0.00  -0.02  -0.01     0.00   0.00   0.00
  10   1     0.04  -0.00  -0.07     0.01  -0.00  -0.02     0.00   0.00  -0.00
  11   1    -0.01   0.01  -0.01    -0.00   0.00  -0.00    -0.00  -0.00  -0.00
  12   1    -0.00   0.00   0.00    -0.00   0.00   0.00    -0.00   0.00   0.00
  13   1    -0.00   0.01  -0.01    -0.00   0.01  -0.01     0.00  -0.00   0.00
  14   1     0.00  -0.00  -0.00     0.00  -0.00  -0.00    -0.00   0.01   0.00
  15   1     0.00   0.00   0.00    -0.00   0.00   0.00     0.05   0.92   0.31
