      -----------------------------------------------------------      
     |                   =====================                   |     
     |                           x T B                           |     
     |                   =====================                   |     
     |                         S. Grimme                         |     
     |          Mulliken Center for Theoretical Chemistry        |     
     |                    University of Bonn                     |     
      -----------------------------------------------------------      

   * xtb version 6.7.1 (edcfbbe) compiled by 'albert@albert-system' on 2024-07-22

   xtb is free software: you can redistribute it and/or modify it under
   the terms of the GNU Lesser General Public License as published by
   the Free Software Foundation, either version 3 of the License, or
   (at your option) any later version.
   
   xtb is distributed in the hope that it will be useful,
   but WITHOUT ANY WARRANTY; without even the implied warranty of
   MERCHANTABILITY or FITNESS FOR A PARTICULAR PURPOSE.  See the
   GNU Lesser General Public License for more details.
   
   Cite this work as:
   * C. Bannwarth, E. Caldeweyher, S. Ehlert, A. Hansen, P. Pracht,
     J. Seibert, S. Spicher, S. Grimme, WIREs Comput. Mol. Sci., 2020, 11,
     e01493. DOI: 10.1002/wcms.1493
   
   for GFN2-xTB:
   * C. Bannwarth, S. Ehlert and S. Grimme., J. Chem. Theory Comput., 2019,
     15, 1652-1671. DOI: 10.1021/acs.jctc.8b01176
   for GFN1-xTB:
   * S. Grimme, C. Bannwarth, P. Shushkov, J. Chem. Theory Comput., 2017,
     13, 1989-2009. DOI: 10.1021/acs.jctc.7b00118
   for GFN0-xTB:
   * P. Pracht, E. Caldeweyher, S. Ehlert, S. Grimme, ChemRxiv, 2019, preprint.
     DOI: 10.26434/chemrxiv.8326202.v1
   for GFN-FF:
   * S. Spicher and S. Grimme, Angew. Chem. Int. Ed., 2020, 59, 15665-15673.
     DOI: 10.1002/anie.202004239
   
   for ALPB and GBSA implicit solvation:
   * S. Ehlert, M. Stahn, S. Spicher, S. Grimme, J. Chem. Theory Comput.,
     2021, 17, 4250-4261. DOI: 10.1021/acs.jctc.1c00471
   
   for ddCOSMO and CPCM-X implicit solvation:
   * M. Stahn, S. Ehlert, S. Grimme, J. Phys. Chem. A,
     2023, XX, XXXX-XXXX. DOI: 10.1021/acs.jpca.3c04382
   
   for DFT-D4:
   * E. Caldeweyher, C. Bannwarth and S. Grimme, J. Chem. Phys., 2017,
     147, 034112. DOI: 10.1063/1.4993215
   * E. Caldeweyher, S. Ehlert, A. Hansen, H. Neugebauer, S. Spicher,
     C. Bannwarth and S. Grimme, J. Chem. Phys., 2019, 150, 154122.
     DOI: 10.1063/1.5090222
   * E. Caldeweyher, J.-M. Mewes, S. Ehlert and S. Grimme, Phys. Chem. Chem. Phys.
     2020, 22, 8499-8512. DOI: 10.1039/D0CP00502A
   
   for sTDA-xTB:
   * S. Grimme and C. Bannwarth, J. Chem. Phys., 2016, 145, 054103.
     DOI: 10.1063/1.4959605
   
   in the mass-spec context:
   * V. Asgeirsson, C. Bauer and S. Grimme, Chem. Sci., 2017, 8, 4879.
     DOI: 10.1039/c7sc00601b
   * J. Koopman and S. Grimme, ACS Omega 2019, 4, 12, 15120-15133.
     DOI: 10.1021/acsomega.9b02011
   
   for metadynamics refer to:
   * S. Grimme, J. Chem. Theory Comput., 2019, 155, 2847-2862
     DOI: 10.1021/acs.jctc.9b00143
   
   for SPH calculations refer to:
   * S. Spicher and S. Grimme, J. Chem. Theory Comput., 2021, 17, 1701-1714
     DOI: 10.1021/acs.jctc.0c01306
   
   for ONIOM refer to:
   * C. Plett, A. Katbashev, S. Ehlert, S. Grimme, M. Bursch,
     Phys. Chem. Chem. Phys., 2023, 25, 17860-17868. DOI: 10.1039/D3CP02178E
   
   for DIPRO refer to:
   * J. Kohn, N. Gildemeister, S. Grimme, D. Fazzi, A. Hansen,
     J. Chem. Phys., 2023, just accepted.
   
   for PTB refer to:
   * S. Grimme, M. Mueller, A. Hansen, J. Chem. Phys., 2023, 158, 124111.
     DOI: 10.1063/5.0137838
   
   with help from (in alphabetical order)
   P. Atkinson, C. Bannwarth, F. Bohle, G. Brandenburg, E. Caldeweyher
   M. Checinski, S. Dohm, S. Ehlert, S. Ehrlich, I. Gerasimov, C. Hölzer
   A. Katbashev, J. Kohn, J. Koopman, C. Lavigne, S. Lehtola, F. März, M. Müller,
   F. Musil, H. Neugebauer, J. Pisarek, C. Plett, P. Pracht, F. Pultar,
   J. Seibert, P. Shushkov, S. Spicher, M. Stahn, M. Steiner, T. Strunk,
   J. Stückrath, T. Rose, and J. Unsleber
   
 * started run on 2025/04/06 at 22:38:50.624     
   ID    Z sym.   atoms
    1    6 C      1-4
    2    8 O      5
    3    1 H      6-15

           -------------------------------------------------
          |                Calculation Setup                |
           -------------------------------------------------

          program call               : /srv/scratch/z5358697/.xtb/bin/xtb xtb_rrho.coord --gfn2 --ohess vtight --chrg 0 --enso --norestart -I rrho-xcontrol-inp --parallel 1 --alpb water
          hostname                   : k159
          coordinate file            : xtb_rrho.coord
          omp threads                :                     1


           -------------------------------------------------
          |                 G F N 2 - x T B                 |
           -------------------------------------------------

        Reference                      10.1021/acs.jctc.8b01176
      * Hamiltonian:
        H0-scaling (s, p, d)           1.850000    2.230000    2.230000
        zeta-weighting                 0.500000
      * Dispersion:
        s8                             2.700000
        a1                             0.520000
        a2                             5.000000
        s9                             5.000000
      * Repulsion:
        kExp                           1.500000    1.000000
        rExp                           1.000000
      * Coulomb:
        alpha                          2.000000
        third order                    shell-resolved
        anisotropic                    true
        a3                             3.000000
        a5                             4.000000
        cn-shift                       1.200000
        cn-exp                         4.000000
        max-rad                        5.000000

      * Solvation model:               ALPB
        Solvent                        water
        Parameter file                 internal GFN2-xTB/ALPB
        Dielectric constant                8.0200E+01
        Reference state                gsolv [1 M gas/solution]
        Free energy shift                  1.0808E-03 Eh       6.7819E-01 kcal/mol
        Temperature                        2.9815E+02 K
        Density                            1.0000E+00 kg/L
        Solvent mass                       1.8000E+01 g/mol
        Interaction kernel             P16
        Born radius scaling (c1)           1.4744E+00
        Born radii integrator          GBOBC
        Born offset                        0.0000E+00 a0       0.0000E+00 AA
        H-bond correction              true
        Ion screening                  false
        Surface tension                    1.0000E-05 Eh       1.5569E+01 dyn/cm
        Grid points                               974 per atom

          ...................................................
          :                      SETUP                      :
          :.................................................:
          :  # basis functions                  30          :
          :  # atomic orbitals                  30          :
          :  # shells                           20          :
          :  # electrons                        32          :
          :  max. iterations                   250          :
          :  Hamiltonian                  GFN2-xTB          :
          :  restarted?                      false          :
          :  GBSA solvation                   true          :
          :  PC potential                    false          :
          :  electronic temp.          300.0000000     K    :
          :  accuracy                    1.0000000          :
          :  -> integral cutoff          0.2500000E+02      :
          :  -> integral neglect         0.1000000E-07      :
          :  -> SCF convergence          0.1000000E-05 Eh   :
          :  -> wf. convergence          0.1000000E-03 e    :
          :  Broyden damping             0.4000000          :
          :  net charge                          0          :
          :  unpaired electrons                  0          :
          ...................................................

 iter      E             dE          RMSdq      gap      omega  full diag
   1    -17.9054546 -0.179055E+02  0.341E+00   11.80       0.0  T
   2    -17.9335280 -0.280734E-01  0.178E+00   11.57       1.0  T
   3    -17.9342941 -0.766079E-03  0.642E-01   11.57       1.0  T
   4    -17.9344513 -0.157247E-03  0.119E-01   11.56       1.0  T
   5    -17.9344696 -0.183077E-04  0.673E-02   11.57       1.0  T
   6    -17.9344723 -0.263235E-05  0.125E-02   11.57       2.1  T
   7    -17.9344725 -0.245103E-06  0.574E-03   11.57       4.5  T
   8    -17.9344726 -0.542945E-07  0.209E-03   11.57      12.3  T
   9    -17.9344726 -0.543496E-08  0.505E-04   11.57      51.1  T
  10    -17.9344726 -0.882832E-09  0.184E-04   11.57     140.7  T

   *** convergence criteria satisfied after 10 iterations ***

         #    Occupation            Energy/Eh            Energy/eV
      -------------------------------------------------------------
         1        2.0000           -0.6842638             -18.6198
       ...           ...                  ...                  ...
        10        2.0000           -0.4868754             -13.2486
        11        2.0000           -0.4740641             -12.8999
        12        2.0000           -0.4496457             -12.2355
        13        2.0000           -0.4431587             -12.0590
        14        2.0000           -0.4350163             -11.8374
        15        2.0000           -0.4262673             -11.5993
        16        2.0000           -0.4074201             -11.0865 (HOMO)
        17                          0.0179225               0.4877 (LUMO)
        18                          0.0948009               2.5797
        19                          0.1059044               2.8818
        20                          0.1307614               3.5582
        21                          0.1320838               3.5942
       ...                                ...                  ...
        30                          0.2855837               7.7711
      -------------------------------------------------------------
                  HL-Gap            0.4253426 Eh           11.5742 eV
             Fermi-level           -0.1947488 Eh           -5.2994 eV

 SCC (total)                   0 d,  0 h,  0 min,  0.021 sec
 SCC setup                      ...        0 min,  0.001 sec (  3.561%)
 Dispersion                     ...        0 min,  0.000 sec (  0.294%)
 classical contributions        ...        0 min,  0.000 sec (  0.077%)
 integral evaluation            ...        0 min,  0.001 sec (  3.499%)
 iterations                     ...        0 min,  0.017 sec ( 82.111%)
 molecular gradient             ...        0 min,  0.002 sec (  9.923%)
 printout                       ...        0 min,  0.000 sec (  0.468%)

         :::::::::::::::::::::::::::::::::::::::::::::::::::::
         ::                     SUMMARY                     ::
         :::::::::::::::::::::::::::::::::::::::::::::::::::::
         :: total energy             -17.727815837554 Eh    ::
         :: total w/o Gsasa/hb       -17.724010835624 Eh    ::
         :: gradient norm              0.026127662842 Eh/a0 ::
         :: HOMO-LUMO gap             11.574160810122 eV    ::
         ::.................................................::
         :: SCC energy               -17.934461673157 Eh    ::
         :: -> isotropic ES            0.036689963080 Eh    ::
         :: -> anisotropic ES          0.003314286446 Eh    ::
         :: -> anisotropic XC          0.006780625957 Eh    ::
         :: -> dispersion             -0.007101399866 Eh    ::
         :: -> Gsolv                  -0.008784286771 Eh    ::
         ::    -> Gelec               -0.004979284841 Eh    ::
         ::    -> Gsasa                0.000842654453 Eh    ::
         ::    -> Ghb                 -0.005728416081 Eh    ::
         ::    -> Gshift               0.001080759698 Eh    ::
         :: repulsion energy           0.206645835603 Eh    ::
         :: add. restraining           0.000000000000 Eh    ::
         :: total charge              -0.000000000000 e     ::
         :::::::::::::::::::::::::::::::::::::::::::::::::::::

      ----------------------------------------------------------- 
     |                   =====================                   |
     |                        A N C O P T                        |
     |                   =====================                   |
     |               Approximate Normal Coordinate               |
     |                Rational Function Optimizer                |
      ----------------------------------------------------------- 
      ----------------------------------------------------------- 
     |                   =====================                   |
     |                        A N C O P T                        |
     |                   =====================                   |
     |               Approximate Normal Coordinate               |
     |                Rational Function Optimizer                |
      ----------------------------------------------------------- 

          ...................................................
          :                      SETUP                      :
          :.................................................:
          :   optimization level         verytight          :
          :   max. optcycles                   300          :
          :   ANC micro-cycles                  20          :
          :   degrees of freedom                39          :
          :.................................................:
          :   RF solver                   davidson          :
          :   write xtbopt.log                true          :
          :   linear?                        false          :
          :   energy convergence         0.1000000E-06 Eh   :
          :   grad. convergence          0.2000000E-03 Eh/α :
          :   maxmium RF displ.          1.0000000          :
          :   Hlow (freq-cutoff)         0.1000000E-01      :
          :   Hmax (freq-cutoff)         5.0000000          :
          :   S6 in model hess.         20.0000000          :
          ...................................................

generating ANC from exact Hessian ...
Using Lindh-Hessian (1995)
 Shifting diagonal of input Hessian by   6.511239201240766E-003
 Lowest  eigenvalues of input Hessian
    0.000000    0.000000    0.000000    0.000000    0.000000    0.000000
    0.010000    0.010689    0.012843    0.019715    0.020502    0.028395
    0.044888    0.050433    0.054419    0.057781    0.059105    0.062720
 Highest eigenvalues
    1.133528    1.174889    1.190311    1.241600    1.281157    1.408569
 

........................................................................
.............................. CYCLE    1 ..............................
........................................................................

 iter      E             dE          RMSdq      gap      omega  full diag
   1    -17.9344726 -0.179345E+02  0.359E-05   11.57       0.0  T
   2    -17.9344726 -0.794742E-11  0.133E-05   11.57    1935.9  T
   3    -17.9344726 -0.266454E-12  0.839E-06   11.57    3076.3  T
     SCC iter.                  ...        0 min,  0.001 sec
     gradient                   ...        0 min,  0.002 sec
 * total energy  :   -17.7278158 Eh     change       -0.6005507E-10 Eh
   gradient norm :     0.0261286 Eh/α   predicted     0.0000000E+00 (-100.00%)
   displ. norm   :     0.0924433 α      lambda       -0.1148210E-02
   maximum displ.:     0.0378906 α      in ANC's #11, #4, #15, ...

........................................................................
.............................. CYCLE    2 ..............................
........................................................................

 iter      E             dE          RMSdq      gap      omega  full diag
   1    -17.9407969 -0.179408E+02  0.988E-02   11.90       0.0  T
   2    -17.9408040 -0.707307E-05  0.570E-02   11.90       1.0  T
   3    -17.9408044 -0.386693E-06  0.127E-02   11.90       2.0  T
   4    -17.9408047 -0.343430E-06  0.293E-03   11.90       8.8  T
   5    -17.9408048 -0.149963E-07  0.171E-03   11.90      15.1  T
   6    -17.9408048 -0.459671E-08  0.618E-04   11.90      41.8  T
   7    -17.9408048 -0.695561E-09  0.194E-04   11.90     133.2  T
     SCC iter.                  ...        0 min,  0.001 sec
     gradient                   ...        0 min,  0.002 sec
 * total energy  :   -17.7285541 Eh     change       -0.7383013E-03 Eh
   gradient norm :     0.0121848 Eh/α   predicted    -0.5790123E-03 ( -21.58%)
   displ. norm   :     0.0590538 α      lambda       -0.2578556E-03
   maximum displ.:     0.0331808 α      in ANC's #2, #4, #3, ...

........................................................................
.............................. CYCLE    3 ..............................
........................................................................

 iter      E             dE          RMSdq      gap      omega  full diag
   1    -17.9434327 -0.179434E+02  0.416E-02   12.10       0.0  T
   2    -17.9434361 -0.335887E-05  0.243E-02   12.10       1.1  T
   3    -17.9434363 -0.171849E-06  0.956E-03   12.10       2.7  T
   4    -17.9434364 -0.945397E-07  0.171E-03   12.10      15.1  T
   5    -17.9434364 -0.580106E-08  0.914E-04   12.10      28.3  T
   6    -17.9434364 -0.111827E-08  0.385E-04   12.10      67.1  T
     SCC iter.                  ...        0 min,  0.001 sec
     gradient                   ...        0 min,  0.002 sec
 * total energy  :   -17.7287063 Eh     change       -0.1521264E-03 Eh
   gradient norm :     0.0034968 Eh/α   predicted    -0.1293782E-03 ( -14.95%)
   displ. norm   :     0.0446875 α      lambda       -0.4235283E-04
   maximum displ.:     0.0321569 α      in ANC's #2, #4, #3, ...

........................................................................
.............................. CYCLE    4 ..............................
........................................................................

 iter      E             dE          RMSdq      gap      omega  full diag
   1    -17.9432066 -0.179432E+02  0.196E-02   12.15       0.0  T
   2    -17.9432069 -0.289745E-06  0.117E-02   12.15       2.2  T
   3    -17.9432069 -0.853871E-08  0.302E-03   12.15       8.5  T
   4    -17.9432069 -0.196111E-07  0.567E-04   12.15      45.5  T
   5    -17.9432069 -0.409941E-09  0.246E-04   12.15     104.8  T
     SCC iter.                  ...        0 min,  0.001 sec
     gradient                   ...        0 min,  0.002 sec
 * total energy  :   -17.7287358 Eh     change       -0.2951149E-04 Eh
   gradient norm :     0.0014701 Eh/α   predicted    -0.2121891E-04 ( -28.10%)
   displ. norm   :     0.0756140 α      lambda       -0.2107784E-04
   maximum displ.:     0.0586871 α      in ANC's #2, #4, #3, ...

........................................................................
.............................. CYCLE    5 ..............................
........................................................................

 iter      E             dE          RMSdq      gap      omega  full diag
   1    -17.9423290 -0.179423E+02  0.300E-02   12.18       0.0  T
   2    -17.9423292 -0.149071E-06  0.178E-02   12.18       1.4  T
   3    -17.9423292 -0.156036E-07  0.183E-03   12.18      14.1  T
   4    -17.9423292 -0.140446E-07  0.670E-04   12.18      38.6  T
   5    -17.9423292 -0.428354E-09  0.242E-04   12.18     106.6  T
     SCC iter.                  ...        0 min,  0.001 sec
     gradient                   ...        0 min,  0.002 sec
 * total energy  :   -17.7287520 Eh     change       -0.1618051E-04 Eh
   gradient norm :     0.0019070 Eh/α   predicted    -0.1056728E-04 ( -34.69%)
   displ. norm   :     0.0292899 α      lambda       -0.6258814E-05
   maximum displ.:     0.0239093 α      in ANC's #2, #3, #1, ...

........................................................................
.............................. CYCLE    6 ..............................
........................................................................

 iter      E             dE          RMSdq      gap      omega  full diag
   1    -17.9424094 -0.179424E+02  0.114E-02   12.17       0.0  T
   2    -17.9424095 -0.257463E-07  0.688E-03   12.17       3.8  T
   3    -17.9424095 -0.371852E-08  0.668E-04   12.17      38.7  T
   4    -17.9424095 -0.225107E-08  0.301E-04   12.17      85.7  T
     SCC iter.                  ...        0 min,  0.001 sec
     gradient                   ...        0 min,  0.002 sec
 * total energy  :   -17.7287596 Eh     change       -0.7690156E-05 Eh
   gradient norm :     0.0010407 Eh/α   predicted    -0.3128641E-05 ( -59.32%)
   displ. norm   :     0.0496780 α      lambda       -0.7016803E-05
   maximum displ.:     0.0382202 α      in ANC's #2, #3, #1, ...

........................................................................
.............................. CYCLE    7 ..............................
........................................................................

 iter      E             dE          RMSdq      gap      omega  full diag
   1    -17.9427077 -0.179427E+02  0.196E-02   12.15       0.0  T
   2    -17.9427077 -0.292401E-07  0.118E-02   12.15       2.2  T
   3    -17.9427078 -0.871447E-08  0.776E-04   12.15      33.3  T
   4    -17.9427078 -0.275673E-08  0.427E-04   12.15      60.5  T
     SCC iter.                  ...        0 min,  0.001 sec
     gradient                   ...        0 min,  0.002 sec
 * total energy  :   -17.7287668 Eh     change       -0.7193457E-05 Eh
   gradient norm :     0.0003361 Eh/α   predicted    -0.3511094E-05 ( -51.19%)
   displ. norm   :     0.0368606 α      lambda       -0.2368273E-05
   maximum displ.:     0.0283371 α      in ANC's #2, #3, #1, ...

........................................................................
.............................. CYCLE    8 ..............................
........................................................................

 iter      E             dE          RMSdq      gap      omega  full diag
   1    -17.9427232 -0.179427E+02  0.135E-02   12.15       0.0  T
   2    -17.9427232 -0.656133E-08  0.809E-03   12.15       3.2  T
   3    -17.9427232 -0.434079E-08  0.395E-04   12.15      65.4  T
   4    -17.9427232 -0.238227E-09  0.250E-04   12.15     103.1  T
     SCC iter.                  ...        0 min,  0.001 sec
     gradient                   ...        0 min,  0.002 sec
 * total energy  :   -17.7287694 Eh     change       -0.2604834E-05 Eh
   gradient norm :     0.0004112 Eh/α   predicted    -0.1185935E-05 ( -54.47%)
   displ. norm   :     0.0281174 α      lambda       -0.1333232E-05
   maximum displ.:     0.0208523 α      in ANC's #2, #3, #1, ...

........................................................................
.............................. CYCLE    9 ..............................
........................................................................

 iter      E             dE          RMSdq      gap      omega  full diag
   1    -17.9427222 -0.179427E+02  0.102E-02   12.15       0.0  T
   2    -17.9427222 -0.384652E-08  0.612E-03   12.15       4.2  T
   3    -17.9427222 -0.221542E-08  0.292E-04   12.15      88.6  T
   4    -17.9427222 -0.132719E-09  0.181E-04   12.15     142.4  T
     SCC iter.                  ...        0 min,  0.001 sec
     gradient                   ...        0 min,  0.002 sec
 * total energy  :   -17.7287709 Eh     change       -0.1417528E-05 Eh
   gradient norm :     0.0002915 Eh/α   predicted    -0.6645710E-06 ( -53.12%)
   displ. norm   :     0.0237947 α      lambda       -0.7074264E-06
   maximum displ.:     0.0165476 α      in ANC's #2, #3, #1, ...

........................................................................
.............................. CYCLE   10 ..............................
........................................................................

 iter      E             dE          RMSdq      gap      omega  full diag
   1    -17.9426979 -0.179427E+02  0.845E-03   12.15       0.0  T
   2    -17.9426979 -0.413559E-08  0.508E-03   12.15       5.1  T
   3    -17.9426979 -0.133626E-08  0.296E-04   12.15      87.4  T
   4    -17.9426979 -0.361105E-09  0.160E-04   12.15     161.1  T
     SCC iter.                  ...        0 min,  0.001 sec
     gradient                   ...        0 min,  0.002 sec
 * total energy  :   -17.7287715 Eh     change       -0.6174295E-06 Eh
   gradient norm :     0.0000827 Eh/α   predicted    -0.3540174E-06 ( -42.66%)
   displ. norm   :     0.0067303 α      lambda       -0.8437543E-07
   maximum displ.:     0.0044890 α      in ANC's #3, #2, #4, ...

........................................................................
.............................. CYCLE   11 ..............................
........................................................................

 iter      E             dE          RMSdq      gap      omega  full diag
   1    -17.9426895 -0.179427E+02  0.223E-03   12.15       0.0  T
   2    -17.9426895 -0.289401E-09  0.134E-03   12.15      19.2  T
   3    -17.9426895 -0.140361E-09  0.731E-05   12.15     353.0  T
   4    -17.9426895 -0.876810E-11  0.451E-05   12.15     572.5  T
     SCC iter.                  ...        0 min,  0.001 sec
     gradient                   ...        0 min,  0.002 sec
 * total energy  :   -17.7287716 Eh     change       -0.7378558E-07 Eh
   gradient norm :     0.0000336 Eh/α   predicted    -0.4104028E-07 ( -44.38%)
   displ. norm   :     0.0023830 α      lambda       -0.2798992E-07
   maximum displ.:     0.0016264 α      in ANC's #3, #4, #6, ...

   *** GEOMETRY OPTIMIZATION CONVERGED AFTER 11 ITERATIONS ***

------------------------------------------------------------------------
 total energy gain   :        -0.0009557 Eh       -0.5997 kcal/mol
 total RMSD          :         0.0963043 a0        0.0510 Å
 total power (kW/mol):        -0.2281122 (step)  -43.5761 (real)
------------------------------------------------------------------------

 ANCopt (total)                0 d,  0 h,  0 min,  0.058 sec
 optimizer setup                ...        0 min,  0.000 sec (  0.554%)
 model hessian                  ...        0 min,  0.003 sec (  5.728%)
 ANC generation                 ...        0 min,  0.000 sec (  0.368%)
 coordinate transformation      ...        0 min,  0.000 sec (  0.076%)
 single point calculation       ...        0 min,  0.048 sec ( 82.912%)
 optimization log               ...        0 min,  0.005 sec (  8.145%)
 hessian update                 ...        0 min,  0.000 sec (  0.075%)
 rational function              ...        0 min,  0.001 sec (  1.521%)

================
 final structure:
================
$coord
        4.05990339610113       -0.56186788771646        1.11935309741855      C
        2.62785398285796        0.97069984523860       -0.85704126835589      C
       -0.01454737427483       -0.06110496049816       -1.40243118666628      C
       -1.82193100837851        0.21827508348241        0.83583918666401      C
       -4.34988565837078       -0.36660958870689        0.19592303180531      O
        3.14007687118682       -0.44553398585234        2.95147704986277      H
        4.16279666162311       -2.53729864779364        0.56171629014516      H
        5.97501267732294        0.15468654668510        1.31801868175858      H
        2.47575328364293        2.93061773912088       -0.23011364623970      H
        3.70337250111459        0.95804899880429       -2.61797078232296      H
       -0.82649947137372        0.96302737498761       -3.00049489210446      H
        0.12436973662834       -2.05361126117536       -1.92670505308532      H
       -1.20935897775181       -0.96612142278489        2.42377223600497      H
       -1.86539727096717        2.18451406748521        1.46760770040463      H
       -4.42957338639955       -2.09815690081488       -0.38400838838312      H
$end
 
 Bond Distances (Angstroems)
 ---------------------------
C1-C2=1.5251         C1-H6=1.0866         C1-H7=1.0876         C1-H8=1.0871         C2-C1=1.5251         C2-C3=1.5286         
C2-H9=1.0919         C2-H10=1.0919        C3-C2=1.5286         C3-C4=1.5295         C3-H11=1.0925        C3-H12=1.0928        
C4-C3=1.5295         C4-O5=1.4142         C4-H13=1.0973        C4-H14=1.0931        O5-C4=1.4142         O5-H15=0.9672        
H6-C1=1.0866         H7-C1=1.0876         H8-C1=1.0871         H9-C2=1.0919         H10-C2=1.0919        H11-C3=1.0925        
H12-C3=1.0928        H13-C4=1.0973        H14-C4=1.0931        H15-O5=0.9672        
 C  H  Rav=1.0912 sigma=0.0033  Rmin=1.0866  Rmax=1.0973     9
 C  C  Rav=1.5277 sigma=0.0019  Rmin=1.5251  Rmax=1.5295     3
 O  H  Rav=0.9672 sigma=0.0000  Rmin=0.9672  Rmax=0.9672     1
 O  C  Rav=1.4142 sigma=0.0000  Rmin=1.4142  Rmax=1.4142     1
 
 selected bond angles (degree)
 --------------------
H6-C1-C2=111.05                H7-C1-C2=110.48                H7-C1-H6=108.60                H8-C1-C2=110.12                
H8-C1-H6=108.15                H8-C1-H7=108.35                C3-C2-C1=113.21                H9-C2-C1=109.47                
H9-C2-C3=109.22                H10-C2-C1=108.84               H10-C2-C3=108.27               H10-C2-H9=107.67               
C4-C3-C2=113.03                H11-C3-C2=109.19               H11-C3-C4=107.79               H12-C3-C2=109.33               
H12-C3-C4=109.39               H12-C3-H11=107.97              O5-C4-C3=112.64                H13-C4-C3=110.68               
H13-C4-O5=109.74               H14-C4-C3=110.00               H14-C4-O5=105.17               H14-C4-H13=108.40              
H15-O5-C4=108.94               
 
 selected dihedral angles (degree)
 ---------------------------------
C3-C2-C1-H6=295.01            C3-C2-C1-H7= 55.58            C3-C2-C1-H8=175.24            H9-C2-C1-H6= 57.12            
H9-C2-C1-H7=177.69            H9-C2-C1-H8=297.35            H10-C2-C1-H6=174.56           H10-C2-C1-H7=295.13           
H10-C2-C1-H8= 54.79           C4-C3-C2-C1= 67.54            C4-C3-C2-H9=305.29            C4-C3-C2-H10=188.31           
H11-C3-C2-C1=187.51           H11-C3-C2-H9= 65.26           H11-C3-C2-H10=308.28          H12-C3-C2-C1=305.44           
H12-C3-C2-H9=183.19           H12-C3-C2-H10= 66.21          O5-C4-C3-C2=170.64            O5-C4-C3-H11= 49.87           
O5-C4-C3-H12=292.71           H13-C4-C3-C2=293.91           H13-C4-C3-H11=173.14          H13-C4-C3-H12= 55.98          
H14-C4-C3-C2= 53.67           H14-C4-C3-H11=292.90          H14-C4-C3-H12=175.74          H15-O5-C4-C3= 60.12           
H15-O5-C4-H13=296.33          H15-O5-C4-H14=179.92          
           -------------------------------------------------
          |                Final Singlepoint                |
           -------------------------------------------------

          ...................................................
          :                      SETUP                      :
          :.................................................:
          :  # basis functions                  30          :
          :  # atomic orbitals                  30          :
          :  # shells                           20          :
          :  # electrons                        32          :
          :  max. iterations                   250          :
          :  Hamiltonian                  GFN2-xTB          :
          :  restarted?                      false          :
          :  GBSA solvation                   true          :
          :  PC potential                    false          :
          :  electronic temp.          300.0000000     K    :
          :  accuracy                    1.0000000          :
          :  -> integral cutoff          0.2500000E+02      :
          :  -> integral neglect         0.1000000E-07      :
          :  -> SCF convergence          0.1000000E-05 Eh   :
          :  -> wf. convergence          0.1000000E-03 e    :
          :  Broyden damping             0.4000000          :
          :  net charge                          0          :
          :  unpaired electrons                  0          :
          ...................................................

 iter      E             dE          RMSdq      gap      omega  full diag
   1    -17.9426895 -0.179427E+02  0.104E-05   12.15       0.0  T
   2    -17.9426895 -0.145661E-12  0.722E-06   12.15    3575.7  T
   3    -17.9426895 -0.145661E-12  0.214E-06   12.15   12075.7  T

   *** convergence criteria satisfied after 3 iterations ***

         #    Occupation            Energy/Eh            Energy/eV
      -------------------------------------------------------------
         1        2.0000           -0.6871989             -18.6996
       ...           ...                  ...                  ...
        10        2.0000           -0.4874372             -13.2638
        11        2.0000           -0.4749955             -12.9253
        12        2.0000           -0.4475456             -12.1783
        13        2.0000           -0.4428179             -12.0497
        14        2.0000           -0.4346029             -11.8261
        15        2.0000           -0.4269355             -11.6175
        16        2.0000           -0.4051846             -11.0256 (HOMO)
        17                          0.0413673               1.1257 (LUMO)
        18                          0.1007558               2.7417
        19                          0.1069597               2.9105
        20                          0.1366169               3.7175
        21                          0.1423355               3.8731
       ...                                ...                  ...
        30                          0.2971665               8.0863
      -------------------------------------------------------------
                  HL-Gap            0.4465519 Eh           12.1513 eV
             Fermi-level           -0.1819087 Eh           -4.9500 eV

 SCC (total)                   0 d,  0 h,  0 min,  0.004 sec
 SCC setup                      ...        0 min,  0.001 sec ( 16.486%)
 Dispersion                     ...        0 min,  0.000 sec (  0.774%)
 classical contributions        ...        0 min,  0.000 sec (  0.260%)
 integral evaluation            ...        0 min,  0.001 sec ( 16.968%)
 iterations                     ...        0 min,  0.001 sec ( 18.325%)
 molecular gradient             ...        0 min,  0.002 sec ( 44.785%)
 printout                       ...        0 min,  0.000 sec (  2.105%)

         :::::::::::::::::::::::::::::::::::::::::::::::::::::
         ::                     SUMMARY                     ::
         :::::::::::::::::::::::::::::::::::::::::::::::::::::
         :: total energy             -17.728771554479 Eh    ::
         :: total w/o Gsasa/hb       -17.724816997517 Eh    ::
         :: gradient norm              0.000033468919 Eh/a0 ::
         :: HOMO-LUMO gap             12.151296747184 eV    ::
         ::.................................................::
         :: SCC energy               -17.942679238726 Eh    ::
         :: -> isotropic ES            0.035945288251 Eh    ::
         :: -> anisotropic ES          0.002955511125 Eh    ::
         :: -> anisotropic XC          0.006224616051 Eh    ::
         :: -> dispersion             -0.007128230739 Eh    ::
         :: -> Gsolv                  -0.008706725204 Eh    ::
         ::    -> Gelec               -0.004752168243 Eh    ::
         ::    -> Gsasa                0.000794797720 Eh    ::
         ::    -> Ghb                 -0.005830114379 Eh    ::
         ::    -> Gshift               0.001080759698 Eh    ::
         :: repulsion energy           0.213907684247 Eh    ::
         :: add. restraining           0.000000000000 Eh    ::
         :: total charge               0.000000000000 e     ::
         :::::::::::::::::::::::::::::::::::::::::::::::::::::

           ------------------------------------------------- 
          |                Numerical Hessian                |
           ------------------------------------------------- 
step length          :   0.00500
SCC accuracy         :   0.30000
Hessian scale factor :   1.00000
frozen atoms in %    :   0.00000    0
RMS gradient         :   0.00003
estimated CPU  time      0.01 min
estimated wall time      0.01 min

writing file <hessian>.

 projected vibrational frequencies (cm⁻¹)
eigval :       -0.00    -0.00    -0.00    -0.00     0.00     0.00
eigval :       74.39   114.11   215.54   279.98   329.70   349.60
eigval :      482.66   786.06   821.81   928.87   960.54   992.71
eigval :     1056.16  1083.50  1119.50  1129.76  1191.99  1253.21
eigval :     1258.30  1293.61  1316.69  1348.45  1361.96  1411.50
eigval :     1477.48  1481.45  1489.13  1500.51  1506.40  2889.62
eigval :     2959.75  2965.64  2969.20  2978.34  2984.62  3029.80
eigval :     3035.11  3046.67  3496.82
           -------------------------------------------------
          |                Property Printout                |
           -------------------------------------------------

    * Orbital Energies and Occupations

         #    Occupation            Energy/Eh            Energy/eV
      -------------------------------------------------------------
         1        2.0000           -0.6871989             -18.6996
       ...           ...                  ...                  ...
         4        2.0000           -0.5890391             -16.0286
         5        2.0000           -0.5655604             -15.3897
         6        2.0000           -0.5476765             -14.9030
         7        2.0000           -0.5258222             -14.3083
         8        2.0000           -0.5175301             -14.0827
         9        2.0000           -0.4928233             -13.4104
        10        2.0000           -0.4874372             -13.2638
        11        2.0000           -0.4749955             -12.9253
        12        2.0000           -0.4475456             -12.1783
        13        2.0000           -0.4428179             -12.0497
        14        2.0000           -0.4346028             -11.8261
        15        2.0000           -0.4269355             -11.6175
        16        2.0000           -0.4051846             -11.0256 (HOMO)
        17                          0.0413673               1.1257 (LUMO)
        18                          0.1007558               2.7417
        19                          0.1069597               2.9105
        20                          0.1366169               3.7175
        21                          0.1423355               3.8731
        22                          0.1429237               3.8892
        23                          0.1711981               4.6585
        24                          0.1878446               5.1115
        25                          0.2092255               5.6933
        26                          0.2241967               6.1007
        27                          0.2377985               6.4708
       ...                                ...                  ...
        30                          0.2971665               8.0863
      -------------------------------------------------------------
                  HL-Gap            0.4465519 Eh           12.1513 eV
             Fermi-level           -0.1819086 Eh           -4.9500 eV

     #   Z          covCN         q      C6AA      α(0)
     1   6 C        3.751    -0.115    22.759     6.803
     2   6 C        3.800    -0.062    21.696     6.632
     3   6 C        3.800    -0.077    21.969     6.673
     4   6 C        3.674     0.080    19.474     6.324
     5   8 O        1.654    -0.524    23.412     6.532
     6   1 H        0.925     0.036     2.501     2.473
     7   1 H        0.925     0.042     2.425     2.435
     8   1 H        0.925     0.041     2.430     2.438
     9   1 H        0.924     0.034     2.529     2.487
    10   1 H        0.924     0.041     2.436     2.441
    11   1 H        0.924     0.044     2.398     2.422
    12   1 H        0.924     0.041     2.429     2.437
    13   1 H        0.924     0.023     2.682     2.561
    14   1 H        0.924     0.041     2.436     2.441
    15   1 H        0.805     0.354     0.579     1.196

 Mol. C6AA /au·bohr⁶  :       1458.910744
 Mol. C8AA /au·bohr⁸  :      29892.441048
 Mol. α(0) /au        :         56.294440


Wiberg/Mayer (AO) data.
largest (>0.10) Wiberg bond orders for each atom

 ---------------------------------------------------------------------------
     #   Z sym  total        # sym  WBO       # sym  WBO       # sym  WBO
 ---------------------------------------------------------------------------
     1   6 C    3.996 --     2 C    1.020     7 H    0.987     8 H    0.987
                             6 H    0.987
     2   6 C    3.997 --     1 C    1.020     3 C    1.007     9 H    0.978
                            10 H    0.978
     3   6 C    3.996 --     2 C    1.007     4 C    0.999    11 H    0.977
                            12 H    0.976
     4   6 C    3.951 --     3 C    0.999     5 O    0.991    14 H    0.974
                            13 H    0.971
     5   8 O    1.907 --     4 C    0.991    15 H    0.861
     6   1 H    0.999 --     1 C    0.987
     7   1 H    0.998 --     1 C    0.987
     8   1 H    0.998 --     1 C    0.987
     9   1 H    0.999 --     2 C    0.978
    10   1 H    0.998 --     2 C    0.978
    11   1 H    0.998 --     3 C    0.977
    12   1 H    0.998 --     3 C    0.976
    13   1 H    0.999 --     4 C    0.971
    14   1 H    0.998 --     4 C    0.974
    15   1 H    0.875 --     5 O    0.861
 ---------------------------------------------------------------------------

Topologies differ in total number of bonds
Writing topology from bond orders to xtbtopo.mol

molecular dipole:
                 x           y           z       tot (Debye)
 q only:        0.573      -0.476      -0.164
   full:        0.657      -0.600      -0.166       2.300
molecular quadrupole (traceless):
                xx          xy          yy          xz          yz          zz
 q only:       -3.311       3.418       2.579       1.205       0.516       0.732
  q+dip:       -5.975       3.858       4.567       0.938       0.758       1.408
   full:       -5.247       4.105       4.127       1.223       0.793       1.120

           -------------------------------------------------
          |                Geometry Summary                 |
           -------------------------------------------------

      molecular mass/u    :       74.1217560
   center of mass at/Å    :        0.0000838       0.0001108       0.0003412
  moments of inertia/u·Å² :        0.4022914E+02   0.2171500E+03   0.2339490E+03
rotational constants/cm⁻¹ :        0.4190403E+00   0.7763129E-01   0.7205686E-01

 * 14 selected distances

     #   Z          #   Z                                           value/Å
     1   6 C        2   6 C                                       1.5250650
     2   6 C        3   6 C                                       1.5286132
     3   6 C        4   6 C                                       1.5295459 (max)
     4   6 C        5   8 O                                       1.4142145
     1   6 C        6   1 H                                       1.0865921
     1   6 C        7   1 H                                       1.0875684
     1   6 C        8   1 H                                       1.0871421
     2   6 C        9   1 H                                       1.0918827
     2   6 C       10   1 H                                       1.0919240
     3   6 C       11   1 H                                       1.0924558
     3   6 C       12   1 H                                       1.0927533
     4   6 C       13   1 H                                       1.0972706
     4   6 C       14   1 H                                       1.0931215
     5   8 O       15   1 H                                       0.9672409 (min)

 * 4 distinct bonds (by element types)

   Z      Z             #   av. dist./Å        max./Å        min./Å
   1 H    6 C           9     1.0911900     1.0972706     1.0865921
   6 C    6 C           3     1.5277414     1.5295459     1.5250650
   1 H    8 O           1     0.9672409     0.9672409     0.9672409
   6 C    8 O           1     1.4142145     1.4142145     1.4142145

           -------------------------------------------------
          |               Frequency Printout                |
           -------------------------------------------------
 projected vibrational frequencies (cm⁻¹)
eigval :       -0.00    -0.00    -0.00    -0.00     0.00     0.00
eigval :       74.39   114.11   215.54   279.98   329.70   349.60
eigval :      482.66   786.06   821.81   928.87   960.54   992.71
eigval :     1056.16  1083.50  1119.50  1129.76  1191.99  1253.21
eigval :     1258.30  1293.61  1316.69  1348.45  1361.96  1411.50
eigval :     1477.48  1481.45  1489.13  1500.51  1506.40  2889.62
eigval :     2959.75  2965.64  2969.20  2978.34  2984.62  3029.80
eigval :     3035.11  3046.67  3496.82
 reduced masses (amu)
   1: 11.31   2: 10.92   3: 10.35   4: 10.74   5: 10.42   6: 10.15   7:  7.80   8:  7.44
   9:  4.92  10:  5.48  11:  4.52  12:  8.75  13:  9.56  14:  2.71  15:  2.79  16:  7.12
  17:  5.52  18:  6.46  19:  7.53  20:  6.56  21:  7.93  22:  7.04  23:  5.75  24:  3.43
  25:  3.13  26:  2.28  27:  3.30  28:  4.53  29:  4.52  30:  3.24  31:  1.85  32:  1.86
  33:  1.90  34:  1.61  35:  1.56  36:  1.76  37:  1.83  38:  1.86  39:  1.83  40:  1.54
  41:  1.52  42:  1.90  43:  1.88  44:  1.37  45:  1.88
 IR intensities (km·mol⁻¹)
   1:  0.40   2:  0.90   3:  0.94   4:  0.65   5:  0.83   6:  0.70   7:  7.49   8:  1.57
   9:  0.53  10: 22.43  11:101.55  12:105.71  13:  4.64  14:  8.64  15: 11.51  16:  1.97
  17: 19.20  18: 32.77  19:134.49  20:  2.38  21:  5.53  22:  9.67  23:  9.55  24: 27.93
  25:  6.40  26: 27.80  27: 49.94  28:  1.76  29: 13.23  30:  0.67  31:  3.08  32:  0.06
  33:  0.28  34:  1.61  35:  1.05  36: 93.84  37: 23.00  38: 13.30  39:125.21  40:103.33
  41: 87.30  42: 81.41  43: 74.49  44: 47.04  45: 62.19
 Raman intensities (Ä⁴*amu⁻¹)
   1:  0.00   2:  0.00   3:  0.00   4:  0.00   5:  0.00   6:  0.00   7:  0.00   8:  0.00
   9:  0.00  10:  0.00  11:  0.00  12:  0.00  13:  0.00  14:  0.00  15:  0.00  16:  0.00
  17:  0.00  18:  0.00  19:  0.00  20:  0.00  21:  0.00  22:  0.00  23:  0.00  24:  0.00
  25:  0.00  26:  0.00  27:  0.00  28:  0.00  29:  0.00  30:  0.00  31:  0.00  32:  0.00
  33:  0.00  34:  0.00  35:  0.00  36:  0.00  37:  0.00  38:  0.00  39:  0.00  40:  0.00
  41:  0.00  42:  0.00  43:  0.00  44:  0.00  45:  0.00
 output can be read by thermo (or use thermo option).
 writing <g98.out> molden fake output.
 recommended (thermochemical) frequency scaling factor: 1.0
           -------------------------------------------------
          |             Thermodynamic Functions             |
           -------------------------------------------------

Molecule has no symmetry elements
It seems to be the C1 point group
c1  symmetry found (for desy threshold:  0.10E+00) used in thermo

          ...................................................
          :                      SETUP                      :
          :.................................................:
          :  # frequencies                          39      :
          :  # imaginary freq.                       0      :
          :  linear?                             false      :
          :  only rotor calc.                    false      :
          :  symmetry                               c1      :
          :  rotational number                       1      :
          :  scaling factor                  1.0000000      :
          :  rotor cutoff                    0.0000000 cm⁻¹ :
          :  imag. cutoff                 -100.0000000 cm⁻¹ :
          :.................................................:

    mode    ω/cm⁻¹     T·S(HO)/kcal·mol⁻¹    T·S(FR)/kcal·mol⁻¹   T·S(vib)
   ------------------------------------------------------------------------
       1     74.39    -1.20266 (100.00%)    -0.93845 (  0.00%)    -1.20266
       2    114.11    -0.95341 (100.00%)    -0.81184 (  0.00%)    -0.95341
       3    215.54    -0.59518 (100.00%)    -0.62356 (  0.00%)    -0.59518
       4    279.98    -0.45731 (100.00%)    -0.54611 (  0.00%)    -0.45731
   ------------------------------------------------------------------------

   temp. (K)  partition function   enthalpy   heat capacity  entropy
                                   cal/mol     cal/K/mol   cal/K/mol   J/K/mol
 298.15  VIB   31.2                 2485.495     17.186     15.172
         ROT  0.109E+06              888.752      2.981     26.035
         INT  0.340E+07             3374.247     20.167     41.207
         TR   0.617E+27             1481.254      4.968     38.808
         TOT                        4855.5009    25.1350    80.0147   334.7816

       T/K    H(0)-H(T)+PV         H(T)/Eh          T*S/Eh         G(T)/Eh
   ------------------------------------------------------------------------
    298.15    0.773773E-02    0.142084E+00    0.380176E-01    0.104066E+00
   ------------------------------------------------------------------------

         :::::::::::::::::::::::::::::::::::::::::::::::::::::
         ::                  THERMODYNAMIC                  ::
         :::::::::::::::::::::::::::::::::::::::::::::::::::::
         :: total free energy         -17.624705282000 Eh   ::
         ::.................................................::
         :: total energy              -17.728771554314 Eh   ::
         :: zero point energy           0.134346114440 Eh   ::
         :: G(RRHO) w/o ZPVE           -0.030279842126 Eh   ::
         :: G(RRHO) contrib.            0.104066272314 Eh   ::
         :::::::::::::::::::::::::::::::::::::::::::::::::::::

optimized geometry written to: xtbopt.coord


           -------------------------------------------------
          | TOTAL ENERGY              -17.728771554314 Eh   |
          | TOTAL ENTHALPY            -17.586687706739 Eh   |
          | TOTAL FREE ENERGY         -17.624705282000 Eh   |
          | GRADIENT NORM               0.000033462689 Eh/α |
          | HOMO-LUMO GAP              12.151296785544 eV   |
           -------------------------------------------------

------------------------------------------------------------------------
 * finished run on 2025/04/06 at 22:38:51.141     
------------------------------------------------------------------------
 total:
 * wall-time:     0 d,  0 h,  0 min,  0.517 sec
 *  cpu-time:     0 d,  0 h,  0 min,  0.435 sec
 * ratio c/w:     0.842 speedup
 SCF:
 * wall-time:     0 d,  0 h,  0 min,  0.021 sec
 *  cpu-time:     0 d,  0 h,  0 min,  0.007 sec
 * ratio c/w:     0.347 speedup
 ANC optimizer:
 * wall-time:     0 d,  0 h,  0 min,  0.072 sec
 *  cpu-time:     0 d,  0 h,  0 min,  0.058 sec
 * ratio c/w:     0.802 speedup
 analytical hessian:
 * wall-time:     0 d,  0 h,  0 min,  0.370 sec
 *  cpu-time:     0 d,  0 h,  0 min,  0.361 sec
 * ratio c/w:     0.976 speedup

