! r2scan-3c def2/J RI DEFGRID2 scfconv6 printgap
%output
    printlevel normal
end
* xyz 0 1
C 1.6875908092 0.3884849095 0.6402676892
C 0.8933455922 0.4089577144 -0.661629305
C -0.56316465 -0.0516934172 -0.4890873544
H -1.0563394942 0.0081055107 -1.4749878843
C -1.3420270446 0.8179185987 0.492929743
O -0.6386923069 -1.388734284 -0.0186595022
H 1.3666145188 1.1866319551 1.303436977
H 2.74716 0.5187199796 0.4358102684
H 1.5444569352 -0.5620724036 1.149328533
H 1.3769114258 -0.2497087352 -1.3878260567
H 0.8877910254 1.415585563 -1.0816388873
H -2.38531049 0.514334298 0.498821779
H -0.9450751201 0.6880009227 1.4949453344
H -1.2734689564 1.8618953905 0.2038157646
H -0.1767981578 -1.970457566 -0.6367557677
*
