 Entering Gaussian System
 *********************************************
 Gaussian 98:
 frequency output generated by the xtb code
 *********************************************
                         Standard orientation:
 --------------------------------------------------------------------
  Center     Atomic     Atomic              Coordinates (Angstroms)
  Number     Number      Type              X           Y           Z
 --------------------------------------------------------------------
    1          6             0        1.889376    0.633645    0.284976
    2          6             0        1.017674   -0.198907   -0.652164
    3          8             0        0.000018   -0.943970   -0.000230
    4          6             0       -1.017593   -0.199175    0.652080
    5          6             0       -1.889237    0.633912   -0.284639
    6          1             0        1.336754    1.475340    0.694590
    7          1             0        2.249083    0.015579    1.103856
    8          1             0        2.740023    1.017055   -0.270000
    9          1             0        1.623621   -0.968012   -1.137291
   10          1             0        0.581795    0.440602   -1.430070
   11          1             0       -1.623592   -0.968489    1.136809
   12          1             0       -0.581678    0.439909    1.430314
   13          1             0       -2.248965    0.016291   -1.103846
   14          1             0       -2.739871    1.017079    0.270523
   15          1             0       -1.336564    1.475791   -0.693808
 --------------------------------------------------------------------
     1 basis functions        1 primitive gaussians
     1 alpha electrons        1 beta electrons
 
 Harmonic frequencies (cm**-1), IR intensities (km*mol⁻¹),
 Raman scattering activities (A**4/amu), Raman depolarization ratios,
 reduced masses (AMU), force constants (mDyne/A) and normal coordinates:
                      1                      2                      3
                        a                      a                      a 
 Frequencies --    45.6516               134.2652               207.1557
 Red. masses --     7.9781                 4.9610                 1.3299
 Frc consts  --     0.0000                 0.0000                 0.0000
 IR Inten    --     0.1223                 5.3149                 0.2704
 Raman Activ --     0.0000                 0.0000                 0.0000
 Depolar     --     0.0000                 0.0000                 0.0000
 Atom AN      X      Y      Z        X      Y      Z        X      Y      Z
   1   6     0.37  -0.30   0.11     0.16  -0.05  -0.16    -0.03   0.06   0.03
   2   6     0.00   0.20   0.01    -0.19   0.11   0.03     0.04  -0.04   0.06
   3   8     0.00   0.23   0.00     0.07  -0.00   0.33    -0.00  -0.06  -0.00
   4   6    -0.00   0.20  -0.01    -0.19  -0.11   0.03    -0.04  -0.04  -0.06
   5   6    -0.37  -0.30  -0.11     0.16   0.05  -0.16     0.03   0.06  -0.03
   6   1     0.18  -0.10   0.15     0.03  -0.15   0.21    -0.14  -0.21   0.29
   7   1     0.13  -0.19  -0.06     0.29  -0.10  -0.22     0.33  -0.05  -0.19
   8   1     0.09  -0.07   0.02    -0.12   0.18  -0.17    -0.23   0.35  -0.10
   9   1    -0.07   0.07  -0.11    -0.10   0.06  -0.10     0.03  -0.00   0.03
  10   1    -0.01   0.16   0.09    -0.14   0.07   0.09     0.02  -0.02   0.01
  11   1     0.07   0.07   0.11    -0.10  -0.06  -0.10    -0.03  -0.00  -0.03
  12   1     0.01   0.16  -0.09    -0.14  -0.07   0.09    -0.02  -0.02  -0.01
  13   1    -0.13  -0.19   0.06     0.29   0.10  -0.22    -0.33  -0.05   0.19
  14   1    -0.09  -0.07  -0.02    -0.12  -0.18  -0.17     0.23   0.35   0.10
  15   1    -0.18  -0.10  -0.15     0.03   0.15   0.21     0.14  -0.21  -0.29
                      4                      5                      6
                        a                      a                      a 
 Frequencies --   269.7846               289.3476               437.4078
 Red. masses --     4.9056                 8.0918                10.6961
 Frc consts  --     0.0000                 0.0000                 0.0000
 IR Inten    --     3.6448                 0.3671                16.0048
 Raman Activ --     0.0000                 0.0000                 0.0000
 Depolar     --     0.0000                 0.0000                 0.0000
 Atom AN      X      Y      Z        X      Y      Z        X      Y      Z
   1   6    -0.14  -0.01   0.09    -0.36  -0.13   0.13     0.23   0.18  -0.02
   2   6     0.20  -0.26   0.01    -0.31   0.17  -0.16    -0.06   0.06   0.26
   3   8    -0.13   0.00  -0.22    -0.00  -0.10  -0.00    -0.50   0.00  -0.39
   4   6     0.20   0.26   0.01     0.31   0.17   0.16    -0.06  -0.06   0.26
   5   6    -0.14   0.01   0.09     0.36  -0.13  -0.13     0.23  -0.18  -0.02
   6   1    -0.19  -0.18   0.18    -0.10  -0.07   0.10     0.15   0.11  -0.02
   7   1     0.19  -0.01  -0.08    -0.15  -0.13  -0.01     0.17   0.13   0.00
   8   1    -0.19   0.27  -0.02    -0.08   0.01   0.11     0.00  -0.03  -0.17
   9   1     0.10  -0.12   0.12    -0.09   0.13  -0.17    -0.02  -0.01   0.11
  10   1     0.14  -0.12  -0.09    -0.17   0.11   0.06     0.08   0.04   0.04
  11   1     0.10   0.12   0.12     0.09   0.13   0.17    -0.02   0.01   0.11
  12   1     0.14   0.12  -0.09     0.17   0.11  -0.06     0.08  -0.04   0.04
  13   1     0.19   0.01  -0.08     0.15  -0.13   0.01     0.17  -0.13   0.00
  14   1    -0.19  -0.27  -0.02     0.08   0.01  -0.11     0.00   0.03  -0.17
  15   1    -0.19   0.18   0.18     0.10  -0.07  -0.10     0.15  -0.11  -0.02
                      7                      8                      9
                        a                      a                      a 
 Frequencies --   478.6713               807.6299               816.8595
 Red. masses --     9.0722                 2.1544                 5.4628
 Frc consts  --     0.0000                 0.0000                 0.0000
 IR Inten    --     6.5839                 9.4067                22.1346
 Raman Activ --     0.0000                 0.0000                 0.0000
 Depolar     --     0.0000                 0.0000                 0.0000
 Atom AN      X      Y      Z        X      Y      Z        X      Y      Z
   1   6    -0.12  -0.16  -0.04     0.03  -0.08   0.01    -0.16  -0.05  -0.02
   2   6     0.18  -0.04  -0.31     0.10  -0.17   0.06    -0.28   0.04   0.23
   3   8     0.00   0.54   0.00    -0.02  -0.00  -0.06     0.00   0.25   0.00
   4   6    -0.18  -0.04   0.31     0.10   0.17   0.06     0.28   0.04  -0.23
   5   6     0.12  -0.16   0.04     0.03   0.08   0.01     0.16  -0.05   0.02
   6   1    -0.14  -0.12   0.01    -0.22  -0.06  -0.23     0.20   0.08   0.13
   7   1    -0.11  -0.11  -0.03     0.08   0.24   0.17     0.01  -0.13  -0.11
   8   1     0.01   0.06   0.13    -0.05   0.09  -0.02    -0.07  -0.19  -0.16
   9   1     0.02  -0.14   0.07    -0.14   0.04  -0.31     0.05  -0.06   0.31
  10   1     0.17  -0.07  -0.21    -0.06   0.21   0.27     0.04  -0.15  -0.14
  11   1    -0.02  -0.14  -0.07    -0.14  -0.04  -0.31    -0.05  -0.06  -0.31
  12   1    -0.17  -0.07   0.21    -0.06  -0.21   0.27    -0.04  -0.15   0.14
  13   1     0.11  -0.11   0.03     0.08  -0.24   0.17    -0.01  -0.13   0.11
  14   1    -0.01   0.06  -0.13    -0.05  -0.09  -0.02     0.07  -0.19   0.16
  15   1     0.14  -0.12  -0.01    -0.22   0.06  -0.23    -0.20   0.08  -0.13
                     10                     11                     12
                        a                      a                      a 
 Frequencies --   864.8390               936.0779              1047.5387
 Red. masses --     6.3365                 8.2001                 7.9827
 Frc consts  --     0.0000                 0.0000                 0.0000
 IR Inten    --     3.9219                12.2908                26.7549
 Raman Activ --     0.0000                 0.0000                 0.0000
 Depolar     --     0.0000                 0.0000                 0.0000
 Atom AN      X      Y      Z        X      Y      Z        X      Y      Z
   1   6     0.11   0.20   0.01    -0.27  -0.19  -0.03     0.25   0.17   0.11
   2   6     0.08   0.12  -0.22    -0.03  -0.01   0.22    -0.38  -0.22  -0.02
   3   8    -0.00  -0.42  -0.00     0.44   0.00  -0.21     0.00   0.16   0.00
   4   6    -0.08   0.12   0.22    -0.03   0.01   0.22     0.38  -0.22   0.02
   5   6    -0.11   0.20  -0.01    -0.27   0.19  -0.03    -0.25   0.17  -0.11
   6   1     0.15   0.04   0.20     0.09   0.07  -0.03    -0.05  -0.04   0.04
   7   1    -0.11  -0.21  -0.13     0.10   0.03  -0.02    -0.03   0.02   0.06
   8   1     0.14   0.02   0.15    -0.18  -0.21  -0.29     0.12   0.16   0.21
   9   1     0.18   0.06   0.10     0.11   0.09   0.04    -0.20  -0.17   0.03
  10   1    -0.06  -0.17  -0.17     0.05   0.03   0.04    -0.10  -0.11  -0.05
  11   1    -0.18   0.06  -0.10     0.11  -0.09   0.04     0.20  -0.17  -0.03
  12   1     0.06  -0.17   0.17     0.05  -0.03   0.04     0.10  -0.11   0.05
  13   1     0.11  -0.21   0.13     0.10  -0.03  -0.02     0.03   0.02  -0.06
  14   1    -0.14   0.02  -0.15    -0.18   0.21  -0.29    -0.12   0.16  -0.21
  15   1    -0.15   0.04  -0.20     0.09  -0.07  -0.03     0.05  -0.04  -0.04
                     13                     14                     15
                        a                      a                      a 
 Frequencies --  1068.0238              1082.2391              1108.9286
 Red. masses --     9.2895                 6.9768                 8.8036
 Frc consts  --     0.0000                 0.0000                 0.0000
 IR Inten    --    37.1412                 0.0911               125.0852
 Raman Activ --     0.0000                 0.0000                 0.0000
 Depolar     --     0.0000                 0.0000                 0.0000
 Atom AN      X      Y      Z        X      Y      Z        X      Y      Z
   1   6     0.08   0.15   0.33     0.00  -0.03  -0.34    -0.07  -0.13   0.14
   2   6    -0.25  -0.29  -0.27     0.07   0.08   0.38     0.17   0.26  -0.28
   3   8     0.18   0.00  -0.05    -0.00   0.01   0.00    -0.27  -0.00   0.36
   4   6    -0.25   0.29  -0.27    -0.07   0.08  -0.38     0.17  -0.26  -0.28
   5   6     0.08  -0.15   0.32    -0.00  -0.03   0.34    -0.07   0.13   0.14
   6   1     0.16   0.13   0.09    -0.16  -0.14  -0.02     0.02   0.05  -0.08
   7   1     0.15   0.11   0.08    -0.23  -0.17  -0.10     0.16   0.14   0.08
   8   1    -0.04  -0.05  -0.09     0.12   0.12   0.20    -0.13  -0.08  -0.18
   9   1    -0.01  -0.01  -0.11    -0.02   0.03   0.04    -0.03  -0.06   0.05
  10   1    -0.07  -0.06  -0.06    -0.07  -0.02   0.12     0.18   0.10  -0.10
  11   1    -0.01   0.01  -0.11     0.02   0.03  -0.04    -0.03   0.06   0.05
  12   1    -0.07   0.06  -0.06     0.07  -0.02  -0.12     0.18  -0.10  -0.10
  13   1     0.15  -0.11   0.08     0.23  -0.17   0.10     0.16  -0.14   0.08
  14   1    -0.04   0.05  -0.09    -0.12   0.12  -0.20    -0.13   0.08  -0.18
  15   1     0.16  -0.13   0.09     0.16  -0.14   0.02     0.02  -0.05  -0.08
                     16                     17                     18
                        a                      a                      a 
 Frequencies --  1123.4922              1181.0955              1251.6677
 Red. masses --     6.4360                 6.6699                 2.3270
 Frc consts  --     0.0000                 0.0000                 0.0000
 IR Inten    --    49.7117                17.3878                 2.0190
 Raman Activ --     0.0000                 0.0000                 0.0000
 Depolar     --     0.0000                 0.0000                 0.0000
 Atom AN      X      Y      Z        X      Y      Z        X      Y      Z
   1   6    -0.16   0.13  -0.01     0.15  -0.21  -0.01     0.11  -0.16   0.03
   2   6     0.32  -0.14  -0.03    -0.18   0.33  -0.02    -0.04   0.08  -0.03
   3   8    -0.33  -0.00   0.12    -0.00  -0.28  -0.00    -0.13   0.00   0.00
   4   6     0.32   0.14  -0.03     0.18   0.33   0.02    -0.04  -0.08  -0.03
   5   6    -0.16  -0.13  -0.01    -0.15  -0.21   0.01     0.11   0.16   0.03
   6   1     0.19   0.10   0.15    -0.19  -0.10  -0.19    -0.10  -0.06  -0.12
   7   1    -0.03  -0.13  -0.13     0.05   0.16   0.14     0.06   0.12   0.11
   8   1     0.00  -0.14  -0.06    -0.03   0.11   0.01    -0.02   0.05  -0.01
   9   1     0.14   0.16  -0.21     0.06   0.01   0.24     0.37   0.28   0.06
  10   1    -0.17   0.01   0.17     0.12  -0.04  -0.19    -0.31  -0.25  -0.05
  11   1     0.14  -0.16  -0.21    -0.06   0.01  -0.24     0.37  -0.28   0.06
  12   1    -0.17  -0.01   0.17    -0.12  -0.04   0.19    -0.31   0.25  -0.05
  13   1    -0.03   0.13  -0.13    -0.05   0.16  -0.14     0.06  -0.12   0.11
  14   1     0.00   0.14  -0.06     0.03   0.11  -0.01    -0.02  -0.05  -0.01
  15   1     0.19  -0.10   0.15     0.19  -0.10   0.19    -0.10   0.06  -0.12
                     19                     20                     21
                        a                      a                      a 
 Frequencies --  1280.3287              1326.5120              1327.1837
 Red. masses --     2.5968                 3.5908                 3.0850
 Frc consts  --     0.0000                 0.0000                 0.0000
 IR Inten    --     1.9533                22.5478                23.5286
 Raman Activ --     0.0000                 0.0000                 0.0000
 Depolar     --     0.0000                 0.0000                 0.0000
 Atom AN      X      Y      Z        X      Y      Z        X      Y      Z
   1   6     0.05  -0.12   0.06    -0.02   0.00   0.10    -0.00   0.01   0.11
   2   6     0.03  -0.04  -0.00     0.22   0.23   0.02     0.19   0.15   0.04
   3   8     0.00   0.27   0.00     0.00  -0.09  -0.00     0.07   0.00  -0.16
   4   6    -0.03  -0.04   0.00    -0.22   0.22  -0.02     0.19  -0.15   0.04
   5   6    -0.05  -0.12  -0.06     0.02   0.00  -0.10    -0.00  -0.01   0.12
   6   1    -0.05  -0.02  -0.09    -0.04   0.02  -0.06    -0.04   0.01  -0.05
   7   1     0.06   0.07   0.07     0.01  -0.05  -0.03     0.01  -0.04  -0.01
   8   1    -0.03   0.03  -0.02    -0.07  -0.06  -0.10    -0.06  -0.07  -0.12
   9   1     0.29   0.23  -0.03    -0.38  -0.29   0.01    -0.32  -0.25  -0.01
  10   1    -0.43  -0.31   0.00    -0.27  -0.22  -0.03    -0.37  -0.29  -0.02
  11   1    -0.29   0.23   0.03     0.38  -0.29  -0.01    -0.32   0.25  -0.01
  12   1     0.43  -0.31  -0.00     0.27  -0.22   0.03    -0.37   0.29  -0.02
  13   1    -0.06   0.07  -0.07    -0.01  -0.05   0.03     0.01   0.04  -0.01
  14   1     0.03   0.03   0.02     0.06  -0.06   0.10    -0.07   0.07  -0.12
  15   1     0.05  -0.02   0.09     0.04   0.02   0.06    -0.04  -0.01  -0.05
                     22                     23                     24
                        a                      a                      a 
 Frequencies --  1393.2765              1393.9019              1460.2523
 Red. masses --     3.1548                 3.1382                 1.8729
 Frc consts  --     0.0000                 0.0000                 0.0000
 IR Inten    --     5.6446                13.9038                 1.0678
 Raman Activ --     0.0000                 0.0000                 0.0000
 Depolar     --     0.0000                 0.0000                 0.0000
 Atom AN      X      Y      Z        X      Y      Z        X      Y      Z
   1   6    -0.20  -0.16  -0.16    -0.20  -0.16  -0.17    -0.00  -0.05   0.02
   2   6     0.05   0.05  -0.02     0.05   0.04   0.01     0.00   0.03   0.18
   3   8    -0.00  -0.01   0.00     0.02  -0.00  -0.04    -0.04  -0.00   0.05
   4   6    -0.05   0.05   0.02     0.05  -0.04   0.01     0.00  -0.03   0.18
   5   6     0.20  -0.16   0.16    -0.19   0.16  -0.17    -0.00   0.05   0.02
   6   1     0.28   0.11   0.14     0.28   0.09   0.17     0.09   0.09  -0.06
   7   1     0.23   0.27   0.09     0.22   0.29   0.11    -0.04  -0.03  -0.00
   8   1     0.13   0.13   0.32     0.13   0.12   0.31    -0.07   0.15   0.01
   9   1    -0.05  -0.09   0.08    -0.07  -0.06   0.02    -0.11   0.17  -0.41
  10   1    -0.09  -0.00   0.05    -0.09  -0.05   0.01     0.21  -0.24  -0.32
  11   1     0.05  -0.09  -0.08    -0.07   0.06   0.02    -0.11  -0.17  -0.41
  12   1     0.09  -0.00  -0.05    -0.09   0.05   0.01     0.21   0.24  -0.32
  13   1    -0.23   0.27  -0.09     0.22  -0.29   0.11    -0.04   0.03  -0.00
  14   1    -0.13   0.13  -0.32     0.13  -0.12   0.31    -0.07  -0.15   0.01
  15   1    -0.28   0.11  -0.14     0.28  -0.09   0.17     0.09  -0.09  -0.06
                     25                     26                     27
                        a                      a                      a 
 Frequencies --  1461.7308              1483.9371              1486.5728
 Red. masses --     1.7692                 1.5691                 1.5633
 Frc consts  --     0.0000                 0.0000                 0.0000
 IR Inten    --     0.0227                 3.4192                 3.3285
 Raman Activ --     0.0000                 0.0000                 0.0000
 Depolar     --     0.0000                 0.0000                 0.0000
 Atom AN      X      Y      Z        X      Y      Z        X      Y      Z
   1   6     0.05  -0.03   0.03    -0.10   0.10   0.05    -0.08   0.12   0.03
   2   6     0.01  -0.04  -0.17    -0.03   0.02   0.04    -0.03   0.00  -0.06
   3   8    -0.00   0.01   0.00    -0.01  -0.00   0.01     0.00   0.01  -0.00
   4   6    -0.01  -0.04   0.17    -0.03  -0.02   0.04     0.03   0.00   0.06
   5   6    -0.05  -0.03  -0.03    -0.10  -0.10   0.05     0.08   0.12  -0.03
   6   1     0.05   0.08  -0.10    -0.22  -0.07  -0.13    -0.26  -0.11  -0.10
   7   1    -0.12  -0.10  -0.02     0.39  -0.04  -0.21     0.34  -0.03  -0.18
   8   1    -0.11   0.16  -0.06     0.25  -0.31   0.18     0.24  -0.34   0.14
   9   1     0.11  -0.16   0.38    -0.00   0.05  -0.07     0.06  -0.04   0.14
  10   1    -0.19   0.25   0.31     0.05  -0.06  -0.08    -0.06   0.09   0.10
  11   1    -0.11  -0.16  -0.38    -0.00  -0.05  -0.07    -0.06  -0.04  -0.14
  12   1     0.19   0.25  -0.31     0.05   0.06  -0.08     0.06   0.09  -0.10
  13   1     0.12  -0.10   0.02     0.39   0.04  -0.21    -0.34  -0.03   0.18
  14   1     0.11   0.16   0.06     0.25   0.31   0.18    -0.24  -0.34  -0.14
  15   1    -0.05   0.08   0.10    -0.22   0.07  -0.13     0.26  -0.11   0.10
                     28                     29                     30
                        a                      a                      a 
 Frequencies --  1493.6077              1496.1984              2888.9676
 Red. masses --     1.5375                 1.6071                 1.7577
 Frc consts  --     0.0000                 0.0000                 0.0000
 IR Inten    --     1.7366                 0.6077               118.9920
 Raman Activ --     0.0000                 0.0000                 0.0000
 Depolar     --     0.0000                 0.0000                 0.0000
 Atom AN      X      Y      Z        X      Y      Z        X      Y      Z
   1   6     0.04   0.08  -0.12    -0.06  -0.06   0.12     0.00   0.00  -0.00
   2   6     0.01   0.03   0.03    -0.03  -0.02   0.06     0.09  -0.12   0.11
   3   8    -0.01  -0.00   0.02    -0.00  -0.00   0.00    -0.01   0.00   0.01
   4   6     0.01  -0.03   0.03     0.03  -0.02  -0.06     0.09   0.12   0.11
   5   6     0.04  -0.08  -0.12     0.06  -0.06  -0.12     0.00  -0.00  -0.00
   6   1    -0.13  -0.28   0.39     0.09   0.26  -0.40     0.00  -0.00  -0.00
   7   1    -0.11   0.23   0.21     0.17  -0.23  -0.24     0.01  -0.01   0.02
   8   1     0.06  -0.28  -0.12    -0.02   0.22   0.14    -0.00  -0.00   0.00
   9   1    -0.03   0.04  -0.10    -0.01   0.05  -0.10    -0.03   0.04   0.06
  10   1     0.06  -0.07  -0.10     0.09  -0.03  -0.07    -0.28   0.40  -0.47
  11   1    -0.03  -0.04  -0.10     0.01   0.05   0.10    -0.03  -0.04   0.06
  12   1     0.06   0.07  -0.10    -0.09  -0.03   0.07    -0.28  -0.40  -0.47
  13   1    -0.11  -0.23   0.21    -0.17  -0.23   0.24     0.01   0.01   0.02
  14   1     0.06   0.27  -0.12     0.02   0.22  -0.14    -0.00   0.00   0.00
  15   1    -0.13   0.28   0.39    -0.09   0.26   0.40     0.00   0.00  -0.00
                     31                     32                     33
                        a                      a                      a 
 Frequencies --  2891.1538              2965.3800              2965.9038
 Red. masses --     1.7529                 1.6665                 1.6605
 Frc consts  --     0.0000                 0.0000                 0.0000
 IR Inten    --    48.7870                32.2985                65.3426
 Raman Activ --     0.0000                 0.0000                 0.0000
 Depolar     --     0.0000                 0.0000                 0.0000
 Atom AN      X      Y      Z        X      Y      Z        X      Y      Z
   1   6     0.00  -0.01   0.00     0.01  -0.00  -0.00     0.01  -0.01  -0.00
   2   6    -0.09   0.11  -0.11    -0.09   0.12   0.09    -0.09   0.12   0.09
   3   8     0.00   0.02  -0.00    -0.00  -0.00   0.00    -0.02   0.00   0.01
   4   6     0.09   0.11   0.11     0.09   0.12  -0.09    -0.09  -0.12   0.09
   5   6    -0.00  -0.01  -0.00    -0.01  -0.00   0.00     0.01   0.01  -0.00
   6   1    -0.01   0.02   0.01    -0.02   0.04   0.02    -0.02   0.04   0.02
   7   1    -0.01   0.01  -0.02     0.00   0.00  -0.00    -0.00   0.00  -0.01
   8   1     0.01   0.00  -0.01    -0.01  -0.01   0.01    -0.02  -0.01   0.01
   9   1     0.03  -0.03  -0.05     0.38  -0.48  -0.29     0.38  -0.48  -0.29
  10   1     0.28  -0.40   0.47    -0.04   0.06  -0.04    -0.05   0.07  -0.05
  11   1    -0.03  -0.03   0.05    -0.38  -0.48   0.29     0.38   0.48  -0.29
  12   1    -0.28  -0.40  -0.47     0.04   0.06   0.04    -0.05  -0.07  -0.05
  13   1     0.01   0.01   0.02    -0.00   0.00   0.00    -0.00  -0.00  -0.01
  14   1    -0.01   0.00   0.01     0.01  -0.01  -0.01    -0.02   0.01   0.01
  15   1     0.01   0.02  -0.01     0.02   0.04  -0.02    -0.02  -0.04   0.02
                     34                     35                     36
                        a                      a                      a 
 Frequencies --  3036.9535              3037.0865              3042.0075
 Red. masses --     1.9268                 1.9263                 1.6213
 Frc consts  --     0.0000                 0.0000                 0.0000
 IR Inten    --    75.4011                43.9563                 1.9741
 Raman Activ --     0.0000                 0.0000                 0.0000
 Depolar     --     0.0000                 0.0000                 0.0000
 Atom AN      X      Y      Z        X      Y      Z        X      Y      Z
   1   6    -0.13   0.16   0.02    -0.13   0.16   0.02    -0.00  -0.05   0.16
   2   6    -0.01   0.02   0.00    -0.01   0.01   0.01     0.00  -0.00   0.01
   3   8    -0.00   0.00   0.00    -0.00  -0.00   0.00     0.00   0.00   0.00
   4   6     0.01   0.02  -0.00    -0.01  -0.01   0.01    -0.00  -0.00  -0.01
   5   6     0.13   0.16  -0.02    -0.13  -0.16   0.02     0.00  -0.05  -0.16
   6   1     0.32  -0.47  -0.23     0.32  -0.47  -0.23     0.14  -0.22  -0.08
   7   1     0.07  -0.15   0.22     0.07  -0.13   0.20    -0.21   0.36  -0.46
   8   1     0.05   0.05  -0.04     0.06   0.06  -0.05     0.07   0.02  -0.03
   9   1     0.03  -0.03  -0.02     0.03  -0.04  -0.02     0.01  -0.01  -0.01
  10   1     0.01  -0.01   0.02     0.00  -0.00   0.00    -0.01   0.01  -0.01
  11   1    -0.03  -0.03   0.02     0.03   0.04  -0.02    -0.01  -0.01   0.01
  12   1    -0.01  -0.01  -0.02     0.00   0.00   0.00     0.01   0.01   0.01
  13   1    -0.07  -0.15  -0.22     0.07   0.13   0.20     0.21   0.37   0.46
  14   1    -0.05   0.05   0.04     0.06  -0.06  -0.05    -0.07   0.02   0.03
  15   1    -0.32  -0.47   0.23     0.32   0.47  -0.23    -0.14  -0.22   0.08
                     37                     38                     39
                        a                      a                      a 
 Frequencies --  3042.1671              3053.0710              3053.5191
 Red. masses --     1.6304                 1.6085                 1.5987
 Frc consts  --     0.0000                 0.0000                 0.0000
 IR Inten    --    75.1631                14.8072                45.6534
 Raman Activ --     0.0000                 0.0000                 0.0000
 Depolar     --     0.0000                 0.0000                 0.0000
 Atom AN      X      Y      Z        X      Y      Z        X      Y      Z
   1   6    -0.00   0.05  -0.16    -0.13  -0.08   0.07    -0.12  -0.08   0.07
   2   6    -0.00   0.00  -0.01    -0.00  -0.00   0.01    -0.00   0.00   0.00
   3   8     0.00  -0.00   0.00    -0.00  -0.00  -0.00    -0.00   0.00  -0.00
   4   6    -0.00  -0.00  -0.01     0.00  -0.00  -0.01    -0.00  -0.00   0.00
   5   6    -0.00  -0.05  -0.16     0.13  -0.08  -0.07    -0.12   0.08   0.07
   6   1    -0.13   0.21   0.07    -0.08   0.08   0.05    -0.09   0.09   0.06
   7   1     0.22  -0.37   0.47    -0.00  -0.04   0.04    -0.00  -0.03   0.04
   8   1    -0.07  -0.02   0.03     0.53   0.23  -0.35     0.52   0.23  -0.35
   9   1    -0.01   0.01   0.00     0.01  -0.01  -0.01     0.01  -0.01  -0.01
  10   1     0.01  -0.02   0.02    -0.01   0.01  -0.01    -0.00   0.00  -0.00
  11   1    -0.01  -0.01   0.00    -0.01  -0.01   0.01     0.01   0.01  -0.01
  12   1     0.01   0.02   0.02     0.01   0.01   0.01    -0.00  -0.00  -0.00
  13   1     0.21   0.37   0.46     0.00  -0.04  -0.04    -0.00   0.03   0.04
  14   1    -0.07   0.02   0.03    -0.53   0.23   0.35     0.52  -0.23  -0.35
  15   1    -0.13  -0.20   0.07     0.08   0.08  -0.05    -0.09  -0.09   0.06
