      -----------------------------------------------------------      
     |                   =====================                   |     
     |                           x T B                           |     
     |                   =====================                   |     
     |                         S. Grimme                         |     
     |          Mulliken Center for Theoretical Chemistry        |     
     |                    University of Bonn                     |     
      -----------------------------------------------------------      

   * xtb version 6.7.1 (edcfbbe) compiled by 'albert@albert-system' on 2024-07-22

   xtb is free software: you can redistribute it and/or modify it under
   the terms of the GNU Lesser General Public License as published by
   the Free Software Foundation, either version 3 of the License, or
   (at your option) any later version.
   
   xtb is distributed in the hope that it will be useful,
   but WITHOUT ANY WARRANTY; without even the implied warranty of
   MERCHANTABILITY or FITNESS FOR A PARTICULAR PURPOSE.  See the
   GNU Lesser General Public License for more details.
   
   Cite this work as:
   * C. Bannwarth, E. Caldeweyher, S. Ehlert, A. Hansen, P. Pracht,
     J. Seibert, S. Spicher, S. Grimme, WIREs Comput. Mol. Sci., 2020, 11,
     e01493. DOI: 10.1002/wcms.1493
   
   for GFN2-xTB:
   * C. Bannwarth, S. Ehlert and S. Grimme., J. Chem. Theory Comput., 2019,
     15, 1652-1671. DOI: 10.1021/acs.jctc.8b01176
   for GFN1-xTB:
   * S. Grimme, C. Bannwarth, P. Shushkov, J. Chem. Theory Comput., 2017,
     13, 1989-2009. DOI: 10.1021/acs.jctc.7b00118
   for GFN0-xTB:
   * P. Pracht, E. Caldeweyher, S. Ehlert, S. Grimme, ChemRxiv, 2019, preprint.
     DOI: 10.26434/chemrxiv.8326202.v1
   for GFN-FF:
   * S. Spicher and S. Grimme, Angew. Chem. Int. Ed., 2020, 59, 15665-15673.
     DOI: 10.1002/anie.202004239
   
   for ALPB and GBSA implicit solvation:
   * S. Ehlert, M. Stahn, S. Spicher, S. Grimme, J. Chem. Theory Comput.,
     2021, 17, 4250-4261. DOI: 10.1021/acs.jctc.1c00471
   
   for ddCOSMO and CPCM-X implicit solvation:
   * M. Stahn, S. Ehlert, S. Grimme, J. Phys. Chem. A,
     2023, XX, XXXX-XXXX. DOI: 10.1021/acs.jpca.3c04382
   
   for DFT-D4:
   * E. Caldeweyher, C. Bannwarth and S. Grimme, J. Chem. Phys., 2017,
     147, 034112. DOI: 10.1063/1.4993215
   * E. Caldeweyher, S. Ehlert, A. Hansen, H. Neugebauer, S. Spicher,
     C. Bannwarth and S. Grimme, J. Chem. Phys., 2019, 150, 154122.
     DOI: 10.1063/1.5090222
   * E. Caldeweyher, J.-M. Mewes, S. Ehlert and S. Grimme, Phys. Chem. Chem. Phys.
     2020, 22, 8499-8512. DOI: 10.1039/D0CP00502A
   
   for sTDA-xTB:
   * S. Grimme and C. Bannwarth, J. Chem. Phys., 2016, 145, 054103.
     DOI: 10.1063/1.4959605
   
   in the mass-spec context:
   * V. Asgeirsson, C. Bauer and S. Grimme, Chem. Sci., 2017, 8, 4879.
     DOI: 10.1039/c7sc00601b
   * J. Koopman and S. Grimme, ACS Omega 2019, 4, 12, 15120-15133.
     DOI: 10.1021/acsomega.9b02011
   
   for metadynamics refer to:
   * S. Grimme, J. Chem. Theory Comput., 2019, 155, 2847-2862
     DOI: 10.1021/acs.jctc.9b00143
   
   for SPH calculations refer to:
   * S. Spicher and S. Grimme, J. Chem. Theory Comput., 2021, 17, 1701-1714
     DOI: 10.1021/acs.jctc.0c01306
   
   for ONIOM refer to:
   * C. Plett, A. Katbashev, S. Ehlert, S. Grimme, M. Bursch,
     Phys. Chem. Chem. Phys., 2023, 25, 17860-17868. DOI: 10.1039/D3CP02178E
   
   for DIPRO refer to:
   * J. Kohn, N. Gildemeister, S. Grimme, D. Fazzi, A. Hansen,
     J. Chem. Phys., 2023, just accepted.
   
   for PTB refer to:
   * S. Grimme, M. Mueller, A. Hansen, J. Chem. Phys., 2023, 158, 124111.
     DOI: 10.1063/5.0137838
   
   with help from (in alphabetical order)
   P. Atkinson, C. Bannwarth, F. Bohle, G. Brandenburg, E. Caldeweyher
   M. Checinski, S. Dohm, S. Ehlert, S. Ehrlich, I. Gerasimov, C. Hölzer
   A. Katbashev, J. Kohn, J. Koopman, C. Lavigne, S. Lehtola, F. März, M. Müller,
   F. Musil, H. Neugebauer, J. Pisarek, C. Plett, P. Pracht, F. Pultar,
   J. Seibert, P. Shushkov, S. Spicher, M. Stahn, M. Steiner, T. Strunk,
   J. Stückrath, T. Rose, and J. Unsleber
   
 * started run on 2025/04/07 at 02:45:59.831     
   ID    Z sym.   atoms
    1    6 C      1, 2, 4, 5
    2    8 O      3
    3    1 H      6-15

           -------------------------------------------------
          |                Calculation Setup                |
           -------------------------------------------------

          program call               : /srv/scratch/z5358697/.xtb/bin/xtb xtb_rrho.coord --gfn2 --bhess vtight --chrg 0 --enso --norestart -I rrho-xcontrol-inp --parallel 1 --alpb water
          hostname                   : k140
          coordinate file            : xtb_rrho.coord
          omp threads                :                     1


           -------------------------------------------------
          |                 G F N 2 - x T B                 |
           -------------------------------------------------

        Reference                      10.1021/acs.jctc.8b01176
      * Hamiltonian:
        H0-scaling (s, p, d)           1.850000    2.230000    2.230000
        zeta-weighting                 0.500000
      * Dispersion:
        s8                             2.700000
        a1                             0.520000
        a2                             5.000000
        s9                             5.000000
      * Repulsion:
        kExp                           1.500000    1.000000
        rExp                           1.000000
      * Coulomb:
        alpha                          2.000000
        third order                    shell-resolved
        anisotropic                    true
        a3                             3.000000
        a5                             4.000000
        cn-shift                       1.200000
        cn-exp                         4.000000
        max-rad                        5.000000

      * Solvation model:               ALPB
        Solvent                        water
        Parameter file                 internal GFN2-xTB/ALPB
        Dielectric constant                8.0200E+01
        Reference state                gsolv [1 M gas/solution]
        Free energy shift                  1.0808E-03 Eh       6.7819E-01 kcal/mol
        Temperature                        2.9815E+02 K
        Density                            1.0000E+00 kg/L
        Solvent mass                       1.8000E+01 g/mol
        Interaction kernel             P16
        Born radius scaling (c1)           1.4744E+00
        Born radii integrator          GBOBC
        Born offset                        0.0000E+00 a0       0.0000E+00 AA
        H-bond correction              true
        Ion screening                  false
        Surface tension                    1.0000E-05 Eh       1.5569E+01 dyn/cm
        Grid points                               974 per atom

          ...................................................
          :                      SETUP                      :
          :.................................................:
          :  # basis functions                  30          :
          :  # atomic orbitals                  30          :
          :  # shells                           20          :
          :  # electrons                        32          :
          :  max. iterations                   250          :
          :  Hamiltonian                  GFN2-xTB          :
          :  restarted?                      false          :
          :  GBSA solvation                   true          :
          :  PC potential                    false          :
          :  electronic temp.          300.0000000     K    :
          :  accuracy                    1.0000000          :
          :  -> integral cutoff          0.2500000E+02      :
          :  -> integral neglect         0.1000000E-07      :
          :  -> SCF convergence          0.1000000E-05 Eh   :
          :  -> wf. convergence          0.1000000E-03 e    :
          :  Broyden damping             0.4000000          :
          :  net charge                          0          :
          :  unpaired electrons                  0          :
          ...................................................

 iter      E             dE          RMSdq      gap      omega  full diag
   1    -17.8840251 -0.178840E+02  0.353E+00   11.34       0.0  T
   2    -17.9229777 -0.389526E-01  0.170E+00   10.93       1.0  T
   3    -17.9236242 -0.646522E-03  0.712E-01   10.99       1.0  T
   4    -17.9237785 -0.154261E-03  0.115E-01   11.00       1.0  T
   5    -17.9237943 -0.158676E-04  0.618E-02   11.02       1.0  T
   6    -17.9237955 -0.118847E-05  0.737E-03   11.03       3.5  T
   7    -17.9237957 -0.144914E-06  0.237E-03   11.03      10.9  T
   8    -17.9237957 -0.501570E-08  0.110E-03   11.03      23.5  T
   9    -17.9237957 -0.388976E-08  0.151E-04   11.03     171.3  T
  10    -17.9237957  0.664855E-10  0.109E-04   11.03     237.2  T

   *** convergence criteria satisfied after 10 iterations ***

         #    Occupation            Energy/Eh            Energy/eV
      -------------------------------------------------------------
         1        2.0000           -0.6923884             -18.8408
       ...           ...                  ...                  ...
        10        2.0000           -0.4903659             -13.3435
        11        2.0000           -0.4689049             -12.7596
        12        2.0000           -0.4600980             -12.5199
        13        2.0000           -0.4591618             -12.4944
        14        2.0000           -0.4441838             -12.0869
        15        2.0000           -0.4269751             -11.6186
        16        2.0000           -0.3998002             -10.8791 (HOMO)
        17                          0.0056000               0.1524 (LUMO)
        18                          0.0737609               2.0071
        19                          0.1143461               3.1115
        20                          0.1189315               3.2363
        21                          0.1242421               3.3808
       ...                                ...                  ...
        30                          0.2824692               7.6864
      -------------------------------------------------------------
                  HL-Gap            0.4054002 Eh           11.0315 eV
             Fermi-level           -0.1971001 Eh           -5.3634 eV

 SCC (total)                   0 d,  0 h,  0 min,  0.014 sec
 SCC setup                      ...        0 min,  0.001 sec (  4.923%)
 Dispersion                     ...        0 min,  0.000 sec (  0.388%)
 classical contributions        ...        0 min,  0.000 sec (  0.084%)
 integral evaluation            ...        0 min,  0.001 sec (  4.888%)
 iterations                     ...        0 min,  0.011 sec ( 76.212%)
 molecular gradient             ...        0 min,  0.002 sec ( 12.766%)
 printout                       ...        0 min,  0.000 sec (  0.659%)

         :::::::::::::::::::::::::::::::::::::::::::::::::::::
         ::                     SUMMARY                     ::
         :::::::::::::::::::::::::::::::::::::::::::::::::::::
         :: total energy             -17.721486884326 Eh    ::
         :: total w/o Gsasa/hb       -17.721837405313 Eh    ::
         :: gradient norm              0.025736158039 Eh/a0 ::
         :: HOMO-LUMO gap             11.031501239566 eV    ::
         ::.................................................::
         :: SCC energy               -17.923783370150 Eh    ::
         :: -> isotropic ES            0.027460367355 Eh    ::
         :: -> anisotropic ES          0.004010076297 Eh    ::
         :: -> anisotropic XC          0.006693767144 Eh    ::
         :: -> dispersion             -0.007227932240 Eh    ::
         :: -> Gsolv                  -0.003528069754 Eh    ::
         ::    -> Gelec               -0.003878590740 Eh    ::
         ::    -> Gsasa                0.000234133319 Eh    ::
         ::    -> Ghb                 -0.000964372031 Eh    ::
         ::    -> Gshift               0.001080759698 Eh    ::
         :: repulsion energy           0.202296485823 Eh    ::
         :: add. restraining           0.000000000000 Eh    ::
         :: total charge              -0.000000000000 e     ::
         :::::::::::::::::::::::::::::::::::::::::::::::::::::

metadynamics with 1 initial structures loaded
           -------------------------------------------------
          |           Optimal kpush determination           |
           -------------------------------------------------
      ----------------------------------------------------------- 
     |                   =====================                   |
     |                        A N C O P T                        |
     |                   =====================                   |
     |               Approximate Normal Coordinate               |
     |                Rational Function Optimizer                |
      ----------------------------------------------------------- 
target rmsd / Å         0.100000
unbiased initial rmsd   0.103903
 
iter. min.        max.        rmsd       kpush
      ----------------------------------------------------------- 
     |                   =====================                   |
     |                        A N C O P T                        |
     |                   =====================                   |
     |               Approximate Normal Coordinate               |
     |                Rational Function Optimizer                |
      ----------------------------------------------------------- 
 1    0.000000    0.681818    0.010905   -0.340909
      ----------------------------------------------------------- 
     |                   =====================                   |
     |                        A N C O P T                        |
     |                   =====================                   |
     |               Approximate Normal Coordinate               |
     |                Rational Function Optimizer                |
      ----------------------------------------------------------- 
 2    0.000000    0.340909    0.013620   -0.170455
      ----------------------------------------------------------- 
     |                   =====================                   |
     |                        A N C O P T                        |
     |                   =====================                   |
     |               Approximate Normal Coordinate               |
     |                Rational Function Optimizer                |
      ----------------------------------------------------------- 
 3    0.000000    0.170455    0.016940   -0.085227
      ----------------------------------------------------------- 
     |                   =====================                   |
     |                        A N C O P T                        |
     |                   =====================                   |
     |               Approximate Normal Coordinate               |
     |                Rational Function Optimizer                |
      ----------------------------------------------------------- 
 4    0.000000    0.085227    0.021789   -0.042614
      ----------------------------------------------------------- 
     |                   =====================                   |
     |                        A N C O P T                        |
     |                   =====================                   |
     |               Approximate Normal Coordinate               |
     |                Rational Function Optimizer                |
      ----------------------------------------------------------- 
 5    0.000000    0.042614    0.029028   -0.021307
      ----------------------------------------------------------- 
     |                   =====================                   |
     |                        A N C O P T                        |
     |                   =====================                   |
     |               Approximate Normal Coordinate               |
     |                Rational Function Optimizer                |
      ----------------------------------------------------------- 
 6    0.000000    0.021307    0.038336   -0.010653
      ----------------------------------------------------------- 
     |                   =====================                   |
     |                        A N C O P T                        |
     |                   =====================                   |
     |               Approximate Normal Coordinate               |
     |                Rational Function Optimizer                |
      ----------------------------------------------------------- 
 7    0.000000    0.010653    0.048093   -0.005327
      ----------------------------------------------------------- 
     |                   =====================                   |
     |                        A N C O P T                        |
     |                   =====================                   |
     |               Approximate Normal Coordinate               |
     |                Rational Function Optimizer                |
      ----------------------------------------------------------- 
 8    0.000000    0.005327    0.056945   -0.002663
      ----------------------------------------------------------- 
     |                   =====================                   |
     |                        A N C O P T                        |
     |                   =====================                   |
     |               Approximate Normal Coordinate               |
     |                Rational Function Optimizer                |
      ----------------------------------------------------------- 
 9    0.000000    0.002663    0.066118   -0.001332
      ----------------------------------------------------------- 
     |                   =====================                   |
     |                        A N C O P T                        |
     |                   =====================                   |
     |               Approximate Normal Coordinate               |
     |                Rational Function Optimizer                |
      ----------------------------------------------------------- 
10    0.000000    0.001332    0.075690   -0.000666
final kpush: -0.000666
           -------------------------------------------------
          |            Biased Numerical Hessian             |
           -------------------------------------------------
kpush                :  -0.00067
alpha                :   1.00000
step length          :   0.00500
SCC accuracy         :   0.30000
Hessian scale factor :   1.00000
frozen atoms in %    :   0.00000    0
RMS gradient         :   0.00002
estimated CPU  time      0.01 min
estimated wall time      0.01 min

writing file <hessian>.

 projected vibrational frequencies (cm⁻¹)
eigval :       -0.00    -0.00     0.00     0.00     0.00     0.00
eigval :       45.65   134.27   207.16   269.78   289.35   437.41
eigval :      478.67   807.63   816.86   864.84   936.08  1047.54
eigval :     1068.02  1082.24  1108.93  1123.49  1181.10  1251.67
eigval :     1280.33  1326.51  1327.18  1393.28  1393.90  1460.25
eigval :     1461.73  1483.94  1486.57  1493.61  1496.20  2888.97
eigval :     2891.15  2965.38  2965.90  3036.95  3037.09  3042.01
eigval :     3042.17  3053.07  3053.52
           -------------------------------------------------
          |                Property Printout                |
           -------------------------------------------------

    * Orbital Energies and Occupations

         #    Occupation            Energy/Eh            Energy/eV
      -------------------------------------------------------------
         1        2.0000           -0.6966607             -18.9571
       ...           ...                  ...                  ...
         4        2.0000           -0.5962757             -16.2255
         5        2.0000           -0.5645925             -15.3633
         6        2.0000           -0.5491812             -14.9440
         7        2.0000           -0.5458242             -14.8526
         8        2.0000           -0.5166964             -14.0600
         9        2.0000           -0.4969288             -13.5221
        10        2.0000           -0.4920398             -13.3891
        11        2.0000           -0.4681524             -12.7391
        12        2.0000           -0.4615292             -12.5588
        13        2.0000           -0.4602920             -12.5252
        14        2.0000           -0.4438188             -12.0769
        15        2.0000           -0.4263997             -11.6029
        16        2.0000           -0.3987013             -10.8492 (HOMO)
        17                          0.0234677               0.6386 (LUMO)
        18                          0.0864261               2.3518
        19                          0.1185652               3.2263
        20                          0.1230758               3.3491
        21                          0.1235413               3.3617
        22                          0.1493234               4.0633
        23                          0.1681705               4.5762
        24                          0.1953484               5.3157
        25                          0.2007072               5.4615
        26                          0.2081761               5.6648
        27                          0.2475037               6.7349
       ...                                ...                  ...
        30                          0.2992438               8.1428
      -------------------------------------------------------------
                  HL-Gap            0.4221691 Eh           11.4878 eV
             Fermi-level           -0.1876168 Eh           -5.1053 eV

     #   Z          covCN         q      C6AA      α(0)
     1   6 C        3.750    -0.125    22.970     6.835
     2   6 C        3.685     0.077    19.484     6.320
     3   8 O        1.698    -0.370    20.270     6.079
     4   6 C        3.685     0.077    19.484     6.320
     5   6 C        3.750    -0.125    22.970     6.835
     6   1 H        0.925     0.047     2.355     2.400
     7   1 H        0.925     0.051     2.305     2.374
     8   1 H        0.925     0.054     2.273     2.358
     9   1 H        0.924     0.052     2.300     2.371
    10   1 H        0.924     0.030     2.593     2.518
    11   1 H        0.924     0.052     2.300     2.371
    12   1 H        0.924     0.030     2.593     2.518
    13   1 H        0.925     0.051     2.305     2.374
    14   1 H        0.925     0.054     2.273     2.358
    15   1 H        0.925     0.047     2.355     2.400

 Mol. C6AA /au·bohr⁶  :       1459.596890
 Mol. C8AA /au·bohr⁸  :      29709.723750
 Mol. α(0) /au        :         56.430105


Wiberg/Mayer (AO) data.
largest (>0.10) Wiberg bond orders for each atom

 ---------------------------------------------------------------------------
     #   Z sym  total        # sym  WBO       # sym  WBO       # sym  WBO
 ---------------------------------------------------------------------------
     1   6 C    3.994 --     2 C    1.011     7 H    0.987     6 H    0.985
                             8 H    0.984
     2   6 C    3.948 --     1 C    1.011     3 O    0.973     9 H    0.971
                            10 H    0.969
     3   8 O    2.047 --     4 C    0.973     2 C    0.973
     4   6 C    3.948 --     5 C    1.011     3 O    0.973    11 H    0.971
                            12 H    0.969
     5   6 C    3.994 --     4 C    1.011    13 H    0.987    15 H    0.985
                            14 H    0.984
     6   1 H    0.998 --     1 C    0.985
     7   1 H    0.997 --     1 C    0.987
     8   1 H    0.997 --     1 C    0.984
     9   1 H    0.997 --     2 C    0.971
    10   1 H    0.999 --     2 C    0.969
    11   1 H    0.997 --     4 C    0.971
    12   1 H    0.999 --     4 C    0.969
    13   1 H    0.997 --     5 C    0.987
    14   1 H    0.997 --     5 C    0.984
    15   1 H    0.998 --     5 C    0.985
 ---------------------------------------------------------------------------

Topologies differ in total number of bonds
Writing topology from bond orders to xtbtopo.mol

molecular dipole:
                 x           y           z       tot (Debye)
 q only:        0.000       0.636       0.000
   full:        0.000       0.751       0.000       1.910
molecular quadrupole (traceless):
                xx          xy          yy          xz          yz          zz
 q only:        2.902       0.000      -2.729      -1.152      -0.001      -0.172
  q+dip:        2.193       0.000      -2.640      -0.814      -0.001       0.447
   full:        2.593       0.000      -2.883      -1.149      -0.001       0.289

           -------------------------------------------------
          |                Geometry Summary                 |
           -------------------------------------------------

      molecular mass/u    :       74.1217560
   center of mass at/Å    :        0.0000477      -0.0090033       0.0000057
  moments of inertia/u·Å² :        0.5600088E+02   0.1680173E+03   0.1792301E+03
rotational constants/cm⁻¹ :        0.3010244E+00   0.1003327E+00   0.9405581E-01

 * 14 selected distances

     #   Z          #   Z                                           value/Å
     1   6 C        2   6 C                                       1.5268397
     2   6 C        3   8 O                                       1.4197749
     3   8 O        4   6 C                                       1.4197749
     4   6 C        5   6 C                                       1.5268398 (max)
     1   6 C        6   1 H                                       1.0870264
     1   6 C        7   1 H                                       1.0871799
     1   6 C        8   1 H                                       1.0856338
     2   6 C        9   1 H                                       1.0927214
     2   6 C       10   1 H                                       1.0973145
     4   6 C       11   1 H                                       1.0927214
     4   6 C       12   1 H                                       1.0973146
     5   6 C       13   1 H                                       1.0871799
     5   6 C       14   1 H                                       1.0856338 (min)
     5   6 C       15   1 H                                       1.0870264

 * 3 distinct bonds (by element types)

   Z      Z             #   av. dist./Å        max./Å        min./Å
   1 H    6 C          10     1.0899752     1.0973146     1.0856338
   6 C    6 C           2     1.5268397     1.5268398     1.5268397
   6 C    8 O           2     1.4197749     1.4197749     1.4197749

           -------------------------------------------------
          |               Frequency Printout                |
           -------------------------------------------------
 projected vibrational frequencies (cm⁻¹)
eigval :       -0.00    -0.00     0.00     0.00     0.00     0.00
eigval :       45.65   134.27   207.16   269.78   289.35   437.41
eigval :      478.67   807.63   816.86   864.84   936.08  1047.54
eigval :     1068.02  1082.24  1108.93  1123.49  1181.10  1251.67
eigval :     1280.33  1326.51  1327.18  1393.28  1393.90  1460.25
eigval :     1461.73  1483.94  1486.57  1493.61  1496.20  2888.97
eigval :     2891.15  2965.38  2965.90  3036.95  3037.09  3042.01
eigval :     3042.17  3053.07  3053.52
 reduced masses (amu)
   1: 10.00   2: 11.76   3: 10.96   4:  9.44   5: 11.35   6:  8.53   7:  7.98   8:  4.96
   9:  1.33  10:  4.91  11:  8.09  12: 10.70  13:  9.07  14:  2.15  15:  5.46  16:  6.34
  17:  8.20  18:  7.98  19:  9.29  20:  6.98  21:  8.80  22:  6.44  23:  6.67  24:  2.33
  25:  2.60  26:  3.59  27:  3.08  28:  3.15  29:  3.14  30:  1.87  31:  1.77  32:  1.57
  33:  1.56  34:  1.54  35:  1.61  36:  1.76  37:  1.75  38:  1.67  39:  1.66  40:  1.93
  41:  1.93  42:  1.62  43:  1.63  44:  1.61  45:  1.60
 IR intensities (km·mol⁻¹)
   1:  0.22   2:  0.74   3:  0.01   4:  0.84   5:  0.01   6:  1.85   7:  0.12   8:  5.31
   9:  0.27  10:  3.64  11:  0.37  12: 16.00  13:  6.58  14:  9.41  15: 22.13  16:  3.92
  17: 12.29  18: 26.75  19: 37.14  20:  0.09  21:125.09  22: 49.71  23: 17.39  24:  2.02
  25:  1.95  26: 22.55  27: 23.53  28:  5.64  29: 13.90  30:  1.07  31:  0.02  32:  3.42
  33:  3.33  34:  1.74  35:  0.61  36:118.99  37: 48.79  38: 32.30  39: 65.34  40: 75.40
  41: 43.96  42:  1.97  43: 75.16  44: 14.81  45: 45.65
 Raman intensities (Ä⁴*amu⁻¹)
   1:  0.00   2:  0.00   3:  0.00   4:  0.00   5:  0.00   6:  0.00   7:  0.00   8:  0.00
   9:  0.00  10:  0.00  11:  0.00  12:  0.00  13:  0.00  14:  0.00  15:  0.00  16:  0.00
  17:  0.00  18:  0.00  19:  0.00  20:  0.00  21:  0.00  22:  0.00  23:  0.00  24:  0.00
  25:  0.00  26:  0.00  27:  0.00  28:  0.00  29:  0.00  30:  0.00  31:  0.00  32:  0.00
  33:  0.00  34:  0.00  35:  0.00  36:  0.00  37:  0.00  38:  0.00  39:  0.00  40:  0.00
  41:  0.00  42:  0.00  43:  0.00  44:  0.00  45:  0.00
 output can be read by thermo (or use thermo option).
 writing <g98.out> molden fake output.
 recommended (thermochemical) frequency scaling factor: 1.0
           -------------------------------------------------
          |             Thermodynamic Functions             |
           -------------------------------------------------

Molecule has the following symmetry elements: (C2) 
It seems to be the C2 point group
c2  symmetry found (for desy threshold:  0.10E+00) used in thermo

          ...................................................
          :                      SETUP                      :
          :.................................................:
          :  # frequencies                          39      :
          :  # imaginary freq.                       0      :
          :  linear?                             false      :
          :  only rotor calc.                    false      :
          :  symmetry                               c2      :
          :  rotational number                       2      :
          :  scaling factor                  1.0000000      :
          :  rotor cutoff                    0.0000000 cm⁻¹ :
          :  imag. cutoff                 -100.0000000 cm⁻¹ :
          :.................................................:

    mode    ω/cm⁻¹     T·S(HO)/kcal·mol⁻¹    T·S(FR)/kcal·mol⁻¹   T·S(vib)
   ------------------------------------------------------------------------
       1     45.65    -1.48997 (100.00%)    -1.08269 (  0.00%)    -1.48997
       2    134.27    -0.85987 (100.00%)    -0.76365 (  0.00%)    -0.85987
       3    207.16    -0.61675 (100.00%)    -0.63528 (  0.00%)    -0.61675
       4    269.78    -0.47632 (100.00%)    -0.55707 (  0.00%)    -0.47632
       5    289.35    -0.44060 (100.00%)    -0.53634 (  0.00%)    -0.44060
   ------------------------------------------------------------------------

   temp. (K)  partition function   enthalpy   heat capacity  entropy
                                   cal/mol     cal/K/mol   cal/K/mol   J/K/mol
 298.15  VIB   43.3                 2494.453     17.086     15.853
         ROT  0.496E+05              888.752      2.981     24.467
         INT  0.215E+07             3383.205     20.067     40.320
         TR   0.617E+27             1481.254      4.968     38.808
         TOT                        4864.4594    25.0349    79.1278   331.0709

       T/K    H(0)-H(T)+PV         H(T)/Eh          T*S/Eh         G(T)/Eh
   ------------------------------------------------------------------------
    298.15    0.775201E-02    0.141550E+00    0.375962E-01    0.103953E+00
   ------------------------------------------------------------------------

         :::::::::::::::::::::::::::::::::::::::::::::::::::::
         ::                  THERMODYNAMIC                  ::
         :::::::::::::::::::::::::::::::::::::::::::::::::::::
         :: total free energy         -17.619349637876 Eh   ::
         ::.................................................::
         :: total energy              -17.723303127590 Eh   ::
         :: zero point energy           0.133797668002 Eh   ::
         :: G(RRHO) w/o ZPVE           -0.029844178287 Eh   ::
         :: G(RRHO) contrib.            0.103953489714 Eh   ::
         :::::::::::::::::::::::::::::::::::::::::::::::::::::

optimized geometry written to: xtbopt.coord


           -------------------------------------------------
          | TOTAL ENERGY              -17.723303127590 Eh   |
          | TOTAL ENTHALPY            -17.581753450164 Eh   |
          | TOTAL FREE ENERGY         -17.619349637876 Eh   |
          | GRADIENT NORM               0.000024644684 Eh/α |
          | HOMO-LUMO GAP              11.487805087217 eV   |
           -------------------------------------------------

------------------------------------------------------------------------
 * finished run on 2025/04/07 at 02:46:01.376     
------------------------------------------------------------------------
 total:
 * wall-time:     0 d,  0 h,  0 min,  1.544 sec
 *  cpu-time:     0 d,  0 h,  0 min,  1.392 sec
 * ratio c/w:     0.901 speedup
 SCF:
 * wall-time:     0 d,  0 h,  0 min,  0.014 sec
 *  cpu-time:     0 d,  0 h,  0 min,  0.007 sec
 * ratio c/w:     0.496 speedup
 analytical hessian:
 * wall-time:     0 d,  0 h,  0 min,  0.377 sec
 *  cpu-time:     0 d,  0 h,  0 min,  0.371 sec
 * ratio c/w:     0.984 speedup

