15
CONF5
C 2.4551831833 -0.2631323245 -0.1255010914
C 1.0431473152 0.2642584529 -0.3655998543
C 0.0604763104 -0.2009980195 0.7086904985
C -1.3501057098 0.3357027556 0.5233183851
O -1.9920843072 -0.1604651838 -0.6702061572
H 3.1487612813 0.0819050107 -0.8991719226
H 2.8396138359 0.0727522368 0.8443129117
H 2.4690781157 -1.3589566112 -0.1276849821
H 1.0554541300 1.3621496152 -0.3892373016
H 0.6998113380 -0.0676470381 -1.3542333840
H 0.0280882561 -1.2984732808 0.7366941576
H 0.4160443965 0.1321120187 1.6935015095
H -1.9884295276 0.0154947672 1.3526024064
H -1.3392122413 1.4356240751 0.5105523200
H -1.5157462033 0.2003950353 -1.4283504486
15
CONF1
C 2.5727807321 -0.3136129392 -0.0050939107
C 1.2950990503 0.5207757065 0.0136997199
C 0.0349696344 -0.3437358673 -0.0231116823
C -1.2325313757 0.4935727177 0.0071979113
O -2.4290346334 -0.3111374562 -0.0323397555
H 3.4650171983 0.3204588418 0.0160946390
H 2.6155042962 -0.9824240594 0.8618022024
H 2.6227620704 -0.9335081547 -0.9072392254
H 1.2779757840 1.1475348021 0.9146161043
H 1.2887804653 1.2064323138 -0.8434924176
H 0.0357602201 -0.9637084699 -0.9291129588
H 0.0330536533 -1.0269924883 0.8377354111
H -1.2418121252 1.1357218107 0.9002078336
H -1.2833739473 1.1432566721 -0.8731508443
H -2.4245709714 -0.8633629222 0.7601303374
15
CONF7
C 2.5604024350 -0.3492724854 0.0017187187
C 1.2985189971 0.5075470838 0.0308429687
C 0.0250145939 -0.3356917539 -0.0168476976
C -1.2232861447 0.5207338000 0.0215905380
O -2.3772259857 -0.3458193402 -0.0344263164
H 2.6021049343 -0.9550786634 -0.9102141738
H 3.4630853355 0.2689064048 0.0351931207
H 2.5896022867 -1.0326578657 0.8575425376
H 1.2921730120 1.1235536620 0.9392154986
H 1.3049656130 1.2031093907 -0.8181019288
H 0.0174503299 -0.9416298970 -0.9324627121
H 0.0106966496 -1.0317506585 0.8321676513
H -1.2466003267 1.1161733022 0.9457152337
H -1.2336618440 1.2143880478 -0.8315447279
H -3.1607899777 0.2171576759 -0.0110803435
15
CONF13
C 2.4526680422 -0.0330667341 0.1203684156
C 0.9966280057 0.3943306412 0.2817035942
C 0.0546498648 -0.4082224624 -0.6136641272
C -1.4009739031 0.0171893999 -0.5130058374
O -1.9460089600 -0.1479906998 0.8135044603
H 2.5804677502 -1.0916976792 0.3734986856
H 2.7910081816 0.1055439329 -0.9128743340
H 3.1145397288 0.5483397053 0.7708768605
H 0.6953715679 0.2776544308 1.3292617418
H 0.8948408831 1.4610799164 0.0429971026
H 0.3615955685 -0.2975877578 -1.6631487485
H 0.1337483598 -1.4790139907 -0.3765146795
H -1.5026024775 1.0845523738 -0.7393641784
H -2.0102827394 -0.5418006494 -1.2377534648
H -1.8850809145 -1.0878444118 1.0301553712
15
CONF2
C 2.4326425101 -0.2636360577 -0.1530738354
C 1.0199295999 0.2605158983 -0.3947596629
C 0.0574667382 -0.1296386064 0.7256851196
C -1.3577735566 0.3896335534 0.5321606133
O -1.9926391555 -0.1365311906 -0.6526670010
H 2.8398192748 0.1231373405 0.7880318761
H 2.4393865243 -1.3578377606 -0.0934654392
H 3.1128798696 0.0312310341 -0.9586502791
H 1.0399810827 1.3547714507 -0.4835390361
H 0.6460182030 -0.1243934795 -1.3508909475
H 0.0264701359 -1.2239219807 0.8286162701
H 0.4293835498 0.2631909948 1.6820328175
H -1.9700486075 0.1590470451 1.4153506401
H -1.3509441206 1.4773850478 0.4013993987
H -2.0108527129 -1.0980944786 -0.5596643920
15
CONF10
C 1.9132879321 -0.6802852780 -0.1829081209
C 1.1319116119 0.3270778209 0.6592282072
C 0.0035094685 1.0260425623 -0.1059835426
C -1.0366120798 0.0835874525 -0.6936527165
O -1.7117900361 -0.7035799628 0.3098270961
H 2.7763503079 -1.0654664358 0.3686883027
H 1.2963656365 -1.5393246275 -0.4655079933
H 2.2830825005 -0.2182450120 -1.1047878364
H 0.7243324584 -0.1736392560 1.5473967975
H 1.8172453450 1.0949061069 1.0363996298
H -0.5000714158 1.7423776322 0.5551733469
H 0.4309816324 1.6024109190 -0.9381446218
H -1.8213351219 0.6603694940 -1.1933012108
H -0.5831035444 -0.5783564121 -1.4443844909
H -1.0532840561 -1.2837361334 0.7137458323
15
CONF8
C 2.4290950259 -0.2901290250 -0.1434431370
C 1.0224666718 0.2460636016 -0.3957278422
C 0.0484839389 -0.1533253458 0.7127245727
C -1.3518471330 0.3960634750 0.5303740833
O -1.9230280707 -0.1670689467 -0.6707071860
H 2.8269061391 0.0832313174 0.8070759098
H 2.4272738931 -1.3850537805 -0.0959905758
H 3.1209824477 0.0089922896 -0.9372192683
H 1.0499440801 1.3412135992 -0.4708478179
H 0.6579624304 -0.1257348169 -1.3601806771
H -0.0010894948 -1.2480085009 0.7894184452
H 0.4244281506 0.2137310552 1.6766172477
H -1.9750911194 0.1343562436 1.3967028428
H -1.3207018687 1.4927429442 0.4505715374
H -2.8096030568 0.2009820225 -0.7685087891
15
CONF4
C 1.9133440746 -0.7338950159 -0.0739964781
C 1.1278490558 0.5133868744 -0.4723073439
C 0.0205552863 0.8833734561 0.5187097998
C -1.0463916612 -0.1841578164 0.7068656540
O -1.7051141513 -0.5406197177 -0.5262243526
H 1.2888965106 -1.6327164170 -0.1009872177
H 2.7552265641 -0.9001632862 -0.7536915443
H 2.3156632750 -0.6369259371 0.9410873733
H 1.8145847959 1.3641516234 -0.5539459285
H 0.6934434904 0.3721200151 -1.4693942797
H 0.4611589190 1.0859763375 1.5047082959
H -0.4671474816 1.8130365661 0.1953098099
H -0.6112546460 -1.1138672542 1.0863983206
H -1.7885273528 0.1590612968 1.4414710224
H -2.0775751478 0.2719500835 -0.8933841204
15
CONF11
C 1.9307810184 -0.5611213199 -0.4117505327
C 1.1095762257 0.0300986368 0.7322071580
C -0.0020293386 0.9761065021 0.2670516261
C -1.0384154442 0.3421376365 -0.6409097551
O -1.6750891775 -0.7454937297 0.0642681374
H 2.3407513440 0.2302861942 -1.0505014992
H 2.7699940876 -1.1495713794 -0.0269337248
H 1.3298559547 -1.2227951447 -1.0446256055
H 0.6776139423 -0.7794465282 1.3317423751
H 1.7738917810 0.5878234433 1.4027563936
H -0.5122922032 1.4014012161 1.1405377059
H 0.4406535357 1.8166029979 -0.2832576643
H -1.7888545949 1.0930769075 -0.9244418962
H -0.5729902057 -0.0323995872 -1.5634750091
H -2.3196178113 -1.1402136921 -0.5357236603
15
CONF9
C 2.1357449450 -0.2335118962 -0.5934341890
C 1.3849811128 0.4200383659 0.5659480933
C -0.0447828460 -0.0965036561 0.7485748132
C -0.9317901899 0.1786211808 -0.4499100090
O -2.2756750828 -0.2330029052 -0.1189719995
H 2.1242564764 -1.3257692380 -0.4998442133
H 1.6943096659 0.0233377271 -1.5616901540
H 3.1815998698 0.0897703084 -0.6139236460
H 1.9361942627 0.2435743375 1.4966884383
H 1.3609045882 1.5078943314 0.4217811410
H -0.0266713164 -1.1773710619 0.9415818762
H -0.4942008820 0.3822287337 1.6277098947
H -0.9157273947 1.2522202904 -0.6915906938
H -0.5832328545 -0.3749703641 -1.3317123998
H -2.8213216665 -0.0930782729 -0.9025035764
15
CONF3
C 2.1352155843 -0.3018469507 0.6040170592
C 1.3968266676 0.5089624131 -0.4606374615
C -0.0198664927 0.0042117567 -0.7550268260
C -0.9581585904 0.1234915525 0.4359305903
O -2.3119676186 -0.2499995655 0.1019706162
H 1.6627290138 -0.2117607470 1.5870831884
H 2.1567875683 -1.3653240408 0.3391712451
H 3.1708078797 0.0386859185 0.7056547198
H 1.3473056087 1.5618492971 -0.1537637514
H 1.9724815914 0.4851284093 -1.3931382915
H -0.4458836562 0.5781997771 -1.5872070862
H 0.0227342647 -1.0471419552 -1.0727573666
H -0.6059667831 -0.4861685420 1.2785205414
H -1.0124541813 1.1645995493 0.7730807085
H -2.2917288713 -1.1788328840 -0.1621529171
