15
 xtb: 6.7.1 (edcfbbe)
C            2.43264251112843       -0.26363605784757       -0.15307383547265
C            1.01992960037408        0.26051589840233       -0.39475966311669
C            0.05746673818475       -0.12963860644198        0.72568511990761
C           -1.35777355721812        0.38963355354803        0.53216061357968
O           -1.99263915638303       -0.13653119070295       -0.65266700131650
H            2.83981927609563        0.12313734053527        0.78803187641795
H            2.43938652542637       -1.35783776122924       -0.09346543925966
H            3.11287987100823        0.03123103415810       -0.95865027956946
H            1.03998108315753        1.35477145132493       -0.48353903630484
H            0.64601820328762       -0.12439347955303       -1.35089094805613
H            0.02647013594344       -1.22392198124644        0.82861627044397
H            0.42938354994331        0.26319099487530        1.68203281822298
H           -1.97004860833403        0.15904704521135        1.41535064068208
H           -1.35094412120010        1.47738504844997        0.40139939887729
H           -2.01085271381356       -1.09809447907302       -0.55966439226376
