! r2scan-3c def2/J RI DEFGRID2 scfconv6 printgap
%output
    printlevel normal
end
%cpcm
    smd true
    smdsolvent "water"
end
* xyz 0 1
C -1.5556241641 -0.1248425618 0.5450453994
C -0.6720228419 0.4778509863 -0.5394791296
C 0.6691472698 -0.2468181043 -0.6488136896
N 1.4319393183 -0.1081757016 0.5852772598
H -1.8063612254 -1.1539134022 0.2996412289
H -1.0285564897 -0.1170286301 1.4944300123
H -2.4769768115 0.4430711083 0.6457805006
H -0.4875559588 1.531253978 -0.3158508638
H -1.1782728213 0.4237005932 -1.505188535
H 0.4926004359 -1.3146979062 -0.8068423586
H 1.2105991711 0.1387127299 -1.5314543503
H 1.6263213989 0.8734255023 0.75488961
H 2.3207231657 -0.5866518005 0.4963827139
*
