15
 xtb: 6.7.1 (edcfbbe)
C            1.95365966649312        0.56302125941398        0.31862986647133
C            1.02326298488497       -0.14653115324809       -0.65036876428722
O           -0.00001683149075       -0.92199074449833        0.00032339102190
C           -1.02323747632666       -0.14601941846730        0.65049840596861
C           -1.95365674688181        0.56284408566051       -0.31898142939387
H            2.38596910089528       -0.14772988692196        1.03065862209917
H            2.77215328657664        1.02538820534994       -0.24311656993299
H            1.44688396324700        1.35548491988800        0.87656211599280
H            1.58714287461676       -0.87385258067969       -1.24329898701251
H            0.57293696398900        0.57080449040505       -1.34970803651774
H           -1.58710836362261       -0.87288430067641        1.24399688813605
H           -0.57284681159491        0.57181826058123        1.34927713667651
H           -2.38605920791673       -0.14842485408889       -1.03043562535310
H           -2.77208458701889        1.02569489036515        0.24246190284771
H           -1.44686155092508        1.35484403363267       -0.87755543872801
