 Entering Gaussian System
 *********************************************
 Gaussian 98:
 frequency output generated by the xtb code
 *********************************************
                         Standard orientation:
 --------------------------------------------------------------------
  Center     Atomic     Atomic              Coordinates (Angstroms)
  Number     Number      Type              X           Y           Z
 --------------------------------------------------------------------
    1          6             0        2.416912   -0.302645   -0.155463
    2          6             0        1.022286    0.272042   -0.367935
    3          6             0        0.060993   -0.147135    0.742061
    4          6             0       -1.346438    0.396955    0.513890
    5          8             0       -1.896348   -0.208797   -0.641064
    6          1             0        2.829500    0.040671    0.790653
    7          1             0        2.382511   -1.389484   -0.140331
    8          1             0        3.082946    0.009419   -0.955828
    9          1             0        1.078174    1.362633   -0.401351
   10          1             0        0.621414   -0.072021   -1.323051
   11          1             0        0.005442   -1.236441    0.780509
   12          1             0        0.422450    0.215700    1.705509
   13          1             0       -1.971592    0.172004    1.389119
   14          1             0       -1.302644    1.487123    0.385414
   15          1             0       -2.779415    0.148011   -0.801289
 --------------------------------------------------------------------
     1 basis functions        1 primitive gaussians
     1 alpha electrons        1 beta electrons
 
 Harmonic frequencies (cm**-1), IR intensities (km*mol⁻¹),
 Raman scattering activities (A**4/amu), Raman depolarization ratios,
 reduced masses (AMU), force constants (mDyne/A) and normal coordinates:
                      1                      2                      3
                        a                      a                      a 
 Frequencies --    86.9837               117.1532               231.4588
 Red. masses --     7.6892                10.0275                 2.7428
 Frc consts  --     0.0000                 0.0000                 0.0000
 IR Inten    --     0.9483                 5.1994                10.6915
 Raman Activ --     0.0000                 0.0000                 0.0000
 Depolar     --     0.0000                 0.0000                 0.0000
 Atom AN      X      Y      Z        X      Y      Z        X      Y      Z
   1   6     0.15   0.31   0.20    -0.18  -0.04  -0.20    -0.01   0.11  -0.05
   2   6    -0.08  -0.40  -0.23    -0.23  -0.10   0.01    -0.15  -0.25  -0.06
   3   6     0.00  -0.23  -0.09     0.01   0.17   0.32    -0.03  -0.02   0.13
   4   6     0.04  -0.05   0.09    -0.09  -0.15   0.17     0.05   0.12  -0.01
   5   8    -0.12   0.32  -0.01     0.51   0.16  -0.28     0.12  -0.03   0.05
   6   1    -0.01   0.32  -0.01     0.03   0.08  -0.13    -0.22  -0.31   0.20
   7   1     0.17   0.09   0.27    -0.05  -0.01   0.05     0.16   0.02  -0.48
   8   1     0.01   0.02   0.00    -0.12  -0.10  -0.15     0.09   0.47   0.23
   9   1    -0.15  -0.11  -0.22    -0.07  -0.03  -0.08    -0.10  -0.07  -0.09
  10   1     0.04  -0.30  -0.03    -0.13  -0.11   0.06    -0.05  -0.15   0.01
  11   1    -0.03  -0.06   0.00     0.06   0.05   0.21    -0.03   0.00   0.11
  12   1     0.05  -0.05  -0.05     0.01   0.18   0.04     0.01   0.06   0.00
  13   1     0.02  -0.05   0.02    -0.08  -0.19  -0.03    -0.02   0.10  -0.01
  14   1     0.05  -0.01   0.09    -0.10  -0.03   0.17     0.06   0.02  -0.06
  15   1    -0.02   0.12   0.04     0.10  -0.03  -0.09     0.11   0.12  -0.13
                      4                      5                      6
                        a                      a                      a 
 Frequencies --   236.2088               280.5890               335.4636
 Red. masses --     4.3432                 4.5714                 9.8286
 Frc consts  --     0.0000                 0.0000                 0.0000
 IR Inten    --   106.3044               110.1175                 4.8420
 Raman Activ --     0.0000                 0.0000                 0.0000
 Depolar     --     0.0000                 0.0000                 0.0000
 Atom AN      X      Y      Z        X      Y      Z        X      Y      Z
   1   6    -0.01  -0.13   0.18    -0.06  -0.10   0.15     0.39  -0.01  -0.20
   2   6     0.10   0.02  -0.23     0.08   0.13  -0.22     0.22  -0.14   0.26
   3   6     0.11   0.24  -0.14     0.13   0.20  -0.15     0.01   0.15   0.23
   4   6    -0.08  -0.16   0.11    -0.08  -0.23   0.15    -0.15  -0.15  -0.11
   5   8    -0.05   0.19  -0.09    -0.15  -0.09   0.10    -0.47   0.08  -0.17
   6   1    -0.15  -0.17   0.16    -0.09  -0.05   0.08     0.20  -0.03  -0.09
   7   1    -0.02  -0.04  -0.10    -0.08  -0.03   0.05     0.18  -0.01  -0.12
   8   1     0.12   0.06   0.20     0.08  -0.07   0.11    -0.00   0.08  -0.12
   9   1     0.05   0.00  -0.12     0.06   0.03  -0.10     0.07  -0.04   0.04
  10   1     0.05  -0.04  -0.06     0.05   0.01  -0.06     0.03  -0.06   0.09
  11   1     0.10   0.07   0.05     0.12   0.06   0.01     0.08   0.05   0.23
  12   1     0.04   0.16  -0.08     0.05   0.12  -0.07    -0.10   0.21   0.04
  13   1     0.04  -0.22   0.03     0.03  -0.20   0.05    -0.03  -0.08  -0.03
  14   1    -0.15  -0.02   0.16    -0.13  -0.05   0.14    -0.07  -0.04   0.01
  15   1    -0.27  -0.42   0.38     0.26   0.53  -0.38    -0.08   0.12  -0.01
                      7                      8                      9
                        a                      a                      a 
 Frequencies --   491.1579               779.9256               869.4540
 Red. masses --     8.7468                 2.4936                 4.5751
 Frc consts  --     0.0000                 0.0000                 0.0000
 IR Inten    --    12.9984                 3.4201                11.8909
 Raman Activ --     0.0000                 0.0000                 0.0000
 Depolar     --     0.0000                 0.0000                 0.0000
 Atom AN      X      Y      Z        X      Y      Z        X      Y      Z
   1   6    -0.31   0.05   0.07    -0.02   0.03   0.02    -0.18  -0.08  -0.01
   2   6    -0.16   0.12   0.01     0.04   0.16   0.14    -0.08  -0.22   0.14
   3   6     0.32  -0.12   0.21     0.13   0.14   0.13     0.15   0.26  -0.02
   4   6     0.42  -0.21  -0.23     0.07   0.02  -0.02     0.25   0.11  -0.11
   5   8    -0.25   0.06  -0.15    -0.10  -0.05  -0.10    -0.09  -0.10  -0.07
   6   1    -0.12   0.01   0.04     0.14  -0.17   0.00    -0.18   0.20  -0.02
   7   1    -0.15   0.02   0.04    -0.21   0.01  -0.10     0.32  -0.03   0.07
   8   1    -0.03  -0.04   0.05    -0.03  -0.06  -0.04    -0.14   0.19   0.01
   9   1    -0.08   0.04   0.03    -0.14   0.03  -0.45     0.22  -0.07   0.15
  10   1    -0.10   0.03   0.03    -0.02  -0.44   0.22    -0.20   0.13   0.05
  11   1     0.23  -0.03   0.20    -0.04   0.02  -0.37    -0.16   0.07  -0.21
  12   1     0.04   0.14   0.01    -0.03  -0.34   0.19     0.07  -0.18   0.08
  13   1     0.09   0.09  -0.05     0.03  -0.07  -0.02     0.20  -0.28  -0.01
  14   1     0.26  -0.07  -0.13    -0.07   0.01   0.01    -0.24   0.05   0.11
  15   1    -0.06   0.11   0.14    -0.02   0.03   0.02     0.00   0.07   0.07
                     10                     11                     12
                        a                      a                      a 
 Frequencies --   884.2160               973.7599               984.6607
 Red. masses --     6.6189                 5.0122                 5.6267
 Frc consts  --     0.0000                 0.0000                 0.0000
 IR Inten    --     8.8660                10.9606                 8.0274
 Raman Activ --     0.0000                 0.0000                 0.0000
 Depolar     --     0.0000                 0.0000                 0.0000
 Atom AN      X      Y      Z        X      Y      Z        X      Y      Z
   1   6    -0.15   0.07   0.14    -0.03  -0.16   0.01    -0.22  -0.03   0.20
   2   6    -0.04  -0.09   0.27    -0.00   0.10   0.01     0.04  -0.06   0.05
   3   6    -0.16   0.05  -0.40    -0.19   0.15  -0.08     0.26   0.01  -0.10
   4   6     0.20  -0.08  -0.22    -0.07  -0.37  -0.08    -0.15   0.07   0.34
   5   8     0.13   0.06   0.22     0.15   0.15   0.19    -0.10  -0.06  -0.25
   6   1     0.27  -0.13  -0.05    -0.07   0.13  -0.03     0.21  -0.01  -0.07
   7   1    -0.10   0.02  -0.14     0.31  -0.05   0.04     0.14  -0.01  -0.10
   8   1    -0.29   0.08  -0.15    -0.11   0.15  -0.01    -0.39   0.20  -0.15
   9   1    -0.14  -0.02   0.02     0.28   0.01  -0.21     0.12  -0.02  -0.01
  10   1     0.21  -0.12   0.01    -0.13  -0.05   0.08     0.17  -0.01  -0.05
  11   1    -0.01   0.02   0.11     0.24   0.02  -0.21     0.17  -0.00  -0.06
  12   1    -0.13   0.23  -0.15    -0.28  -0.02   0.09     0.31  -0.02  -0.11
  13   1     0.21  -0.17   0.02    -0.10   0.20   0.00    -0.14   0.22   0.05
  14   1    -0.04   0.00   0.09     0.27  -0.11  -0.15     0.11  -0.01  -0.10
  15   1     0.04   0.05   0.08     0.03   0.05   0.10    -0.04  -0.09  -0.14
                     13                     14                     15
                        a                      a                      a 
 Frequencies --  1061.1427              1100.6056              1124.7637
 Red. masses --     8.1539                 7.9514                 7.8301
 Frc consts  --     0.0000                 0.0000                 0.0000
 IR Inten    --   110.9266                14.6913                25.1364
 Raman Activ --     0.0000                 0.0000                 0.0000
 Depolar     --     0.0000                 0.0000                 0.0000
 Atom AN      X      Y      Z        X      Y      Z        X      Y      Z
   1   6    -0.24   0.08  -0.11    -0.38   0.25  -0.15     0.03  -0.01   0.16
   2   6     0.25  -0.08   0.15     0.54  -0.20  -0.05    -0.09  -0.02  -0.22
   3   6     0.34  -0.21  -0.04    -0.16   0.05   0.14     0.20   0.02   0.26
   4   6    -0.30   0.13  -0.28     0.01  -0.12   0.08    -0.27  -0.16  -0.42
   5   8     0.01   0.16   0.27     0.04  -0.03  -0.05     0.12   0.15   0.27
   6   1    -0.18   0.08   0.01    -0.17   0.04  -0.00     0.19  -0.07  -0.02
   7   1    -0.05   0.02   0.04    -0.22   0.07  -0.02     0.01  -0.00  -0.07
   8   1     0.00   0.02   0.03    -0.03  -0.00  -0.01    -0.13   0.03  -0.06
   9   1     0.07  -0.03  -0.03     0.23  -0.05  -0.01    -0.04   0.00   0.09
  10   1    -0.05  -0.09   0.11     0.28  -0.02  -0.08     0.09   0.10  -0.14
  11   1     0.25  -0.06   0.02    -0.23   0.02   0.05    -0.10   0.00  -0.06
  12   1    -0.12   0.03   0.04    -0.05  -0.05   0.07     0.29  -0.16   0.03
  13   1     0.02  -0.07  -0.02    -0.07   0.05  -0.01    -0.16  -0.02  -0.15
  14   1    -0.09   0.06   0.10     0.01  -0.04  -0.09    -0.22  -0.03  -0.15
  15   1    -0.04  -0.26  -0.36     0.03   0.14   0.20     0.04   0.14   0.20
                     16                     17                     18
                        a                      a                      a 
 Frequencies --  1142.3115              1200.6817              1227.2946
 Red. masses --     6.7743                 4.5028                 3.5990
 Frc consts  --     0.0000                 0.0000                 0.0000
 IR Inten    --     8.8802                90.5830                 5.4759
 Raman Activ --     0.0000                 0.0000                 0.0000
 Depolar     --     0.0000                 0.0000                 0.0000
 Atom AN      X      Y      Z        X      Y      Z        X      Y      Z
   1   6     0.07   0.12  -0.14     0.04   0.11   0.12     0.07   0.23   0.07
   2   6    -0.10  -0.28   0.32    -0.04  -0.14  -0.23    -0.10  -0.32  -0.04
   3   6     0.18   0.27  -0.28    -0.06   0.19   0.18    -0.02   0.14  -0.04
   4   6    -0.17  -0.24   0.08     0.17  -0.24  -0.01     0.00   0.13  -0.02
   5   8     0.07   0.10  -0.02    -0.09   0.16   0.06    -0.02  -0.12   0.02
   6   1    -0.12  -0.04   0.05     0.17  -0.10   0.00     0.13  -0.15   0.04
   7   1    -0.20   0.04   0.05    -0.12   0.03  -0.08    -0.25   0.06  -0.06
   8   1     0.20  -0.13   0.06    -0.06  -0.03  -0.05     0.04  -0.12  -0.03
   9   1    -0.17  -0.06   0.21     0.09  -0.03   0.10     0.23  -0.09   0.12
  10   1    -0.13  -0.00   0.10    -0.03   0.14  -0.11    -0.16   0.13  -0.03
  11   1    -0.01   0.07  -0.14    -0.21   0.05  -0.07     0.33   0.01  -0.20
  12   1     0.18  -0.04  -0.08    -0.13  -0.10   0.14    -0.07  -0.02   0.03
  13   1     0.06   0.22   0.16     0.24   0.05   0.17    -0.30  -0.10  -0.26
  14   1    -0.03  -0.09  -0.32     0.13  -0.07  -0.04     0.29   0.06   0.33
  15   1     0.02   0.05   0.04    -0.08  -0.34  -0.50     0.01   0.05   0.10
                     19                     20                     21
                        a                      a                      a 
 Frequencies --  1252.7303              1281.1250              1303.9602
 Red. masses --     3.3850                 1.9637                 3.4910
 Frc consts  --     0.0000                 0.0000                 0.0000
 IR Inten    --    19.5347                 4.0085                 3.8484
 Raman Activ --     0.0000                 0.0000                 0.0000
 Depolar     --     0.0000                 0.0000                 0.0000
 Atom AN      X      Y      Z        X      Y      Z        X      Y      Z
   1   6     0.03   0.11   0.17    -0.03  -0.11  -0.05    -0.01  -0.09   0.11
   2   6     0.03  -0.06  -0.20    -0.02  -0.10  -0.09     0.26   0.03  -0.12
   3   6     0.12  -0.20  -0.04     0.10   0.14   0.09     0.26   0.07  -0.18
   4   6    -0.10   0.13   0.13     0.00   0.08   0.07    -0.01  -0.07   0.08
   5   8     0.07  -0.03  -0.12     0.00  -0.03  -0.05    -0.02  -0.02   0.03
   6   1     0.17  -0.09   0.01    -0.08   0.06  -0.02     0.01   0.06  -0.01
   7   1    -0.10   0.03  -0.09     0.09  -0.03   0.02     0.01  -0.02  -0.04
   8   1    -0.10  -0.02  -0.07    -0.01   0.02   0.00    -0.15   0.09  -0.05
   9   1     0.18  -0.02   0.01    -0.47   0.01   0.25    -0.38   0.04   0.14
  10   1    -0.35   0.08   0.07     0.43   0.03  -0.22    -0.35   0.00   0.14
  11   1     0.13  -0.05   0.06     0.32   0.01  -0.21    -0.41   0.05   0.12
  12   1    -0.39   0.05   0.12    -0.41  -0.06   0.23    -0.25   0.02   0.07
  13   1     0.23   0.07   0.22     0.02   0.03   0.03    -0.32   0.04  -0.20
  14   1    -0.35   0.01  -0.26    -0.06   0.02  -0.01     0.17  -0.01   0.10
  15   1     0.04   0.16   0.19     0.01   0.03   0.05    -0.00  -0.01   0.01
                     22                     23                     24
                        a                      a                      a 
 Frequencies --  1358.5354              1370.2962              1410.4391
 Red. masses --     3.9813                 5.3167                 3.2375
 Frc consts  --     0.0000                 0.0000                 0.0000
 IR Inten    --    13.9295                 6.8243                 0.2375
 Raman Activ --     0.0000                 0.0000                 0.0000
 Depolar     --     0.0000                 0.0000                 0.0000
 Atom AN      X      Y      Z        X      Y      Z        X      Y      Z
   1   6    -0.02  -0.04   0.05    -0.01  -0.03   0.06    -0.41   0.15  -0.04
   2   6     0.21   0.00  -0.09     0.35  -0.05  -0.10     0.09  -0.00  -0.04
   3   6    -0.11   0.06   0.11    -0.41   0.02   0.08    -0.02   0.02  -0.01
   4   6    -0.34   0.05  -0.18     0.25  -0.01   0.03     0.00  -0.01   0.00
   5   8     0.06  -0.11  -0.10    -0.03   0.07   0.06     0.00  -0.00   0.00
   6   1    -0.01   0.05  -0.01    -0.03   0.06  -0.01     0.43  -0.24  -0.12
   7   1    -0.01  -0.01  -0.03    -0.05  -0.00  -0.05     0.51  -0.00   0.04
   8   1    -0.07   0.05  -0.02    -0.09   0.05  -0.04     0.36  -0.26   0.23
   9   1    -0.22   0.02   0.07    -0.30   0.01   0.10    -0.07   0.00   0.10
  10   1    -0.16   0.02   0.06    -0.30   0.04   0.12    -0.08  -0.06   0.06
  11   1     0.07   0.01   0.01     0.39  -0.02  -0.09     0.00   0.00  -0.00
  12   1     0.19  -0.09  -0.01     0.27  -0.03  -0.11     0.01  -0.00  -0.01
  13   1     0.44   0.02   0.33    -0.09  -0.04  -0.11    -0.01   0.01  -0.00
  14   1     0.41   0.03   0.30    -0.27  -0.01  -0.17     0.01   0.00   0.01
  15   1     0.03   0.10   0.15    -0.02  -0.07  -0.11     0.00   0.00   0.00
                     25                     26                     27
                        a                      a                      a 
 Frequencies --  1466.6838              1478.7259              1493.3518
 Red. masses --     1.9741                 1.8400                 1.8676
 Frc consts  --     0.0000                 0.0000                 0.0000
 IR Inten    --     0.7561                 3.4929                 0.6688
 Raman Activ --     0.0000                 0.0000                 0.0000
 Depolar     --     0.0000                 0.0000                 0.0000
 Atom AN      X      Y      Z        X      Y      Z        X      Y      Z
   1   6    -0.01   0.01  -0.00     0.01   0.00  -0.01     0.03  -0.03   0.01
   2   6     0.05  -0.03   0.01    -0.02  -0.01   0.02    -0.08   0.16  -0.21
   3   6     0.05  -0.16   0.23    -0.01   0.03  -0.07    -0.03   0.00   0.01
   4   6     0.01  -0.04  -0.02     0.14  -0.17  -0.13     0.02  -0.01  -0.01
   5   8    -0.00  -0.01  -0.02    -0.01  -0.03  -0.05    -0.00  -0.00  -0.00
   6   1    -0.01  -0.02   0.01     0.00  -0.01   0.00    -0.01   0.12  -0.04
   7   1     0.00   0.00   0.02    -0.01   0.00   0.02    -0.08   0.00  -0.08
   8   1    -0.02   0.01  -0.01     0.00   0.01   0.00     0.02   0.03   0.02
   9   1    -0.05  -0.00  -0.03     0.02  -0.00  -0.04     0.24   0.01   0.61
  10   1    -0.04   0.05   0.00     0.00   0.03  -0.01     0.05  -0.64   0.20
  11   1    -0.20  -0.02  -0.62     0.05   0.00   0.15     0.01  -0.00  -0.06
  12   1    -0.02   0.62  -0.21     0.01  -0.14   0.04     0.02   0.04  -0.02
  13   1     0.01   0.15   0.05    -0.09   0.65   0.11     0.00   0.04   0.01
  14   1    -0.07   0.02   0.13    -0.38   0.08   0.54    -0.02   0.00   0.04
  15   1     0.00   0.01   0.01     0.00   0.01   0.01    -0.00  -0.00   0.00
                     28                     29                     30
                        a                      a                      a 
 Frequencies --  1499.2680              1502.1859              2856.6613
 Red. masses --     1.5385                 1.6067                 1.9775
 Frc consts  --     0.0000                 0.0000                 0.0000
 IR Inten    --     1.4151                 0.6154               129.7135
 Raman Activ --     0.0000                 0.0000                 0.0000
 Depolar     --     0.0000                 0.0000                 0.0000
 Atom AN      X      Y      Z        X      Y      Z        X      Y      Z
   1   6     0.07   0.19   0.07    -0.04  -0.06   0.20     0.00  -0.00  -0.00
   2   6     0.01   0.05  -0.00    -0.03  -0.03   0.08     0.00  -0.00   0.00
   3   6    -0.01  -0.00  -0.00     0.02  -0.00  -0.01     0.00  -0.00  -0.00
   4   6     0.00  -0.01  -0.01    -0.00  -0.01  -0.00     0.12   0.21  -0.17
   5   8    -0.00   0.00  -0.00     0.00  -0.00  -0.00     0.00   0.00  -0.01
   6   1    -0.40  -0.24   0.27     0.01   0.54  -0.19    -0.00   0.00  -0.00
   7   1     0.36  -0.00  -0.17    -0.02  -0.01  -0.68     0.00  -0.00  -0.00
   8   1    -0.23  -0.53  -0.40     0.20  -0.29   0.07     0.00  -0.00   0.00
   9   1    -0.01   0.01   0.04    -0.00  -0.01  -0.09    -0.00   0.01   0.00
  10   1     0.02  -0.06   0.03     0.03   0.08  -0.03    -0.00  -0.00  -0.00
  11   1    -0.01   0.00   0.01    -0.02   0.00  -0.01    -0.00   0.03  -0.00
  12   1     0.02  -0.01  -0.00    -0.00   0.02  -0.01    -0.00  -0.01  -0.01
  13   1     0.00   0.01   0.00    -0.01   0.02  -0.00    -0.42  -0.13   0.58
  14   1    -0.00   0.00   0.01    -0.00   0.00   0.01    -0.01  -0.62   0.06
  15   1    -0.00  -0.00  -0.00     0.00   0.00   0.00    -0.00  -0.00   0.00
                     31                     32                     33
                        a                      a                      a 
 Frequencies --  2890.8676              2962.3524              2978.4099
 Red. masses --     1.4186                 1.8647                 1.8784
 Frc consts  --     0.0000                 0.0000                 0.0000
 IR Inten    --    93.5294                45.0041                87.9971
 Raman Activ --     0.0000                 0.0000                 0.0000
 Depolar     --     0.0000                 0.0000                 0.0000
 Atom AN      X      Y      Z        X      Y      Z        X      Y      Z
   1   6     0.00   0.00  -0.00     0.01   0.01   0.00    -0.00  -0.00  -0.00
   2   6    -0.00   0.00   0.00    -0.04  -0.26  -0.07    -0.01   0.07  -0.03
   3   6     0.01   0.01   0.01     0.02   0.06   0.04     0.08   0.18   0.19
   4   6     0.09  -0.14  -0.09    -0.00   0.00   0.00    -0.00   0.01   0.01
   5   8    -0.01  -0.01  -0.02     0.00  -0.00  -0.00     0.00  -0.00   0.00
   6   1    -0.00  -0.00  -0.00    -0.02  -0.01  -0.04     0.00   0.00   0.01
   7   1    -0.00   0.00   0.00     0.00  -0.06   0.00    -0.00   0.01   0.00
   8   1    -0.00  -0.00   0.00    -0.01  -0.00   0.02     0.01   0.00  -0.01
   9   1     0.00  -0.01  -0.00     0.05   0.87  -0.02    -0.02  -0.31  -0.00
  10   1     0.00   0.00   0.00     0.11   0.06   0.27     0.06   0.06   0.14
  11   1     0.00  -0.02   0.00    -0.01  -0.17   0.01    -0.01  -0.36   0.03
  12   1    -0.01  -0.01  -0.04    -0.07  -0.06  -0.17    -0.27  -0.27  -0.72
  13   1    -0.35  -0.17   0.50     0.00   0.00  -0.01     0.01   0.01  -0.02
  14   1     0.05   0.73  -0.12    -0.00  -0.00   0.00    -0.00  -0.04   0.01
  15   1    -0.00   0.00   0.00    -0.00   0.00   0.00     0.00   0.00   0.00
                     34                     35                     36
                        a                      a                      a 
 Frequencies --  2988.4927              2990.6300              3025.9136
 Red. masses --     1.6005                 1.5799                 1.9339
 Frc consts  --     0.0000                 0.0000                 0.0000
 IR Inten    --    38.0683                91.0033                92.9678
 Raman Activ --     0.0000                 0.0000                 0.0000
 Depolar     --     0.0000                 0.0000                 0.0000
 Atom AN      X      Y      Z        X      Y      Z        X      Y      Z
   1   6     0.00   0.01   0.01     0.00  -0.00  -0.03     0.07   0.18   0.21
   2   6    -0.04  -0.03  -0.10     0.07   0.00   0.18     0.01   0.02   0.03
   3   6     0.01  -0.19   0.06     0.03  -0.05   0.10     0.00   0.00   0.01
   4   6    -0.00  -0.01   0.01    -0.00  -0.00   0.01    -0.00   0.00   0.00
   5   8    -0.00   0.00   0.00     0.00  -0.00  -0.00     0.00  -0.00  -0.00
   6   1    -0.01  -0.01  -0.02     0.04   0.03   0.09    -0.31  -0.26  -0.73
   7   1    -0.00  -0.04   0.00     0.00  -0.00  -0.01    -0.01  -0.44   0.04
   8   1     0.01   0.01  -0.01    -0.04  -0.02   0.05     0.08   0.06  -0.05
   9   1    -0.01  -0.07  -0.01     0.02   0.26   0.02    -0.00  -0.03   0.00
  10   1     0.17   0.15   0.40    -0.28  -0.26  -0.67    -0.04  -0.04  -0.10
  11   1     0.05   0.81  -0.01     0.02   0.34   0.01     0.00   0.00   0.00
  12   1    -0.09  -0.12  -0.23    -0.13  -0.15  -0.34    -0.01  -0.01  -0.02
  13   1     0.01   0.00  -0.01     0.01   0.00  -0.01     0.00   0.00  -0.00
  14   1     0.00   0.02  -0.00     0.00   0.01  -0.00     0.00  -0.00   0.00
  15   1     0.01  -0.00   0.00    -0.00  -0.00   0.00    -0.00   0.00  -0.00
                     37                     38                     39
                        a                      a                      a 
 Frequencies --  3030.7555              3039.9221              3516.0260
 Red. masses --     1.9015                 1.3079                 1.8792
 Frc consts  --     0.0000                 0.0000                 0.0000
 IR Inten    --    86.4177                45.0543                71.1106
 Raman Activ --     0.0000                 0.0000                 0.0000
 Depolar     --     0.0000                 0.0000                 0.0000
 Atom AN      X      Y      Z        X      Y      Z        X      Y      Z
   1   6     0.07   0.20  -0.18     0.15  -0.04  -0.07     0.00   0.00  -0.00
   2   6    -0.00   0.02  -0.02     0.00  -0.00  -0.01     0.00   0.00   0.00
   3   6    -0.00   0.01  -0.01     0.00  -0.00   0.00     0.00   0.00  -0.00
   4   6     0.00   0.00  -0.00    -0.00   0.00   0.00    -0.00   0.00  -0.00
   5   8     0.00  -0.00   0.00    -0.00   0.00   0.00    -0.22   0.09  -0.04
   6   1     0.12   0.13   0.24    -0.12  -0.12  -0.33    -0.00   0.00   0.00
   7   1    -0.03  -0.70  -0.02     0.04   0.49  -0.02     0.00  -0.00  -0.00
   8   1    -0.35  -0.15   0.43    -0.45  -0.24   0.57    -0.00   0.00  -0.00
   9   1    -0.01  -0.06  -0.00     0.00  -0.01   0.00    -0.00   0.00  -0.00
  10   1     0.02   0.02   0.04     0.01   0.01   0.02    -0.00  -0.00  -0.00
  11   1    -0.00  -0.04  -0.00     0.00   0.01   0.00     0.00  -0.01   0.00
  12   1     0.01   0.01   0.02    -0.00  -0.00  -0.01    -0.00   0.00   0.00
  13   1    -0.00  -0.00   0.00     0.00   0.00  -0.00    -0.00  -0.00   0.00
  14   1     0.00  -0.00   0.00    -0.00  -0.00   0.00     0.00   0.00  -0.00
  15   1    -0.00   0.00  -0.00     0.00  -0.00   0.00     0.89  -0.36   0.16
