      -----------------------------------------------------------      
     |                   =====================                   |     
     |                           x T B                           |     
     |                   =====================                   |     
     |                         S. Grimme                         |     
     |          Mulliken Center for Theoretical Chemistry        |     
     |                    University of Bonn                     |     
      -----------------------------------------------------------      

   * xtb version 6.7.1 (edcfbbe) compiled by 'albert@albert-system' on 2024-07-22

   xtb is free software: you can redistribute it and/or modify it under
   the terms of the GNU Lesser General Public License as published by
   the Free Software Foundation, either version 3 of the License, or
   (at your option) any later version.
   
   xtb is distributed in the hope that it will be useful,
   but WITHOUT ANY WARRANTY; without even the implied warranty of
   MERCHANTABILITY or FITNESS FOR A PARTICULAR PURPOSE.  See the
   GNU Lesser General Public License for more details.
   
   Cite this work as:
   * C. Bannwarth, E. Caldeweyher, S. Ehlert, A. Hansen, P. Pracht,
     J. Seibert, S. Spicher, S. Grimme, WIREs Comput. Mol. Sci., 2020, 11,
     e01493. DOI: 10.1002/wcms.1493
   
   for GFN2-xTB:
   * C. Bannwarth, S. Ehlert and S. Grimme., J. Chem. Theory Comput., 2019,
     15, 1652-1671. DOI: 10.1021/acs.jctc.8b01176
   for GFN1-xTB:
   * S. Grimme, C. Bannwarth, P. Shushkov, J. Chem. Theory Comput., 2017,
     13, 1989-2009. DOI: 10.1021/acs.jctc.7b00118
   for GFN0-xTB:
   * P. Pracht, E. Caldeweyher, S. Ehlert, S. Grimme, ChemRxiv, 2019, preprint.
     DOI: 10.26434/chemrxiv.8326202.v1
   for GFN-FF:
   * S. Spicher and S. Grimme, Angew. Chem. Int. Ed., 2020, 59, 15665-15673.
     DOI: 10.1002/anie.202004239
   
   for ALPB and GBSA implicit solvation:
   * S. Ehlert, M. Stahn, S. Spicher, S. Grimme, J. Chem. Theory Comput.,
     2021, 17, 4250-4261. DOI: 10.1021/acs.jctc.1c00471
   
   for ddCOSMO and CPCM-X implicit solvation:
   * M. Stahn, S. Ehlert, S. Grimme, J. Phys. Chem. A,
     2023, XX, XXXX-XXXX. DOI: 10.1021/acs.jpca.3c04382
   
   for DFT-D4:
   * E. Caldeweyher, C. Bannwarth and S. Grimme, J. Chem. Phys., 2017,
     147, 034112. DOI: 10.1063/1.4993215
   * E. Caldeweyher, S. Ehlert, A. Hansen, H. Neugebauer, S. Spicher,
     C. Bannwarth and S. Grimme, J. Chem. Phys., 2019, 150, 154122.
     DOI: 10.1063/1.5090222
   * E. Caldeweyher, J.-M. Mewes, S. Ehlert and S. Grimme, Phys. Chem. Chem. Phys.
     2020, 22, 8499-8512. DOI: 10.1039/D0CP00502A
   
   for sTDA-xTB:
   * S. Grimme and C. Bannwarth, J. Chem. Phys., 2016, 145, 054103.
     DOI: 10.1063/1.4959605
   
   in the mass-spec context:
   * V. Asgeirsson, C. Bauer and S. Grimme, Chem. Sci., 2017, 8, 4879.
     DOI: 10.1039/c7sc00601b
   * J. Koopman and S. Grimme, ACS Omega 2019, 4, 12, 15120-15133.
     DOI: 10.1021/acsomega.9b02011
   
   for metadynamics refer to:
   * S. Grimme, J. Chem. Theory Comput., 2019, 155, 2847-2862
     DOI: 10.1021/acs.jctc.9b00143
   
   for SPH calculations refer to:
   * S. Spicher and S. Grimme, J. Chem. Theory Comput., 2021, 17, 1701-1714
     DOI: 10.1021/acs.jctc.0c01306
   
   for ONIOM refer to:
   * C. Plett, A. Katbashev, S. Ehlert, S. Grimme, M. Bursch,
     Phys. Chem. Chem. Phys., 2023, 25, 17860-17868. DOI: 10.1039/D3CP02178E
   
   for DIPRO refer to:
   * J. Kohn, N. Gildemeister, S. Grimme, D. Fazzi, A. Hansen,
     J. Chem. Phys., 2023, just accepted.
   
   for PTB refer to:
   * S. Grimme, M. Mueller, A. Hansen, J. Chem. Phys., 2023, 158, 124111.
     DOI: 10.1063/5.0137838
   
   with help from (in alphabetical order)
   P. Atkinson, C. Bannwarth, F. Bohle, G. Brandenburg, E. Caldeweyher
   M. Checinski, S. Dohm, S. Ehlert, S. Ehrlich, I. Gerasimov, C. Hölzer
   A. Katbashev, J. Kohn, J. Koopman, C. Lavigne, S. Lehtola, F. März, M. Müller,
   F. Musil, H. Neugebauer, J. Pisarek, C. Plett, P. Pracht, F. Pultar,
   J. Seibert, P. Shushkov, S. Spicher, M. Stahn, M. Steiner, T. Strunk,
   J. Stückrath, T. Rose, and J. Unsleber
   
 * started run on 2025/04/06 at 22:38:50.624     
   ID    Z sym.   atoms
    1    6 C      1-4
    2    8 O      5
    3    1 H      6-15

           -------------------------------------------------
          |                Calculation Setup                |
           -------------------------------------------------

          program call               : /srv/scratch/z5358697/.xtb/bin/xtb xtb_rrho.coord --gfn2 --ohess vtight --chrg 0 --enso --norestart -I rrho-xcontrol-inp --parallel 1 --alpb water
          hostname                   : k159
          coordinate file            : xtb_rrho.coord
          omp threads                :                     1


           -------------------------------------------------
          |                 G F N 2 - x T B                 |
           -------------------------------------------------

        Reference                      10.1021/acs.jctc.8b01176
      * Hamiltonian:
        H0-scaling (s, p, d)           1.850000    2.230000    2.230000
        zeta-weighting                 0.500000
      * Dispersion:
        s8                             2.700000
        a1                             0.520000
        a2                             5.000000
        s9                             5.000000
      * Repulsion:
        kExp                           1.500000    1.000000
        rExp                           1.000000
      * Coulomb:
        alpha                          2.000000
        third order                    shell-resolved
        anisotropic                    true
        a3                             3.000000
        a5                             4.000000
        cn-shift                       1.200000
        cn-exp                         4.000000
        max-rad                        5.000000

      * Solvation model:               ALPB
        Solvent                        water
        Parameter file                 internal GFN2-xTB/ALPB
        Dielectric constant                8.0200E+01
        Reference state                gsolv [1 M gas/solution]
        Free energy shift                  1.0808E-03 Eh       6.7819E-01 kcal/mol
        Temperature                        2.9815E+02 K
        Density                            1.0000E+00 kg/L
        Solvent mass                       1.8000E+01 g/mol
        Interaction kernel             P16
        Born radius scaling (c1)           1.4744E+00
        Born radii integrator          GBOBC
        Born offset                        0.0000E+00 a0       0.0000E+00 AA
        H-bond correction              true
        Ion screening                  false
        Surface tension                    1.0000E-05 Eh       1.5569E+01 dyn/cm
        Grid points                               974 per atom

          ...................................................
          :                      SETUP                      :
          :.................................................:
          :  # basis functions                  30          :
          :  # atomic orbitals                  30          :
          :  # shells                           20          :
          :  # electrons                        32          :
          :  max. iterations                   250          :
          :  Hamiltonian                  GFN2-xTB          :
          :  restarted?                      false          :
          :  GBSA solvation                   true          :
          :  PC potential                    false          :
          :  electronic temp.          300.0000000     K    :
          :  accuracy                    1.0000000          :
          :  -> integral cutoff          0.2500000E+02      :
          :  -> integral neglect         0.1000000E-07      :
          :  -> SCF convergence          0.1000000E-05 Eh   :
          :  -> wf. convergence          0.1000000E-03 e    :
          :  Broyden damping             0.4000000          :
          :  net charge                          0          :
          :  unpaired electrons                  0          :
          ...................................................

 iter      E             dE          RMSdq      gap      omega  full diag
   1    -17.9062673 -0.179063E+02  0.332E+00   12.15       0.0  T
   2    -17.9328257 -0.265584E-01  0.174E+00   11.86       1.0  T
   3    -17.9336578 -0.832111E-03  0.627E-01   11.85       1.0  T
   4    -17.9338180 -0.160272E-03  0.119E-01   11.84       1.0  T
   5    -17.9338367 -0.186611E-04  0.667E-02   11.86       1.0  T
   6    -17.9338396 -0.288204E-05  0.133E-02   11.86       1.9  T
   7    -17.9338399 -0.309018E-06  0.609E-03   11.86       4.2  T
   8    -17.9338400 -0.670679E-07  0.237E-03   11.86      10.9  T
   9    -17.9338400 -0.685813E-08  0.686E-04   11.86      37.7  T
  10    -17.9338400 -0.129096E-08  0.176E-04   11.86     146.8  T

   *** convergence criteria satisfied after 10 iterations ***

         #    Occupation            Energy/Eh            Energy/eV
      -------------------------------------------------------------
         1        2.0000           -0.6826840             -18.5768
       ...           ...                  ...                  ...
        10        2.0000           -0.4760773             -12.9547
        11        2.0000           -0.4683307             -12.7439
        12        2.0000           -0.4529945             -12.3266
        13        2.0000           -0.4371098             -11.8944
        14        2.0000           -0.4341520             -11.8139
        15        2.0000           -0.4198746             -11.4254
        16        2.0000           -0.4082610             -11.1093 (HOMO)
        17                          0.0276952               0.7536 (LUMO)
        18                          0.0768124               2.0902
        19                          0.1150443               3.1305
        20                          0.1294749               3.5232
        21                          0.1364193               3.7122
       ...                                ...                  ...
        30                          0.2972678               8.0891
      -------------------------------------------------------------
                  HL-Gap            0.4359561 Eh           11.8630 eV
             Fermi-level           -0.1902829 Eh           -5.1779 eV

 SCC (total)                   0 d,  0 h,  0 min,  0.020 sec
 SCC setup                      ...        0 min,  0.001 sec (  3.428%)
 Dispersion                     ...        0 min,  0.000 sec (  0.273%)
 classical contributions        ...        0 min,  0.000 sec (  0.063%)
 integral evaluation            ...        0 min,  0.001 sec (  3.408%)
 iterations                     ...        0 min,  0.017 sec ( 82.349%)
 molecular gradient             ...        0 min,  0.002 sec (  9.952%)
 printout                       ...        0 min,  0.000 sec (  0.471%)

         :::::::::::::::::::::::::::::::::::::::::::::::::::::
         ::                     SUMMARY                     ::
         :::::::::::::::::::::::::::::::::::::::::::::::::::::
         :: total energy             -17.726808108155 Eh    ::
         :: total w/o Gsasa/hb       -17.721954021092 Eh    ::
         :: gradient norm              0.028696041531 Eh/a0 ::
         :: HOMO-LUMO gap             11.862970259904 eV    ::
         ::.................................................::
         :: SCC energy               -17.933833755471 Eh    ::
         :: -> isotropic ES            0.036660132968 Eh    ::
         :: -> anisotropic ES          0.004304891710 Eh    ::
         :: -> anisotropic XC          0.006471009436 Eh    ::
         :: -> dispersion             -0.006985500392 Eh    ::
         :: -> Gsolv                  -0.009719679273 Eh    ::
         ::    -> Gelec               -0.004865592209 Eh    ::
         ::    -> Gsasa                0.000409084383 Eh    ::
         ::    -> Ghb                 -0.006343931145 Eh    ::
         ::    -> Gshift               0.001080759698 Eh    ::
         :: repulsion energy           0.207025647316 Eh    ::
         :: add. restraining           0.000000000000 Eh    ::
         :: total charge              -0.000000000000 e     ::
         :::::::::::::::::::::::::::::::::::::::::::::::::::::

      ----------------------------------------------------------- 
     |                   =====================                   |
     |                        A N C O P T                        |
     |                   =====================                   |
     |               Approximate Normal Coordinate               |
     |                Rational Function Optimizer                |
      ----------------------------------------------------------- 
      ----------------------------------------------------------- 
     |                   =====================                   |
     |                        A N C O P T                        |
     |                   =====================                   |
     |               Approximate Normal Coordinate               |
     |                Rational Function Optimizer                |
      ----------------------------------------------------------- 

          ...................................................
          :                      SETUP                      :
          :.................................................:
          :   optimization level         verytight          :
          :   max. optcycles                   300          :
          :   ANC micro-cycles                  20          :
          :   degrees of freedom                39          :
          :.................................................:
          :   RF solver                   davidson          :
          :   write xtbopt.log                true          :
          :   linear?                        false          :
          :   energy convergence         0.1000000E-06 Eh   :
          :   grad. convergence          0.2000000E-03 Eh/α :
          :   maxmium RF displ.          1.0000000          :
          :   Hlow (freq-cutoff)         0.1000000E-01      :
          :   Hmax (freq-cutoff)         5.0000000          :
          :   S6 in model hess.         20.0000000          :
          ...................................................

generating ANC from exact Hessian ...
Using Lindh-Hessian (1995)
 Shifting diagonal of input Hessian by   6.783954185729760E-003
 Lowest  eigenvalues of input Hessian
    0.000000    0.000000    0.000000    0.000000    0.000000    0.000000
    0.010000    0.011692    0.014213    0.017886    0.021254    0.033219
    0.043394    0.046386    0.056717    0.058361    0.061417    0.063250
 Highest eigenvalues
    1.149523    1.174868    1.207321    1.221809    1.299769    1.416999
 

........................................................................
.............................. CYCLE    1 ..............................
........................................................................

 iter      E             dE          RMSdq      gap      omega  full diag
   1    -17.9338400 -0.179338E+02  0.422E-05   11.86       0.0  T
   2    -17.9338400 -0.119691E-10  0.154E-05   11.86    1676.6  T
   3    -17.9338400 -0.433431E-12  0.973E-06   11.86    2654.4  T
     SCC iter.                  ...        0 min,  0.001 sec
     gradient                   ...        0 min,  0.003 sec
 * total energy  :   -17.7268081 Eh     change       -0.5382006E-10 Eh
   gradient norm :     0.0286962 Eh/α   predicted     0.0000000E+00 (-100.00%)
   displ. norm   :     0.1148847 α      lambda       -0.1355268E-02
   maximum displ.:     0.0587337 α      in ANC's #5, #10, #2, ...

........................................................................
.............................. CYCLE    2 ..............................
........................................................................

 iter      E             dE          RMSdq      gap      omega  full diag
   1    -17.9397568 -0.179398E+02  0.121E-01   12.14       0.0  T
   2    -17.9397626 -0.576800E-05  0.700E-02   12.14       1.0  T
   3    -17.9397631 -0.523754E-06  0.109E-02   12.14       2.4  T
   4    -17.9397634 -0.298217E-06  0.328E-03   12.14       7.9  T
   5    -17.9397634 -0.168771E-07  0.184E-03   12.14      14.1  T
   6    -17.9397634 -0.478971E-08  0.608E-04   12.14      42.5  T
   7    -17.9397634 -0.672838E-09  0.206E-04   12.14     125.5  T
     SCC iter.                  ...        0 min,  0.001 sec
     gradient                   ...        0 min,  0.002 sec
 * total energy  :   -17.7276660 Eh     change       -0.8579271E-03 Eh
   gradient norm :     0.0126224 Eh/α   predicted    -0.6865764E-03 ( -19.97%)
   displ. norm   :     0.0747908 α      lambda       -0.3081962E-03
   maximum displ.:     0.0400679 α      in ANC's #2, #1, #3, ...

........................................................................
.............................. CYCLE    3 ..............................
........................................................................

 iter      E             dE          RMSdq      gap      omega  full diag
   1    -17.9424731 -0.179425E+02  0.483E-02   12.38       0.0  T
   2    -17.9424763 -0.318418E-05  0.279E-02   12.38       1.0  T
   3    -17.9424765 -0.221062E-06  0.914E-03   12.38       2.8  T
   4    -17.9424766 -0.109501E-06  0.211E-03   12.38      12.3  T
   5    -17.9424766 -0.861786E-08  0.104E-03   12.38      24.9  T
   6    -17.9424766 -0.133818E-08  0.444E-04   12.38      58.2  T
   7    -17.9424766 -0.269925E-09  0.140E-04   12.38     184.4  T
     SCC iter.                  ...        0 min,  0.001 sec
     gradient                   ...        0 min,  0.002 sec
 * total energy  :   -17.7278476 Eh     change       -0.1815186E-03 Eh
   gradient norm :     0.0035621 Eh/α   predicted    -0.1549594E-03 ( -14.63%)
   displ. norm   :     0.0455152 α      lambda       -0.4766581E-04
   maximum displ.:     0.0258401 α      in ANC's #1, #3, #2, ...

........................................................................
.............................. CYCLE    4 ..............................
........................................................................

 iter      E             dE          RMSdq      gap      omega  full diag
   1    -17.9423239 -0.179423E+02  0.221E-02   12.45       0.0  T
   2    -17.9423241 -0.223018E-06  0.133E-02   12.45       1.9  T
   3    -17.9423241 -0.193003E-07  0.241E-03   12.45      10.7  T
   4    -17.9423241 -0.169019E-07  0.746E-04   12.45      34.6  T
   5    -17.9423241 -0.817732E-09  0.292E-04   12.45      88.4  T
     SCC iter.                  ...        0 min,  0.001 sec
     gradient                   ...        0 min,  0.002 sec
 * total energy  :   -17.7278791 Eh     change       -0.3158407E-04 Eh
   gradient norm :     0.0015634 Eh/α   predicted    -0.2388284E-04 ( -24.38%)
   displ. norm   :     0.0576603 α      lambda       -0.1646536E-04
   maximum displ.:     0.0419363 α      in ANC's #1, #4, #3, ...

........................................................................
.............................. CYCLE    5 ..............................
........................................................................

 iter      E             dE          RMSdq      gap      omega  full diag
   1    -17.9416445 -0.179416E+02  0.267E-02   12.49       0.0  T
   2    -17.9416447 -0.133357E-06  0.160E-02   12.49       1.6  T
   3    -17.9416447 -0.248578E-07  0.171E-03   12.49      15.1  T
   4    -17.9416447 -0.805003E-08  0.733E-04   12.49      35.2  T
   5    -17.9416447 -0.415881E-09  0.272E-04   12.49      94.8  T
     SCC iter.                  ...        0 min,  0.001 sec
     gradient                   ...        0 min,  0.002 sec
 * total energy  :   -17.7278911 Eh     change       -0.1197533E-04 Eh
   gradient norm :     0.0013649 Eh/α   predicted    -0.8245857E-05 ( -31.14%)
   displ. norm   :     0.0231603 α      lambda       -0.4526857E-05
   maximum displ.:     0.0198028 α      in ANC's #1, #4, #2, ...

........................................................................
.............................. CYCLE    6 ..............................
........................................................................

 iter      E             dE          RMSdq      gap      omega  full diag
   1    -17.9416731 -0.179417E+02  0.109E-02   12.48       0.0  T
   2    -17.9416732 -0.185629E-07  0.660E-03   12.48       3.9  T
   3    -17.9416732 -0.348050E-08  0.551E-04   12.48      46.8  T
   4    -17.9416732 -0.950511E-09  0.261E-04   12.48      99.0  T
     SCC iter.                  ...        0 min,  0.001 sec
     gradient                   ...        0 min,  0.002 sec
 * total energy  :   -17.7278967 Eh     change       -0.5568981E-05 Eh
   gradient norm :     0.0007148 Eh/α   predicted    -0.2264547E-05 ( -59.34%)
   displ. norm   :     0.0423430 α      lambda       -0.5690886E-05
   maximum displ.:     0.0353138 α      in ANC's #1, #4, #6, ...

........................................................................
.............................. CYCLE    7 ..............................
........................................................................

 iter      E             dE          RMSdq      gap      omega  full diag
   1    -17.9418882 -0.179419E+02  0.206E-02   12.46       0.0  T
   2    -17.9418882 -0.308187E-07  0.125E-02   12.46       2.1  T
   3    -17.9418882 -0.116412E-07  0.820E-04   12.46      31.5  T
   4    -17.9418882 -0.186774E-08  0.451E-04   12.46      57.2  T
     SCC iter.                  ...        0 min,  0.001 sec
     gradient                   ...        0 min,  0.002 sec
 * total energy  :   -17.7279028 Eh     change       -0.6127440E-05 Eh
   gradient norm :     0.0005294 Eh/α   predicted    -0.2847768E-05 ( -53.52%)
   displ. norm   :     0.0356204 α      lambda       -0.2572900E-05
   maximum displ.:     0.0307490 α      in ANC's #1, #4, #2, ...

........................................................................
.............................. CYCLE    8 ..............................
........................................................................

 iter      E             dE          RMSdq      gap      omega  full diag
   1    -17.9418952 -0.179419E+02  0.166E-02   12.46       0.0  T
   2    -17.9418952 -0.169027E-07  0.101E-02   12.46       2.6  T
   3    -17.9418952 -0.720225E-08  0.595E-04   12.46      43.4  T
   4    -17.9418952 -0.642149E-09  0.338E-04   12.46      76.3  T
     SCC iter.                  ...        0 min,  0.001 sec
     gradient                   ...        0 min,  0.002 sec
 * total energy  :   -17.7279057 Eh     change       -0.2854815E-05 Eh
   gradient norm :     0.0003749 Eh/α   predicted    -0.1287503E-05 ( -54.90%)
   displ. norm   :     0.0201112 α      lambda       -0.1119130E-05
   maximum displ.:     0.0183437 α      in ANC's #1, #3, #2, ...

........................................................................
.............................. CYCLE    9 ..............................
........................................................................

 iter      E             dE          RMSdq      gap      omega  full diag
   1    -17.9419137 -0.179419E+02  0.895E-03   12.46       0.0  T
   2    -17.9419137 -0.497160E-08  0.542E-03   12.46       4.8  T
   3    -17.9419137 -0.174828E-08  0.292E-04   12.46      88.5  T
   4    -17.9419137 -0.126516E-09  0.169E-04   12.46     152.5  T
     SCC iter.                  ...        0 min,  0.001 sec
     gradient                   ...        0 min,  0.002 sec
 * total energy  :   -17.7279070 Eh     change       -0.1333397E-05 Eh
   gradient norm :     0.0002030 Eh/α   predicted    -0.5586832E-06 ( -58.10%)
   displ. norm   :     0.0130405 α      lambda       -0.6306079E-06
   maximum displ.:     0.0122642 α      in ANC's #1, #3, #2, ...

........................................................................
.............................. CYCLE   10 ..............................
........................................................................

 iter      E             dE          RMSdq      gap      omega  full diag
   1    -17.9419136 -0.179419E+02  0.440E-03   12.47       0.0  T
   2    -17.9419136 -0.117606E-08  0.265E-03   12.47       9.8  T
   3    -17.9419136 -0.371845E-09  0.141E-04   12.47     182.7  T
   4    -17.9419136 -0.387423E-10  0.786E-05   12.47     328.7  T
     SCC iter.                  ...        0 min,  0.001 sec
     gradient                   ...        0 min,  0.002 sec
 * total energy  :   -17.7279078 Eh     change       -0.8346680E-06 Eh
   gradient norm :     0.0001201 Eh/α   predicted    -0.3143850E-06 ( -62.33%)
   displ. norm   :     0.0126538 α      lambda       -0.5726774E-06
   maximum displ.:     0.0110481 α      in ANC's #1, #4, #3, ...

........................................................................
.............................. CYCLE   11 ..............................
........................................................................

 iter      E             dE          RMSdq      gap      omega  full diag
   1    -17.9418958 -0.179419E+02  0.365E-03   12.47       0.0  T
   2    -17.9418958 -0.421636E-09  0.219E-03   12.47      11.8  T
   3    -17.9418958 -0.234888E-09  0.936E-05   12.47     275.9  T
   4    -17.9418958 -0.112230E-10  0.549E-05   12.47     470.2  T
     SCC iter.                  ...        0 min,  0.001 sec
     gradient                   ...        0 min,  0.002 sec
 * total energy  :   -17.7279086 Eh     change       -0.7682621E-06 Eh
   gradient norm :     0.0001479 Eh/α   predicted    -0.2861054E-06 ( -62.76%)
   displ. norm   :     0.0149541 α      lambda       -0.5822974E-06
   maximum displ.:     0.0125202 α      in ANC's #1, #4, #3, ...

........................................................................
.............................. CYCLE   12 ..............................
........................................................................

 iter      E             dE          RMSdq      gap      omega  full diag
   1    -17.9418914 -0.179419E+02  0.438E-03   12.47       0.0  T
   2    -17.9418914 -0.644594E-09  0.264E-03   12.47       9.8  T
   3    -17.9418914 -0.380940E-09  0.117E-04   12.47     221.3  T
   4    -17.9418914 -0.809663E-11  0.481E-05   12.47     537.1  T
     SCC iter.                  ...        0 min,  0.001 sec
     gradient                   ...        0 min,  0.002 sec
 * total energy  :   -17.7279093 Eh     change       -0.7319204E-06 Eh
   gradient norm :     0.0001169 Eh/α   predicted    -0.2911078E-06 ( -60.23%)
   displ. norm   :     0.0133206 α      lambda       -0.3902242E-06
   maximum displ.:     0.0115912 α      in ANC's #1, #4, #3, ...

........................................................................
.............................. CYCLE   13 ..............................
........................................................................

 iter      E             dE          RMSdq      gap      omega  full diag
   1    -17.9418900 -0.179419E+02  0.409E-03   12.47       0.0  T
   2    -17.9418900 -0.593360E-09  0.246E-03   12.47      10.5  T
   3    -17.9418900 -0.349836E-09  0.114E-04   12.47     227.2  T
   4    -17.9418900 -0.938272E-11  0.620E-05   12.47     416.2  T
     SCC iter.                  ...        0 min,  0.001 sec
     gradient                   ...        0 min,  0.002 sec
 * total energy  :   -17.7279098 Eh     change       -0.4651362E-06 Eh
   gradient norm :     0.0000771 Eh/α   predicted    -0.1945731E-06 ( -58.17%)
   displ. norm   :     0.0083659 α      lambda       -0.1846245E-06
   maximum displ.:     0.0078875 α      in ANC's #1, #4, #7, ...

........................................................................
.............................. CYCLE   14 ..............................
........................................................................

 iter      E             dE          RMSdq      gap      omega  full diag
   1    -17.9418913 -0.179419E+02  0.245E-03   12.47       0.0  T
   2    -17.9418913 -0.226354E-09  0.147E-03   12.47      17.6  T
   3    -17.9418913 -0.126089E-09  0.726E-05   12.47     355.7  T
   4    -17.9418913 -0.813216E-11  0.441E-05   12.47     585.8  T
     SCC iter.                  ...        0 min,  0.001 sec
     gradient                   ...        0 min,  0.002 sec
 * total energy  :   -17.7279100 Eh     change       -0.2373850E-06 Eh
   gradient norm :     0.0000463 Eh/α   predicted    -0.9404795E-07 ( -60.38%)
   displ. norm   :     0.0052250 α      lambda       -0.1053117E-06
   maximum displ.:     0.0051508 α      in ANC's #1, #7, #4, ...

........................................................................
.............................. CYCLE   15 ..............................
........................................................................

 iter      E             dE          RMSdq      gap      omega  full diag
   1    -17.9418955 -0.179419E+02  0.167E-03   12.47       0.0  T
   2    -17.9418955 -0.801741E-10  0.994E-04   12.47      26.0  T
   3    -17.9418955 -0.524452E-10  0.439E-05   12.47     588.5  T
     SCC iter.                  ...        0 min,  0.001 sec
     gradient                   ...        0 min,  0.002 sec
 * total energy  :   -17.7279102 Eh     change       -0.1498257E-06 Eh
   gradient norm :     0.0000430 Eh/α   predicted    -0.5399162E-07 ( -63.96%)
   displ. norm   :     0.0048770 α      lambda       -0.9380448E-07
   maximum displ.:     0.0044987 α      in ANC's #1, #4, #3, ...

........................................................................
.............................. CYCLE   16 ..............................
........................................................................

 iter      E             dE          RMSdq      gap      omega  full diag
   1    -17.9418984 -0.179419E+02  0.150E-03   12.46       0.0  T
   2    -17.9418984 -0.801883E-10  0.897E-04   12.46      28.8  T
   3    -17.9418984 -0.456595E-10  0.433E-05   12.46     597.0  T
     SCC iter.                  ...        0 min,  0.001 sec
     gradient                   ...        0 min,  0.002 sec
 * total energy  :   -17.7279103 Eh     change       -0.1324774E-06 Eh
   gradient norm :     0.0000364 Eh/α   predicted    -0.4845383E-07 ( -63.42%)
   displ. norm   :     0.0052583 α      lambda       -0.8805287E-07
   maximum displ.:     0.0046361 α      in ANC's #1, #4, #3, ...

........................................................................
.............................. CYCLE   17 ..............................
........................................................................

 iter      E             dE          RMSdq      gap      omega  full diag
   1    -17.9418963 -0.179419E+02  0.178E-03   12.47       0.0  T
   2    -17.9418963 -0.105395E-09  0.106E-03   12.47      24.3  T
   3    -17.9418963 -0.614762E-10  0.500E-05   12.47     516.1  T
   4    -17.9418963 -0.235190E-11  0.293E-05   12.47     882.0  T
     SCC iter.                  ...        0 min,  0.001 sec
     gradient                   ...        0 min,  0.002 sec
 * total energy  :   -17.7279104 Eh     change       -0.1134608E-06 Eh
   gradient norm :     0.0000280 Eh/α   predicted    -0.4377971E-07 ( -61.41%)
   displ. norm   :     0.0045224 α      lambda       -0.6075402E-07
   maximum displ.:     0.0041042 α      in ANC's #1, #4, #3, ...

........................................................................
.............................. CYCLE   18 ..............................
........................................................................

 iter      E             dE          RMSdq      gap      omega  full diag
   1    -17.9418999 -0.179419E+02  0.137E-03   12.47       0.0  T
   2    -17.9418999 -0.753957E-10  0.821E-04   12.47      31.4  T
   3    -17.9418999 -0.357758E-10  0.393E-05   12.47     657.3  T
     SCC iter.                  ...        0 min,  0.000 sec
     gradient                   ...        0 min,  0.002 sec
 * total energy  :   -17.7279105 Eh     change       -0.7361577E-07 Eh
   gradient norm :     0.0000205 Eh/α   predicted    -0.2899701E-07 ( -60.61%)
   displ. norm   :     0.0031191 α      lambda       -0.3466214E-07
   maximum displ.:     0.0030043 α      in ANC's #1, #4, #6, ...

   *** GEOMETRY OPTIMIZATION CONVERGED AFTER 18 ITERATIONS ***

------------------------------------------------------------------------
 total energy gain   :        -0.0011024 Eh       -0.6918 kcal/mol
 total RMSD          :         0.0950768 a0        0.0503 Å
 total power (kW/mol):        -0.1607968 (step)  -34.2587 (real)
------------------------------------------------------------------------

 ANCopt (total)                0 d,  0 h,  0 min,  0.084 sec
 optimizer setup                ...        0 min,  0.000 sec (  0.295%)
 model hessian                  ...        0 min,  0.003 sec (  3.057%)
 ANC generation                 ...        0 min,  0.000 sec (  0.249%)
 coordinate transformation      ...        0 min,  0.000 sec (  0.075%)
 single point calculation       ...        0 min,  0.074 sec ( 87.611%)
 optimization log               ...        0 min,  0.005 sec (  6.000%)
 hessian update                 ...        0 min,  0.000 sec (  0.083%)
 rational function              ...        0 min,  0.002 sec (  1.967%)

================
 final structure:
================
$coord
        4.56730546688963       -0.57189152357527       -0.29376745510452      C
        1.93184025455597        0.51409564897638       -0.69528920190396      C
        0.11525636347254       -0.27804739075528        1.40229151695357      C
       -2.54440596046750        0.75012106684330        0.97110384850851      C
       -3.58357080622038       -0.39458489971237       -1.21144848553242      O
        5.34697377058308        0.07688170935611        1.49413550664241      H
        4.50230745506521       -2.62571959503706       -0.26517565977065      H
        5.82592840787157        0.01783372352194       -1.80623337389413      H
        2.03744268370720        2.57501469262863       -0.75843257775105      H
        1.17431188837883       -0.13609012471935       -2.50020010905174      H
        0.01029161482322       -2.33653638645732        1.47494314040674      H
        0.79830160866472        0.40761222415343        3.22294819332150      H
       -3.72578003939671        0.32501553706776        2.62504231990686      H
       -2.46165715714340        2.81024051454046        0.72832360886949      H
       -5.25232849977039        0.27967601961703       -1.51423363313255      H
$end
 
 Bond Distances (Angstroems)
 ---------------------------
C1-C2=1.5233         C1-H6=1.0878         C1-H7=1.0875         C1-H8=1.0870         C2-C1=1.5233         C2-C3=1.5271         
C2-H9=1.0925         C2-H10=1.0915        C3-C2=1.5271         C3-C4=1.5261         C3-H11=1.0914        C3-H12=1.0911        
C4-C3=1.5261         C4-O5=1.4154         C4-H13=1.0988        C4-H14=1.0986        O5-C4=1.4154         O5-H15=0.9658        
H6-C1=1.0878         H7-C1=1.0875         H8-C1=1.0870         H9-C2=1.0925         H10-C2=1.0915        H11-C3=1.0914        
H12-C3=1.0911        H13-C4=1.0988        H14-C4=1.0986        H15-O5=0.9658        
 C  H  Rav=1.0918 sigma=0.0041  Rmin=1.0870  Rmax=1.0988     9
 C  C  Rav=1.5255 sigma=0.0016  Rmin=1.5233  Rmax=1.5271     3
 O  H  Rav=0.9658 sigma=0.0000  Rmin=0.9658  Rmax=0.9658     1
 O  C  Rav=1.4154 sigma=0.0000  Rmin=1.4154  Rmax=1.4154     1
 
 selected bond angles (degree)
 --------------------
H6-C1-C2=110.46                H7-C1-C2=110.49                H7-C1-H6=108.38                H8-C1-C2=110.49                
H8-C1-H6=108.51                H8-C1-H7=108.45                C3-C2-C1=111.80                H9-C2-C1=109.51                
H9-C2-C3=109.17                H10-C2-C1=109.84               H10-C2-C3=108.56               H10-C2-H9=107.86               
C4-C3-C2=111.96                H11-C3-C2=109.37               H11-C3-C4=108.31               H12-C3-C2=110.00               
H12-C3-C4=108.60               H12-C3-H11=108.52              O5-C4-C3=109.13                H13-C4-C3=109.43               
H13-C4-O5=109.96               H14-C4-C3=109.54               H14-C4-O5=110.17               H14-C4-H13=108.60              
H15-O5-C4=109.42               
 
 selected dihedral angles (degree)
 ---------------------------------
C3-C2-C1-H6=300.13            C3-C2-C1-H7= 60.04            C3-C2-C1-H8=180.06            H9-C2-C1-H6= 61.26            
H9-C2-C1-H7=181.17            H9-C2-C1-H8=301.20            H10-C2-C1-H6=179.54           H10-C2-C1-H7=299.45           
H10-C2-C1-H8= 59.48           C4-C3-C2-C1=181.47            C4-C3-C2-H9= 60.14            C4-C3-C2-H10=302.80           
H11-C3-C2-C1=301.53           H11-C3-C2-H9=180.20           H11-C3-C2-H10= 62.85          H12-C3-C2-C1= 60.62           
H12-C3-C2-H9=299.29           H12-C3-C2-H10=181.95          O5-C4-C3-C2= 66.19            O5-C4-C3-H11=305.52           
O5-C4-C3-H12=187.85           H13-C4-C3-C2=186.55           H13-C4-C3-H11= 65.88          H13-C4-C3-H12=308.21          
H14-C4-C3-C2=305.51           H14-C4-C3-H11=184.84          H14-C4-C3-H12= 67.16          H15-O5-C4-C3=181.32           
H15-O5-C4-H13= 61.29          H15-O5-C4-H14=301.62          
           -------------------------------------------------
          |                Final Singlepoint                |
           -------------------------------------------------

          ...................................................
          :                      SETUP                      :
          :.................................................:
          :  # basis functions                  30          :
          :  # atomic orbitals                  30          :
          :  # shells                           20          :
          :  # electrons                        32          :
          :  max. iterations                   250          :
          :  Hamiltonian                  GFN2-xTB          :
          :  restarted?                      false          :
          :  GBSA solvation                   true          :
          :  PC potential                    false          :
          :  electronic temp.          300.0000000     K    :
          :  accuracy                    1.0000000          :
          :  -> integral cutoff          0.2500000E+02      :
          :  -> integral neglect         0.1000000E-07      :
          :  -> SCF convergence          0.1000000E-05 Eh   :
          :  -> wf. convergence          0.1000000E-03 e    :
          :  Broyden damping             0.4000000          :
          :  net charge                          0          :
          :  unpaired electrons                  0          :
          ...................................................

 iter      E             dE          RMSdq      gap      omega  full diag
   1    -17.9418999 -0.179419E+02  0.238E-05   12.47       0.0  T
   2    -17.9418999 -0.415668E-12  0.154E-05   12.47    1672.5  T
   3    -17.9418999 -0.291323E-12  0.318E-06   12.47    8116.5  T

   *** convergence criteria satisfied after 3 iterations ***

         #    Occupation            Energy/Eh            Energy/eV
      -------------------------------------------------------------
         1        2.0000           -0.6856146             -18.6565
       ...           ...                  ...                  ...
        10        2.0000           -0.4757269             -12.9452
        11        2.0000           -0.4674064             -12.7188
        12        2.0000           -0.4543806             -12.3643
        13        2.0000           -0.4357138             -11.8564
        14        2.0000           -0.4323425             -11.7646
        15        2.0000           -0.4209454             -11.4545
        16        2.0000           -0.4064511             -11.0601 (HOMO)
        17                          0.0516401               1.4052 (LUMO)
        18                          0.0818567               2.2274
        19                          0.1209395               3.2909
        20                          0.1324361               3.6038
        21                          0.1426896               3.8828
       ...                                ...                  ...
        30                          0.3130034               8.5173
      -------------------------------------------------------------
                  HL-Gap            0.4580912 Eh           12.4653 eV
             Fermi-level           -0.1774055 Eh           -4.8274 eV

 SCC (total)                   0 d,  0 h,  0 min,  0.004 sec
 SCC setup                      ...        0 min,  0.001 sec ( 16.314%)
 Dispersion                     ...        0 min,  0.000 sec (  0.789%)
 classical contributions        ...        0 min,  0.000 sec (  0.263%)
 integral evaluation            ...        0 min,  0.001 sec ( 16.652%)
 iterations                     ...        0 min,  0.001 sec ( 18.180%)
 molecular gradient             ...        0 min,  0.002 sec ( 45.234%)
 printout                       ...        0 min,  0.000 sec (  2.236%)

         :::::::::::::::::::::::::::::::::::::::::::::::::::::
         ::                     SUMMARY                     ::
         :::::::::::::::::::::::::::::::::::::::::::::::::::::
         :: total energy             -17.727910504698 Eh    ::
         :: total w/o Gsasa/hb       -17.722852320787 Eh    ::
         :: gradient norm              0.000020611092 Eh/a0 ::
         :: HOMO-LUMO gap             12.465296171605 eV    ::
         ::.................................................::
         :: SCC energy               -17.941893512168 Eh    ::
         :: -> isotropic ES            0.035881632871 Eh    ::
         :: -> anisotropic ES          0.003819163588 Eh    ::
         :: -> anisotropic XC          0.005921777728 Eh    ::
         :: -> dispersion             -0.007026239036 Eh    ::
         :: -> Gsolv                  -0.009678146616 Eh    ::
         ::    -> Gelec               -0.004619962704 Eh    ::
         ::    -> Gsasa                0.000347123711 Eh    ::
         ::    -> Ghb                 -0.006486067321 Eh    ::
         ::    -> Gshift               0.001080759698 Eh    ::
         :: repulsion energy           0.213983007470 Eh    ::
         :: add. restraining           0.000000000000 Eh    ::
         :: total charge              -0.000000000000 e     ::
         :::::::::::::::::::::::::::::::::::::::::::::::::::::

           ------------------------------------------------- 
          |                Numerical Hessian                |
           ------------------------------------------------- 
step length          :   0.00500
SCC accuracy         :   0.30000
Hessian scale factor :   1.00000
frozen atoms in %    :   0.00000    0
RMS gradient         :   0.00002
estimated CPU  time      0.01 min
estimated wall time      0.01 min

writing file <hessian>.

 projected vibrational frequencies (cm⁻¹)
eigval :       -0.00    -0.00    -0.00    -0.00     0.00     0.00
eigval :       86.98   117.15   231.46   236.21   280.59   335.46
eigval :      491.16   779.93   869.45   884.22   973.76   984.66
eigval :     1061.14  1100.61  1124.76  1142.31  1200.68  1227.29
eigval :     1252.73  1281.12  1303.96  1358.54  1370.30  1410.44
eigval :     1466.68  1478.73  1493.35  1499.27  1502.19  2856.66
eigval :     2890.87  2962.35  2978.41  2988.49  2990.63  3025.91
eigval :     3030.76  3039.92  3516.03
           -------------------------------------------------
          |                Property Printout                |
           -------------------------------------------------

    * Orbital Energies and Occupations

         #    Occupation            Energy/Eh            Energy/eV
      -------------------------------------------------------------
         1        2.0000           -0.6856146             -18.6565
       ...           ...                  ...                  ...
         4        2.0000           -0.5781283             -15.7317
         5        2.0000           -0.5638397             -15.3429
         6        2.0000           -0.5564659             -15.1422
         7        2.0000           -0.5234105             -14.2427
         8        2.0000           -0.5110393             -13.9061
         9        2.0000           -0.5005385             -13.6203
        10        2.0000           -0.4757269             -12.9452
        11        2.0000           -0.4674064             -12.7188
        12        2.0000           -0.4543806             -12.3643
        13        2.0000           -0.4357138             -11.8564
        14        2.0000           -0.4323425             -11.7646
        15        2.0000           -0.4209454             -11.4545
        16        2.0000           -0.4064511             -11.0601 (HOMO)
        17                          0.0516401               1.4052 (LUMO)
        18                          0.0818567               2.2274
        19                          0.1209395               3.2909
        20                          0.1324361               3.6038
        21                          0.1426896               3.8828
        22                          0.1627088               4.4275
        23                          0.1676443               4.5618
        24                          0.1896883               5.1617
        25                          0.2133729               5.8062
        26                          0.2244862               6.1086
        27                          0.2486590               6.7664
       ...                                ...                  ...
        30                          0.3130034               8.5173
      -------------------------------------------------------------
                  HL-Gap            0.4580912 Eh           12.4653 eV
             Fermi-level           -0.1774055 Eh           -4.8274 eV

     #   Z          covCN         q      C6AA      α(0)
     1   6 C        3.752    -0.113    22.722     6.798
     2   6 C        3.801    -0.058    21.608     6.618
     3   6 C        3.802    -0.068    21.806     6.648
     4   6 C        3.674     0.084    19.411     6.314
     5   8 O        1.655    -0.522    23.370     6.526
     6   1 H        0.925     0.038     2.470     2.458
     7   1 H        0.925     0.038     2.482     2.464
     8   1 H        0.925     0.040     2.450     2.448
     9   1 H        0.924     0.032     2.554     2.499
    10   1 H        0.924     0.042     2.428     2.437
    11   1 H        0.924     0.047     2.352     2.398
    12   1 H        0.924     0.040     2.452     2.449
    13   1 H        0.923     0.020     2.734     2.586
    14   1 H        0.923     0.021     2.722     2.580
    15   1 H        0.805     0.359     0.567     1.183

 Mol. C6AA /au·bohr⁶  :       1463.991934
 Mol. C8AA /au·bohr⁸  :      29945.884107
 Mol. α(0) /au        :         56.404232


Wiberg/Mayer (AO) data.
largest (>0.10) Wiberg bond orders for each atom

 ---------------------------------------------------------------------------
     #   Z sym  total        # sym  WBO       # sym  WBO       # sym  WBO
 ---------------------------------------------------------------------------
     1   6 C    3.996 --     2 C    1.020     7 H    0.988     6 H    0.988
                             8 H    0.987
     2   6 C    3.997 --     1 C    1.020     3 C    1.009     9 H    0.978
                            10 H    0.978
     3   6 C    3.996 --     2 C    1.009     4 C    1.005    12 H    0.976
                            11 H    0.976
     4   6 C    3.955 --     3 C    1.005     5 O    0.991    13 H    0.972
                            14 H    0.972
     5   8 O    1.900 --     4 C    0.991    15 H    0.858
     6   1 H    0.999 --     1 C    0.988
     7   1 H    0.999 --     1 C    0.988
     8   1 H    0.998 --     1 C    0.987
     9   1 H    0.999 --     2 C    0.978
    10   1 H    0.998 --     2 C    0.978
    11   1 H    0.998 --     3 C    0.976
    12   1 H    0.998 --     3 C    0.976
    13   1 H    0.999 --     4 C    0.972
    14   1 H    1.000 --     4 C    0.972
    15   1 H    0.871 --     5 O    0.858
 ---------------------------------------------------------------------------

Topologies differ in total number of bonds
Writing topology from bond orders to xtbtopo.mol

molecular dipole:
                 x           y           z       tot (Debye)
 q only:       -0.236       0.376       0.260
   full:       -0.391       0.509       0.352       1.860
molecular quadrupole (traceless):
                xx          xy          yy          xz          yz          zz
 q only:        4.026      -2.403      -2.227       0.216      -0.576      -1.799
  q+dip:        4.114      -2.843      -1.619      -0.345      -1.017      -2.495
   full:        4.648      -3.066      -2.186      -0.105      -0.833      -2.462

           -------------------------------------------------
          |                Geometry Summary                 |
           -------------------------------------------------

      molecular mass/u    :       74.1217560
   center of mass at/Å    :       -0.0009281       0.0004830      -0.0002353
  moments of inertia/u·Å² :        0.4006256E+02   0.2127451E+03   0.2295696E+03
rotational constants/cm⁻¹ :        0.4207827E+00   0.7923862E-01   0.7343148E-01

 * 14 selected distances

     #   Z          #   Z                                           value/Å
     1   6 C        2   6 C                                       1.5232829
     2   6 C        3   6 C                                       1.5270512 (max)
     3   6 C        4   6 C                                       1.5260922
     4   6 C        5   8 O                                       1.4153637
     1   6 C        6   1 H                                       1.0877633
     1   6 C        7   1 H                                       1.0874885
     1   6 C        8   1 H                                       1.0870003
     2   6 C        9   1 H                                       1.0925334
     2   6 C       10   1 H                                       1.0914779
     3   6 C       11   1 H                                       1.0913982
     3   6 C       12   1 H                                       1.0911156
     4   6 C       13   1 H                                       1.0988391
     4   6 C       14   1 H                                       1.0985855
     5   8 O       15   1 H                                       0.9658114 (min)

 * 4 distinct bonds (by element types)

   Z      Z             #   av. dist./Å        max./Å        min./Å
   1 H    6 C           9     1.0918002     1.0988391     1.0870003
   6 C    6 C           3     1.5254755     1.5270512     1.5232829
   1 H    8 O           1     0.9658114     0.9658114     0.9658114
   6 C    8 O           1     1.4153637     1.4153637     1.4153637

           -------------------------------------------------
          |               Frequency Printout                |
           -------------------------------------------------
 projected vibrational frequencies (cm⁻¹)
eigval :       -0.00    -0.00    -0.00    -0.00     0.00     0.00
eigval :       86.98   117.15   231.46   236.21   280.59   335.46
eigval :      491.16   779.93   869.45   884.22   973.76   984.66
eigval :     1061.14  1100.61  1124.76  1142.31  1200.68  1227.29
eigval :     1252.73  1281.12  1303.96  1358.54  1370.30  1410.44
eigval :     1466.68  1478.73  1493.35  1499.27  1502.19  2856.66
eigval :     2890.87  2962.35  2978.41  2988.49  2990.63  3025.91
eigval :     3030.76  3039.92  3516.03
 reduced masses (amu)
   1: 12.09   2: 10.34   3: 11.10   4: 11.70   5:  8.90   6:  9.60   7:  7.69   8: 10.03
   9:  2.74  10:  4.34  11:  4.57  12:  9.83  13:  8.75  14:  2.49  15:  4.58  16:  6.62
  17:  5.01  18:  5.63  19:  8.15  20:  7.95  21:  7.83  22:  6.77  23:  4.50  24:  3.60
  25:  3.38  26:  1.96  27:  3.49  28:  3.98  29:  5.32  30:  3.24  31:  1.97  32:  1.84
  33:  1.87  34:  1.54  35:  1.61  36:  1.98  37:  1.42  38:  1.86  39:  1.88  40:  1.60
  41:  1.58  42:  1.93  43:  1.90  44:  1.31  45:  1.88
 IR intensities (km·mol⁻¹)
   1:  0.24   2:  0.24   3:  0.13   4:  0.74   5:  1.41   6:  0.58   7:  0.95   8:  5.20
   9: 10.69  10:106.30  11:110.12  12:  4.84  13: 13.00  14:  3.42  15: 11.89  16:  8.87
  17: 10.96  18:  8.03  19:110.93  20: 14.69  21: 25.14  22:  8.88  23: 90.58  24:  5.48
  25: 19.53  26:  4.01  27:  3.85  28: 13.93  29:  6.82  30:  0.24  31:  0.76  32:  3.49
  33:  0.67  34:  1.42  35:  0.62  36:129.71  37: 93.53  38: 45.00  39: 88.00  40: 38.07
  41: 91.00  42: 92.97  43: 86.42  44: 45.05  45: 71.11
 Raman intensities (Ä⁴*amu⁻¹)
   1:  0.00   2:  0.00   3:  0.00   4:  0.00   5:  0.00   6:  0.00   7:  0.00   8:  0.00
   9:  0.00  10:  0.00  11:  0.00  12:  0.00  13:  0.00  14:  0.00  15:  0.00  16:  0.00
  17:  0.00  18:  0.00  19:  0.00  20:  0.00  21:  0.00  22:  0.00  23:  0.00  24:  0.00
  25:  0.00  26:  0.00  27:  0.00  28:  0.00  29:  0.00  30:  0.00  31:  0.00  32:  0.00
  33:  0.00  34:  0.00  35:  0.00  36:  0.00  37:  0.00  38:  0.00  39:  0.00  40:  0.00
  41:  0.00  42:  0.00  43:  0.00  44:  0.00  45:  0.00
 output can be read by thermo (or use thermo option).
 writing <g98.out> molden fake output.
 recommended (thermochemical) frequency scaling factor: 1.0
           -------------------------------------------------
          |             Thermodynamic Functions             |
           -------------------------------------------------

Molecule has no symmetry elements
It seems to be the C1 point group
c1  symmetry found (for desy threshold:  0.10E+00) used in thermo

          ...................................................
          :                      SETUP                      :
          :.................................................:
          :  # frequencies                          39      :
          :  # imaginary freq.                       0      :
          :  linear?                             false      :
          :  only rotor calc.                    false      :
          :  symmetry                               c1      :
          :  rotational number                       1      :
          :  scaling factor                  1.0000000      :
          :  rotor cutoff                    0.0000000 cm⁻¹ :
          :  imag. cutoff                 -100.0000000 cm⁻¹ :
          :.................................................:

    mode    ω/cm⁻¹     T·S(HO)/kcal·mol⁻¹    T·S(FR)/kcal·mol⁻¹   T·S(vib)
   ------------------------------------------------------------------------
       1     86.98    -1.11114 (100.00%)    -0.89217 (  0.00%)    -1.11114
       2    117.15    -0.93822 (100.00%)    -0.80405 (  0.00%)    -0.93822
       3    231.46    -0.55682 (100.00%)    -0.60246 (  0.00%)    -0.55682
       4    236.21    -0.54599 (100.00%)    -0.59645 (  0.00%)    -0.54599
       5    280.59    -0.45619 (100.00%)    -0.54546 (  0.00%)    -0.45619
   ------------------------------------------------------------------------

   temp. (K)  partition function   enthalpy   heat capacity  entropy
                                   cal/mol     cal/K/mol   cal/K/mol   J/K/mol
 298.15  VIB   30.6                 2530.897     17.309     15.284
         ROT  0.107E+06              888.752      2.981     25.992
         INT  0.326E+07             3419.649     20.290     41.276
         TR   0.617E+27             1481.254      4.968     38.808
         TOT                        4900.9034    25.2578    80.0837   335.0703

       T/K    H(0)-H(T)+PV         H(T)/Eh          T*S/Eh         G(T)/Eh
   ------------------------------------------------------------------------
    298.15    0.781009E-02    0.141824E+00    0.380504E-01    0.103773E+00
   ------------------------------------------------------------------------

         :::::::::::::::::::::::::::::::::::::::::::::::::::::
         ::                  THERMODYNAMIC                  ::
         :::::::::::::::::::::::::::::::::::::::::::::::::::::
         :: total free energy         -17.624137200720 Eh   ::
         ::.................................................::
         :: total energy              -17.727910504712 Eh   ::
         :: zero point energy           0.134013584091 Eh   ::
         :: G(RRHO) w/o ZPVE           -0.030240280100 Eh   ::
         :: G(RRHO) contrib.            0.103773303991 Eh   ::
         :::::::::::::::::::::::::::::::::::::::::::::::::::::

optimized geometry written to: xtbopt.coord


           -------------------------------------------------
          | TOTAL ENERGY              -17.727910504712 Eh   |
          | TOTAL ENTHALPY            -17.586086833978 Eh   |
          | TOTAL FREE ENERGY         -17.624137200720 Eh   |
          | GRADIENT NORM               0.000020611081 Eh/α |
          | HOMO-LUMO GAP              12.465296235285 eV   |
           -------------------------------------------------

------------------------------------------------------------------------
 * finished run on 2025/04/06 at 22:38:51.168     
------------------------------------------------------------------------
 total:
 * wall-time:     0 d,  0 h,  0 min,  0.543 sec
 *  cpu-time:     0 d,  0 h,  0 min,  0.464 sec
 * ratio c/w:     0.855 speedup
 SCF:
 * wall-time:     0 d,  0 h,  0 min,  0.021 sec
 *  cpu-time:     0 d,  0 h,  0 min,  0.007 sec
 * ratio c/w:     0.350 speedup
 ANC optimizer:
 * wall-time:     0 d,  0 h,  0 min,  0.098 sec
 *  cpu-time:     0 d,  0 h,  0 min,  0.085 sec
 * ratio c/w:     0.867 speedup
 analytical hessian:
 * wall-time:     0 d,  0 h,  0 min,  0.373 sec
 *  cpu-time:     0 d,  0 h,  0 min,  0.364 sec
 * ratio c/w:     0.976 speedup

