! pbe def2-sv(p) def2/J RI DEFGRID1 loosescf d4 GCP(DFT/SV(P)) printgap
%output
    printlevel normal
end
* xyz 0 1
C -2.0066964102 -1.4198245384 -0.1559782897
C -1.0263109614 -0.522826275 0.6129414607
H -1.5059654608 -0.2000406323 1.545207158
C -0.6894298892 0.7334043053 -0.205185661
H -0.6302027481 0.479580168 -1.2756532716
C 0.6811249875 1.2493449102 0.2388991921
H 0.6820242197 1.3586611931 1.335249476
C 1.7326432874 0.2102732023 -0.1606928751
H 1.8784209389 0.2769034303 -1.2493994191
C 1.2358413386 -1.2146811828 0.1580245409
H 2.0282406736 -1.7146602601 0.7308575857
O 0.1308678856 -1.2402125517 1.0271737376
O 0.9712613315 -1.8686885142 -1.0436425843
O 2.9491948222 0.4022527685 0.5113693281
O 1.0112454047 2.4703018485 -0.3721618362
O -1.6325282127 1.7554881487 -0.0016647804
O -3.1728380675 -0.661914249 -0.3933071035
H -2.2233983552 -2.3050023645 0.4531312953
H -1.5425213237 -1.7301757909 -1.0999426132
H 0.9471972545 -2.8281269306 -0.9049620507
H 3.2531219856 1.3073941147 0.3428014364
H 0.2356852954 3.0499866847 -0.3163647931
H -2.5129524199 1.3996102861 -0.2029440089
H -3.824615264 -1.2102153528 -0.8520774567
*
