15
 xtb: 6.7.1 (edcfbbe)
C            1.91328793297790       -0.68028527830968       -0.18290812099903
C            1.13191161235984        0.32707782105178        0.65922820747814
C            0.00350946850615        1.02604256275828       -0.10598354259772
C           -1.03661208030268        0.08358745251926       -0.69365271677203
O           -1.71179003689960       -0.70357996306339        0.30982709625840
H            2.77635030916989       -1.06546643623421        0.36868830283408
H            1.29636563708923       -1.53932462816807       -0.46550799354371
H            2.28308250152013       -0.21824501208341       -1.10478783689701
H            0.72433245874798       -0.17363925611550        1.54739679819967
H            1.81724534583890        1.09490610740372        1.03639963025719
H           -0.50007141600429        1.74237763294039        0.55517334716101
H            0.43098163259609        1.60241091968387       -0.93814462219558
H           -1.82133512272061        0.66036949430107       -1.19330121137231
H           -0.58310354467703       -0.57835641236718       -1.44438449153422
H           -1.05328405660536       -1.28373613392628        0.71374583262729
