! r2scan-3c def2/J RI DEFGRID2 scfconv6 printgap
%output
    printlevel normal
end
%cpcm
    smd true
    smdsolvent "water"
end
* xyz 0 1
C -2.2250787395 0.9536812126 0.0001610274
O -0.8140685602 0.7282705404 0.0006933306
C -0.362135513 -0.5238151601 -0.0003938178
O -1.0901453576 -1.501518525 -0.000814069
C 1.109416825 -0.6055414352 0.0003020979
C 1.9195662896 0.4342858616 -0.7416744494
C 1.9192837446 0.4349271242 0.7417414861
H -2.7525260355 0.0002321459 0.0484116706
H -2.4799660116 1.4822156451 -0.9169696998
H -2.4612895819 1.5658954367 0.8684924496
H 1.4593890715 -1.6287154523 0.0005800511
H 2.7948142403 0.0850070896 -1.265457774
H 1.3686814427 1.208899355 -1.2507256786
H 2.7943432484 0.0861601502 1.2661386871
H 1.3682541741 1.2100756712 1.2498221258
*
