! r2scan-3c def2/J RI DEFGRID2 scfconv6 printgap
%output
    printlevel normal
end
* xyz 0 1
C -2.2262709664 0.9241388053 0.0004081313
O -0.8110602357 0.7386563004 -0.0006167662
C -0.3596311582 -0.5151354967 1.9297e-06
O -1.1012875154 -1.4820456166 -0.0001273325
C 1.1104920706 -0.6065507671 -0.0004611965
C 1.9237164335 0.4319108532 -0.7413262793
C 1.923481164 0.4309442553 0.7420508523
H -2.3800269461 1.9976599622 -0.0472829111
H -2.6573909078 0.5064816421 0.9112244151
H -2.6705402711 0.4241965716 -0.8613163241
H 1.4561826302 -1.6311781733 -0.0010266936
H 2.7980085419 0.0806899197 -1.2654201443
H 1.3748077215 1.208508198 -1.249591628
H 2.7976340926 0.0791362453 1.2659163346
H 1.3742182205 1.2067096369 1.2512835417
*
