! wb97x-v def2-tzvp def2/J RIJCOSX DEFGRID2 scfconv7 GCP(DFT/TZ) printgap
%output
    printlevel normal
end
%cpcm
    smd true
    smdsolvent "water"
end
* xyz 0 1
C -2.291317484364376 0.30133194900653226 0.09937333743476404
C -1.374724210829801 1.3409150503854208 -0.04981056571501086
C -0.01538861632800608 1.0659596589593074 -0.17166878339643277
C 0.44570234025704913 -0.2530611025211082 -0.14110396065708655
C -0.4776501794343391 -1.2889196542555215 0.017816142757947673
C -1.8388751610571195 -1.0154820869530308 0.13105724131391172
C 1.9118179108157252 -0.5700405299923921 -0.3039211084993263
O 2.7784877591007002 0.39489767695689487 0.312419291055859
H -3.3508592278372413 0.5171323137120106 0.19448737919537848
H -1.720453263526035 2.3699203732085747 -0.07346923311957902
H 0.6928160189984776 1.880153356516867 -0.2906852914723006
H -0.12654671018477523 -2.316894356962378 0.05468775500909287
H -2.544700233759056 -1.8311412520533112 0.25481807711079146
H 2.11478933788969 -1.5771497304785773 0.08418164954632738
H 2.179528584098688 -0.5651805677688212 -1.3668638991956579
H 2.5738703834096275 0.39852676736284903 1.2571255088259163
*
