 Entering Gaussian System
 *********************************************
 Gaussian 98:
 frequency output generated by the xtb code
 *********************************************
                         Standard orientation:
 --------------------------------------------------------------------
  Center     Atomic     Atomic              Coordinates (Angstroms)
  Number     Number      Type              X           Y           Z
 --------------------------------------------------------------------
    1          6             0        2.159581   -0.247678   -0.572850
    2          6             0        1.381795    0.432937    0.548514
    3          6             0       -0.031423   -0.119634    0.724088
    4          6             0       -0.951865    0.189008   -0.453669
    5          8             0       -2.262816   -0.226669   -0.114485
    6          1             0        2.182485   -1.323906   -0.418973
    7          1             0        1.707352   -0.046468   -1.540175
    8          1             0        3.183119    0.118202   -0.594169
    9          1             0        1.920620    0.292607    1.487431
   10          1             0        1.327256    1.506332    0.354645
   11          1             0        0.002844   -1.201466    0.864727
   12          1             0       -0.486240    0.313940    1.617135
   13          1             0       -0.938586    1.269183   -0.656497
   14          1             0       -0.612149   -0.341970   -1.351435
   15          1             0       -2.857384   -0.050971   -0.855605
 --------------------------------------------------------------------
     1 basis functions        1 primitive gaussians
     1 alpha electrons        1 beta electrons
 
 Harmonic frequencies (cm**-1), IR intensities (km*mol⁻¹),
 Raman scattering activities (A**4/amu), Raman depolarization ratios,
 reduced masses (AMU), force constants (mDyne/A) and normal coordinates:
                      1                      2                      3
                        a                      a                      a 
 Frequencies --    75.3192               110.3900               214.4312
 Red. masses --     8.9782                 6.8906                 4.6897
 Frc consts  --     0.0000                 0.0000                 0.0000
 IR Inten    --     8.4527                 0.9189                 1.5764
 Raman Activ --     0.0000                 0.0000                 0.0000
 Depolar     --     0.0000                 0.0000                 0.0000
 Atom AN      X      Y      Z        X      Y      Z        X      Y      Z
   1   6     0.03  -0.27   0.06    -0.36   0.01  -0.22     0.26  -0.00   0.13
   2   6     0.04   0.04  -0.11     0.09  -0.08   0.15     0.03   0.00  -0.04
   3   6     0.00   0.15  -0.02    -0.04   0.30   0.26    -0.03   0.08  -0.26
   4   6    -0.14   0.50   0.18     0.14  -0.01   0.04    -0.18   0.03  -0.15
   5   8     0.08  -0.45  -0.14     0.16  -0.19  -0.20    -0.07  -0.08   0.28
   6   1     0.01  -0.06   0.10    -0.33  -0.03  -0.25    -0.29  -0.04  -0.18
   7   1     0.01  -0.16   0.00    -0.04   0.27  -0.04     0.37   0.34  -0.03
   8   1     0.01  -0.08  -0.01    -0.02  -0.21   0.01     0.19  -0.31   0.36
   9   1     0.00   0.06  -0.02     0.06  -0.15   0.00    -0.06  -0.03   0.02
  10   1     0.03  -0.00  -0.10     0.12  -0.00   0.14     0.05   0.01   0.01
  11   1    -0.03   0.03  -0.09    -0.08   0.10   0.19    -0.02   0.02  -0.08
  12   1     0.05  -0.01   0.05    -0.00   0.21   0.02    -0.01   0.01  -0.07
  13   1    -0.19   0.19   0.26     0.01  -0.01  -0.04    -0.09   0.00  -0.06
  14   1     0.04   0.37  -0.05     0.12  -0.03   0.06    -0.09   0.00  -0.06
  15   1    -0.01  -0.03   0.01     0.08  -0.12  -0.10    -0.09  -0.04   0.12
                      4                      5                      6
                        a                      a                      a 
 Frequencies --   271.3864               286.5885               335.7090
 Red. masses --     2.9161                 5.6390                10.1081
 Frc consts  --     0.0000                 0.0000                 0.0000
 IR Inten    --   170.4475                52.3918                10.7692
 Raman Activ --     0.0000                 0.0000                 0.0000
 Depolar     --     0.0000                 0.0000                 0.0000
 Atom AN      X      Y      Z        X      Y      Z        X      Y      Z
   1   6     0.10   0.02  -0.01     0.09   0.05  -0.00     0.43   0.07  -0.14
   2   6     0.07  -0.17   0.08     0.13  -0.24   0.19     0.10  -0.17  -0.17
   3   6    -0.06   0.09  -0.11    -0.12   0.29  -0.15    -0.04   0.10   0.28
   4   6    -0.09   0.12  -0.08    -0.10   0.03  -0.26    -0.16  -0.09   0.28
   5   8    -0.05   0.14   0.17     0.06  -0.22   0.14    -0.43   0.00  -0.26
   6   1     0.16   0.01   0.01     0.24   0.03   0.04     0.19   0.02  -0.09
   7   1    -0.05  -0.06   0.02    -0.12  -0.10   0.04     0.19   0.04  -0.07
   8   1    -0.01   0.12  -0.07    -0.04   0.21  -0.13     0.10   0.10   0.07
   9   1    -0.01  -0.15   0.03    -0.02  -0.26   0.06     0.04  -0.05  -0.05
  10   1     0.08  -0.03   0.10     0.17  -0.04   0.20     0.04  -0.05  -0.04
  11   1    -0.07   0.02  -0.03    -0.15   0.09   0.06    -0.07   0.05   0.21
  12   1    -0.01   0.04  -0.03    -0.04   0.20  -0.10     0.10   0.18   0.07
  13   1    -0.06   0.04  -0.04    -0.08  -0.01  -0.14    -0.03  -0.03   0.06
  14   1    -0.04   0.03  -0.01    -0.05  -0.04  -0.06     0.02  -0.04   0.11
  15   1     0.12  -0.81  -0.26    -0.15   0.33   0.26    -0.01   0.09  -0.12
                      7                      8                      9
                        a                      a                      a 
 Frequencies --   477.0748               787.6088               826.8492
 Red. masses --     9.5801                 2.7798                 2.8383
 Frc consts  --     0.0000                 0.0000                 0.0000
 IR Inten    --     4.5927                 6.5144                 3.7160
 Raman Activ --     0.0000                 0.0000                 0.0000
 Depolar     --     0.0000                 0.0000                 0.0000
 Atom AN      X      Y      Z        X      Y      Z        X      Y      Z
   1   6     0.10   0.04  -0.08    -0.02  -0.01  -0.08     0.08  -0.10  -0.03
   2   6    -0.42  -0.23  -0.23    -0.19   0.10  -0.18     0.10  -0.10   0.16
   3   6    -0.33  -0.06   0.16    -0.10   0.18   0.05    -0.10   0.13   0.16
   4   6     0.18   0.12  -0.03     0.01   0.03   0.15    -0.07   0.19  -0.04
   5   8     0.44   0.03   0.15     0.08  -0.02  -0.01     0.01  -0.06  -0.02
   6   1     0.13   0.01  -0.07     0.00   0.03   0.20     0.11  -0.06  -0.27
   7   1     0.16   0.02  -0.08     0.21  -0.20  -0.16    -0.12   0.18   0.10
   8   1    -0.01   0.13   0.15    -0.00   0.00   0.15    -0.01   0.06  -0.08
   9   1    -0.08   0.06  -0.07    -0.04  -0.39  -0.11     0.04   0.31   0.08
  10   1    -0.21  -0.08  -0.14     0.17   0.09   0.29    -0.04  -0.09  -0.29
  11   1    -0.23  -0.01   0.14     0.15   0.01  -0.31    -0.03  -0.02  -0.34
  12   1    -0.07   0.13  -0.01     0.01  -0.29   0.19    -0.02  -0.29   0.20
  13   1     0.07   0.04   0.01     0.01  -0.04  -0.21    -0.05  -0.02  -0.37
  14   1     0.09   0.04  -0.00     0.12  -0.19   0.20     0.08  -0.24   0.19
  15   1     0.04  -0.03   0.08     0.04   0.03  -0.01    -0.05  -0.00   0.04
                     10                     11                     12
                        a                      a                      a 
 Frequencies --   923.1965               966.8840               989.3286
 Red. masses --     7.2065                 4.2863                 6.2049
 Frc consts  --     0.0000                 0.0000                 0.0000
 IR Inten    --    13.4141                 0.6393                 3.1571
 Raman Activ --     0.0000                 0.0000                 0.0000
 Depolar     --     0.0000                 0.0000                 0.0000
 Atom AN      X      Y      Z        X      Y      Z        X      Y      Z
   1   6     0.28   0.02  -0.27    -0.09   0.24   0.15    -0.28  -0.02   0.02
   2   6     0.17   0.24   0.16     0.07  -0.18  -0.11     0.06  -0.08   0.01
   3   6    -0.29  -0.21   0.32     0.22  -0.16  -0.08     0.25  -0.02   0.31
   4   6    -0.06   0.07  -0.24    -0.02   0.26   0.02     0.09   0.12  -0.38
   5   8     0.01   0.01  -0.00    -0.05  -0.08  -0.02    -0.20  -0.03   0.01
   6   1    -0.15   0.03   0.19    -0.20   0.09   0.27     0.14   0.00   0.01
   7   1     0.04  -0.17  -0.09    -0.02  -0.08   0.01     0.23  -0.05  -0.14
   8   1     0.16  -0.25  -0.23     0.03  -0.11  -0.02    -0.14   0.21   0.37
   9   1     0.17   0.03  -0.03     0.11   0.02  -0.07     0.28   0.02  -0.14
  10   1    -0.11   0.08   0.17    -0.30  -0.04   0.08     0.01  -0.03  -0.04
  11   1    -0.13  -0.06   0.06    -0.35  -0.05   0.01     0.14  -0.01   0.06
  12   1    -0.19  -0.08   0.04     0.37   0.17   0.04    -0.01  -0.05   0.06
  13   1     0.00   0.02  -0.03    -0.00   0.00  -0.30    -0.03   0.04  -0.03
  14   1    -0.00   0.04  -0.07     0.01  -0.19   0.16    -0.02   0.08  -0.14
  15   1    -0.15  -0.07   0.10    -0.03  -0.01   0.01    -0.24  -0.10   0.13
                     13                     14                     15
                        a                      a                      a 
 Frequencies --  1059.6334              1097.2934              1126.7544
 Red. masses --    11.5299                 5.0149                 8.0702
 Frc consts  --     0.0000                 0.0000                 0.0000
 IR Inten    --   155.1956                 3.2008                14.4178
 Raman Activ --     0.0000                 0.0000                 0.0000
 Depolar     --     0.0000                 0.0000                 0.0000
 Atom AN      X      Y      Z        X      Y      Z        X      Y      Z
   1   6    -0.05   0.05   0.15    -0.15  -0.01  -0.18     0.13  -0.22  -0.30
   2   6     0.09  -0.03  -0.14     0.20  -0.01   0.28    -0.40   0.08   0.36
   3   6     0.02  -0.07   0.16    -0.04   0.06  -0.17     0.38   0.04  -0.03
   4   6    -0.64  -0.15  -0.03    -0.25  -0.15   0.16    -0.16   0.10   0.00
   5   8     0.49   0.19  -0.20     0.18   0.04   0.02     0.07   0.01  -0.08
   6   1    -0.02   0.01  -0.00     0.07   0.02   0.09     0.09  -0.06  -0.11
   7   1    -0.06   0.06   0.07     0.24  -0.13  -0.20     0.08  -0.07  -0.10
   8   1    -0.02   0.03   0.01    -0.05   0.07   0.24     0.02  -0.02  -0.02
   9   1     0.02  -0.06  -0.04     0.30   0.18  -0.05    -0.19   0.04   0.15
  10   1     0.11  -0.00  -0.03    -0.16  -0.03  -0.04    -0.30   0.03   0.19
  11   1     0.13  -0.01   0.09    -0.20   0.00  -0.10     0.19   0.03   0.14
  12   1     0.17  -0.01   0.12    -0.16   0.00  -0.11     0.16   0.10  -0.01
  13   1    -0.07  -0.02   0.01    -0.15  -0.04   0.01    -0.00   0.01  -0.11
  14   1    -0.07   0.02  -0.02    -0.11  -0.01  -0.00    -0.08  -0.05   0.03
  15   1    -0.15  -0.08   0.13     0.34   0.16  -0.20    -0.07  -0.03   0.04
                     16                     17                     18
                        a                      a                      a 
 Frequencies --  1152.7281              1195.1428              1210.1936
 Red. masses --     6.2373                 3.9433                 4.2174
 Frc consts  --     0.0000                 0.0000                 0.0000
 IR Inten    --     8.9868                50.7217                27.3600
 Raman Activ --     0.0000                 0.0000                 0.0000
 Depolar     --     0.0000                 0.0000                 0.0000
 Atom AN      X      Y      Z        X      Y      Z        X      Y      Z
   1   6     0.09   0.17  -0.00    -0.09  -0.05  -0.09     0.01  -0.23   0.08
   2   6    -0.15  -0.34   0.01     0.12   0.10   0.14    -0.01   0.32  -0.09
   3   6     0.13   0.36   0.11    -0.10   0.03  -0.25     0.01  -0.17   0.12
   4   6     0.06  -0.30  -0.17     0.09  -0.22   0.18     0.02  -0.09  -0.21
   5   8    -0.03   0.11   0.05    -0.00   0.13  -0.12    -0.03   0.04   0.12
   6   1    -0.16   0.06   0.16     0.07  -0.01  -0.00     0.14  -0.08  -0.22
   7   1    -0.06  -0.07   0.01     0.11  -0.03  -0.09    -0.03   0.14   0.07
   8   1     0.08  -0.14  -0.13    -0.04   0.05   0.08    -0.06   0.11  -0.01
   9   1    -0.00   0.05   0.00    -0.05   0.08   0.09    -0.01  -0.12  -0.05
  10   1    -0.26  -0.10  -0.02    -0.02   0.02  -0.01    -0.02   0.12   0.21
  11   1     0.10   0.06  -0.21    -0.27  -0.01  -0.13    -0.31  -0.06  -0.05
  12   1     0.08  -0.13   0.15     0.18   0.05   0.02     0.29   0.05   0.13
  13   1    -0.33  -0.03   0.16    -0.01  -0.03   0.17    -0.41  -0.02  -0.04
  14   1     0.18   0.21  -0.15     0.43   0.08   0.12     0.19   0.11  -0.06
  15   1     0.05   0.04  -0.03    -0.46  -0.20   0.29     0.24   0.12  -0.14
                     19                     20                     21
                        a                      a                      a 
 Frequencies --  1262.4531              1281.5104              1316.8571
 Red. masses --     3.0154                 1.9283                 3.8713
 Frc consts  --     0.0000                 0.0000                 0.0000
 IR Inten    --    11.6834                 0.9560                17.7598
 Raman Activ --     0.0000                 0.0000                 0.0000
 Depolar     --     0.0000                 0.0000                 0.0000
 Atom AN      X      Y      Z        X      Y      Z        X      Y      Z
   1   6     0.10  -0.16   0.19    -0.01  -0.03  -0.06     0.00   0.03  -0.05
   2   6    -0.06   0.04  -0.14     0.00   0.06   0.04    -0.02   0.02  -0.10
   3   6     0.08   0.18  -0.05    -0.05   0.17   0.10     0.35  -0.02   0.21
   4   6     0.02  -0.07   0.16     0.04  -0.12  -0.09     0.11  -0.05   0.17
   5   8     0.03   0.01  -0.09     0.00  -0.07  -0.01     0.06   0.07  -0.13
   6   1     0.04  -0.07  -0.18     0.02  -0.00  -0.00    -0.04   0.02   0.06
   7   1    -0.14   0.16   0.16     0.02  -0.01  -0.02    -0.02  -0.01  -0.01
   8   1    -0.01   0.06  -0.07    -0.01   0.02   0.05    -0.00   0.01   0.05
   9   1     0.41  -0.11  -0.30    -0.09   0.04   0.07    -0.30  -0.05   0.13
  10   1    -0.41   0.05   0.30     0.02   0.02   0.02     0.15   0.00  -0.06
  11   1    -0.08   0.03  -0.13    -0.30  -0.00  -0.26    -0.40  -0.05  -0.15
  12   1    -0.25  -0.03  -0.11     0.37  -0.05   0.26    -0.36  -0.04  -0.16
  13   1     0.13  -0.01   0.06     0.47   0.01   0.20    -0.33  -0.04  -0.13
  14   1    -0.13  -0.01  -0.01    -0.47   0.02  -0.23    -0.31   0.00  -0.10
  15   1    -0.16  -0.08   0.09     0.03  -0.01  -0.03    -0.15  -0.07   0.08
                     22                     23                     24
                        a                      a                      a 
 Frequencies --  1347.1097              1374.9408              1410.6191
 Red. masses --     4.6983                 4.7155                 3.2351
 Frc consts  --     0.0000                 0.0000                 0.0000
 IR Inten    --     8.5941                 8.8596                 0.9064
 Raman Activ --     0.0000                 0.0000                 0.0000
 Depolar     --     0.0000                 0.0000                 0.0000
 Atom AN      X      Y      Z        X      Y      Z        X      Y      Z
   1   6    -0.10  -0.09  -0.06    -0.01  -0.00  -0.01    -0.24   0.18   0.31
   2   6     0.47  -0.04  -0.25     0.07   0.00   0.05     0.10   0.00  -0.06
   3   6    -0.11   0.05   0.07    -0.36  -0.04  -0.11     0.01   0.01   0.05
   4   6    -0.02   0.03  -0.04     0.35  -0.01   0.20    -0.01  -0.01   0.01
   5   8    -0.00  -0.02   0.02     0.06   0.06  -0.11     0.00  -0.00  -0.00
   6   1     0.02   0.00   0.10     0.03  -0.00  -0.01     0.31  -0.04  -0.42
   7   1    -0.02   0.10   0.02    -0.00  -0.01  -0.00     0.36  -0.26  -0.21
   8   1    -0.07   0.12   0.17     0.01  -0.02   0.04     0.09  -0.31  -0.37
   9   1    -0.43   0.04   0.26     0.09   0.01  -0.03    -0.11  -0.06   0.05
  10   1    -0.47   0.02   0.27    -0.07  -0.01   0.01    -0.12  -0.01   0.00
  11   1     0.15   0.02   0.05     0.29   0.02   0.07     0.01  -0.00  -0.04
  12   1    -0.11  -0.07   0.01     0.27   0.07   0.11    -0.05   0.01  -0.02
  13   1     0.05   0.01   0.01    -0.45  -0.03  -0.14     0.03  -0.01  -0.03
  14   1     0.02  -0.00   0.01    -0.45  -0.04  -0.13    -0.03   0.03  -0.03
  15   1     0.04   0.02  -0.02    -0.13  -0.06   0.08     0.00  -0.00  -0.00
                     25                     26                     27
                        a                      a                      a 
 Frequencies --  1480.7951              1485.4128              1490.6608
 Red. masses --     1.8346                 1.8581                 1.8727
 Frc consts  --     0.0000                 0.0000                 0.0000
 IR Inten    --     3.6124                 0.4985                 0.2256
 Raman Activ --     0.0000                 0.0000                 0.0000
 Depolar     --     0.0000                 0.0000                 0.0000
 Atom AN      X      Y      Z        X      Y      Z        X      Y      Z
   1   6     0.04  -0.02   0.01     0.04  -0.02   0.02     0.04   0.02   0.08
   2   6     0.01  -0.02  -0.01     0.08   0.15   0.12    -0.05  -0.14  -0.11
   3   6    -0.05  -0.05   0.05     0.03   0.09  -0.14     0.04   0.09  -0.16
   4   6    -0.05  -0.10   0.22     0.01  -0.02   0.04     0.03  -0.00   0.02
   5   8    -0.04  -0.02   0.03    -0.01  -0.01   0.01    -0.00   0.01  -0.01
   6   1    -0.13  -0.01  -0.03    -0.13  -0.00  -0.01    -0.20  -0.03  -0.18
   7   1     0.01  -0.05  -0.01     0.04  -0.01  -0.01     0.05  -0.19  -0.06
   8   1    -0.04   0.11  -0.01    -0.04   0.12  -0.05    -0.05   0.14  -0.05
   9   1     0.00   0.08   0.01    -0.04  -0.49  -0.05     0.04   0.44   0.04
  10   1     0.04   0.01   0.06    -0.25  -0.08  -0.42     0.21   0.07   0.38
  11   1     0.09  -0.02  -0.14    -0.15   0.05   0.39    -0.17   0.05   0.41
  12   1     0.02   0.16  -0.06    -0.00  -0.38   0.18    -0.02  -0.40   0.17
  13   1     0.23  -0.11  -0.59     0.05  -0.02  -0.13    -0.03  -0.01  -0.04
  14   1     0.12   0.56  -0.29     0.00   0.12  -0.08    -0.02   0.02  -0.02
  15   1     0.01   0.01  -0.01     0.00  -0.00  -0.00    -0.01  -0.01   0.01
                     28                     29                     30
                        a                      a                      a 
 Frequencies --  1501.0942              1505.6537              2860.4633
 Red. masses --     1.6251                 1.5736                 1.9193
 Frc consts  --     0.0000                 0.0000                 0.0000
 IR Inten    --     1.8987                 0.7738               116.5059
 Raman Activ --     0.0000                 0.0000                 0.0000
 Depolar     --     0.0000                 0.0000                 0.0000
 Atom AN      X      Y      Z        X      Y      Z        X      Y      Z
   1   6    -0.14   0.04  -0.13    -0.09  -0.18   0.05     0.00   0.00   0.00
   2   6    -0.06  -0.02  -0.04    -0.05  -0.06   0.00    -0.00   0.00  -0.00
   3   6     0.03   0.05  -0.08     0.01   0.01  -0.01    -0.00   0.00   0.00
   4   6    -0.00  -0.03   0.06     0.01   0.00   0.02     0.04  -0.28  -0.06
   5   8    -0.01  -0.00   0.01     0.01   0.00  -0.01    -0.01  -0.01   0.00
   6   1     0.56   0.05   0.22     0.03   0.05   0.40    -0.00  -0.00   0.00
   7   1    -0.18   0.25   0.12     0.45   0.53  -0.10    -0.00   0.00  -0.00
   8   1     0.17  -0.48   0.18    -0.08   0.16  -0.50    -0.00   0.00   0.00
   9   1     0.04   0.07  -0.03     0.02   0.08   0.00     0.00  -0.00   0.00
  10   1     0.06   0.02   0.07     0.06  -0.00   0.03     0.00  -0.01   0.00
  11   1    -0.10   0.03   0.21     0.00   0.01   0.03     0.00  -0.04   0.01
  12   1    -0.02  -0.21   0.09    -0.00  -0.03   0.01     0.01  -0.01  -0.02
  13   1     0.05  -0.03  -0.16    -0.01  -0.00  -0.02     0.01   0.85  -0.16
  14   1     0.03   0.15  -0.08    -0.05   0.00  -0.02    -0.13   0.17   0.35
  15   1    -0.00   0.00   0.00    -0.01  -0.00   0.00    -0.00   0.01   0.00
                     31                     32                     33
                        a                      a                      a 
 Frequencies --  2901.1329              2965.6523              2974.1224
 Red. masses --     1.4754                 1.9344                 1.9186
 Frc consts  --     0.0000                 0.0000                 0.0000
 IR Inten    --    80.9471                48.4705                60.6178
 Raman Activ --     0.0000                 0.0000                 0.0000
 Depolar     --     0.0000                 0.0000                 0.0000
 Atom AN      X      Y      Z        X      Y      Z        X      Y      Z
   1   6     0.00  -0.00   0.00    -0.01   0.01  -0.01    -0.00   0.01  -0.00
   2   6     0.00  -0.00   0.00     0.08  -0.22   0.16     0.05  -0.01   0.08
   3   6    -0.01   0.01   0.00    -0.01   0.06   0.02     0.09  -0.21  -0.14
   4   6     0.05  -0.01  -0.20    -0.00   0.00   0.00     0.01  -0.02  -0.01
   5   8     0.02   0.01  -0.01    -0.00  -0.00   0.00     0.00   0.00   0.00
   6   1     0.00  -0.00   0.00     0.00  -0.06   0.00    -0.00  -0.02   0.00
   7   1    -0.01   0.00  -0.01     0.02  -0.01   0.05     0.01  -0.00   0.02
   8   1    -0.00  -0.00   0.00    -0.00   0.00  -0.00     0.01   0.00  -0.00
   9   1    -0.00  -0.00  -0.00    -0.25   0.04  -0.43    -0.19   0.06  -0.33
  10   1    -0.00   0.02  -0.00    -0.03   0.76  -0.13     0.01  -0.03   0.02
  11   1    -0.00  -0.00   0.00     0.01  -0.22   0.03    -0.01   0.47  -0.08
  12   1     0.02  -0.02  -0.04     0.04  -0.03  -0.08    -0.30   0.29   0.60
  13   1     0.01  -0.44   0.04    -0.00   0.01  -0.00     0.00   0.02  -0.00
  14   1    -0.27   0.45   0.70     0.01  -0.01  -0.02    -0.02   0.02   0.04
  15   1    -0.00   0.00   0.00    -0.00   0.00  -0.00    -0.00   0.00  -0.00
                     34                     35                     36
                        a                      a                      a 
 Frequencies --  2983.7159              2991.4582              3031.5942
 Red. masses --     1.5677                 1.5091                 1.9299
 Frc consts  --     0.0000                 0.0000                 0.0000
 IR Inten    --    96.4052                79.5762                80.2979
 Raman Activ --     0.0000                 0.0000                 0.0000
 Depolar     --     0.0000                 0.0000                 0.0000
 Atom AN      X      Y      Z        X      Y      Z        X      Y      Z
   1   6    -0.02  -0.01  -0.00    -0.01   0.00  -0.00     0.13   0.26  -0.03
   2   6     0.08   0.12   0.12     0.03  -0.00   0.06     0.00   0.03   0.00
   3   6    -0.01   0.12   0.01    -0.06  -0.12   0.15    -0.00   0.01   0.00
   4   6    -0.00   0.01   0.00    -0.00  -0.01   0.01    -0.00   0.00   0.00
   5   8     0.00  -0.00   0.00    -0.00   0.00  -0.00     0.00  -0.00   0.00
   6   1    -0.00   0.04  -0.01    -0.00  -0.01   0.00     0.03  -0.78   0.13
   7   1     0.01  -0.01   0.04     0.01  -0.00   0.02     0.02   0.04  -0.01
   8   1     0.07   0.03  -0.00     0.02   0.01  -0.00    -0.50  -0.16  -0.00
   9   1    -0.33   0.12  -0.58    -0.13   0.04  -0.23    -0.01   0.01  -0.02
  10   1     0.05  -0.55   0.13     0.01  -0.05   0.02     0.00  -0.07   0.02
  11   1     0.02  -0.38   0.05    -0.04   0.71  -0.06    -0.00  -0.02   0.00
  12   1     0.04  -0.03  -0.09     0.25  -0.27  -0.49     0.01  -0.01  -0.01
  13   1     0.00  -0.02   0.00    -0.00   0.02  -0.00     0.00  -0.00   0.00
  14   1     0.00  -0.00  -0.01     0.01  -0.01  -0.01    -0.00  -0.00  -0.00
  15   1    -0.00   0.00  -0.00     0.01  -0.00   0.01    -0.00   0.00  -0.00
                     37                     38                     39
                        a                      a                      a 
 Frequencies --  3034.6205              3046.0625              3510.9485
 Red. masses --     1.8702                 1.3439                 1.8779
 Frc consts  --     0.0000                 0.0000                 0.0000
 IR Inten    --    77.2375                45.6051                71.2748
 Raman Activ --     0.0000                 0.0000                 0.0000
 Depolar     --     0.0000                 0.0000                 0.0000
 Atom AN      X      Y      Z        X      Y      Z        X      Y      Z
   1   6     0.22  -0.08   0.14    -0.02  -0.00   0.17     0.00   0.00  -0.00
   2   6     0.02  -0.01   0.02     0.00  -0.00   0.01     0.00   0.00  -0.00
   3   6    -0.00   0.00   0.00     0.00   0.00   0.00     0.00   0.00  -0.00
   4   6    -0.00   0.00   0.00    -0.00   0.00   0.00    -0.00  -0.00  -0.00
   5   8    -0.00   0.00  -0.00    -0.00  -0.00   0.00    -0.15   0.04  -0.19
   6   1     0.03   0.45  -0.05     0.00  -0.31   0.07    -0.00  -0.00   0.00
   7   1    -0.21   0.10  -0.47    -0.36   0.16  -0.71    -0.00  -0.00  -0.00
   8   1    -0.61  -0.25   0.03     0.44   0.16   0.02    -0.00   0.00   0.00
   9   1    -0.04   0.01  -0.07    -0.01   0.00  -0.02     0.00  -0.00   0.00
  10   1     0.00   0.01  -0.00    -0.00   0.02  -0.00    -0.00   0.00  -0.00
  11   1     0.00   0.00   0.00     0.00  -0.01   0.00     0.00  -0.01   0.00
  12   1     0.01  -0.01  -0.01     0.00  -0.00  -0.00    -0.00   0.00   0.01
  13   1    -0.00   0.00  -0.00    -0.00   0.00  -0.00     0.00   0.00   0.00
  14   1     0.00  -0.01  -0.01     0.00  -0.01  -0.01     0.00  -0.00   0.00
  15   1     0.00  -0.00   0.00     0.00   0.00  -0.00     0.60  -0.18   0.74
