      -----------------------------------------------------------      
     |                   =====================                   |     
     |                           x T B                           |     
     |                   =====================                   |     
     |                         S. Grimme                         |     
     |          Mulliken Center for Theoretical Chemistry        |     
     |                    University of Bonn                     |     
      -----------------------------------------------------------      

   * xtb version 6.7.1 (edcfbbe) compiled by 'albert@albert-system' on 2024-07-22

   xtb is free software: you can redistribute it and/or modify it under
   the terms of the GNU Lesser General Public License as published by
   the Free Software Foundation, either version 3 of the License, or
   (at your option) any later version.
   
   xtb is distributed in the hope that it will be useful,
   but WITHOUT ANY WARRANTY; without even the implied warranty of
   MERCHANTABILITY or FITNESS FOR A PARTICULAR PURPOSE.  See the
   GNU Lesser General Public License for more details.
   
   Cite this work as:
   * C. Bannwarth, E. Caldeweyher, S. Ehlert, A. Hansen, P. Pracht,
     J. Seibert, S. Spicher, S. Grimme, WIREs Comput. Mol. Sci., 2020, 11,
     e01493. DOI: 10.1002/wcms.1493
   
   for GFN2-xTB:
   * C. Bannwarth, S. Ehlert and S. Grimme., J. Chem. Theory Comput., 2019,
     15, 1652-1671. DOI: 10.1021/acs.jctc.8b01176
   for GFN1-xTB:
   * S. Grimme, C. Bannwarth, P. Shushkov, J. Chem. Theory Comput., 2017,
     13, 1989-2009. DOI: 10.1021/acs.jctc.7b00118
   for GFN0-xTB:
   * P. Pracht, E. Caldeweyher, S. Ehlert, S. Grimme, ChemRxiv, 2019, preprint.
     DOI: 10.26434/chemrxiv.8326202.v1
   for GFN-FF:
   * S. Spicher and S. Grimme, Angew. Chem. Int. Ed., 2020, 59, 15665-15673.
     DOI: 10.1002/anie.202004239
   
   for ALPB and GBSA implicit solvation:
   * S. Ehlert, M. Stahn, S. Spicher, S. Grimme, J. Chem. Theory Comput.,
     2021, 17, 4250-4261. DOI: 10.1021/acs.jctc.1c00471
   
   for ddCOSMO and CPCM-X implicit solvation:
   * M. Stahn, S. Ehlert, S. Grimme, J. Phys. Chem. A,
     2023, XX, XXXX-XXXX. DOI: 10.1021/acs.jpca.3c04382
   
   for DFT-D4:
   * E. Caldeweyher, C. Bannwarth and S. Grimme, J. Chem. Phys., 2017,
     147, 034112. DOI: 10.1063/1.4993215
   * E. Caldeweyher, S. Ehlert, A. Hansen, H. Neugebauer, S. Spicher,
     C. Bannwarth and S. Grimme, J. Chem. Phys., 2019, 150, 154122.
     DOI: 10.1063/1.5090222
   * E. Caldeweyher, J.-M. Mewes, S. Ehlert and S. Grimme, Phys. Chem. Chem. Phys.
     2020, 22, 8499-8512. DOI: 10.1039/D0CP00502A
   
   for sTDA-xTB:
   * S. Grimme and C. Bannwarth, J. Chem. Phys., 2016, 145, 054103.
     DOI: 10.1063/1.4959605
   
   in the mass-spec context:
   * V. Asgeirsson, C. Bauer and S. Grimme, Chem. Sci., 2017, 8, 4879.
     DOI: 10.1039/c7sc00601b
   * J. Koopman and S. Grimme, ACS Omega 2019, 4, 12, 15120-15133.
     DOI: 10.1021/acsomega.9b02011
   
   for metadynamics refer to:
   * S. Grimme, J. Chem. Theory Comput., 2019, 155, 2847-2862
     DOI: 10.1021/acs.jctc.9b00143
   
   for SPH calculations refer to:
   * S. Spicher and S. Grimme, J. Chem. Theory Comput., 2021, 17, 1701-1714
     DOI: 10.1021/acs.jctc.0c01306
   
   for ONIOM refer to:
   * C. Plett, A. Katbashev, S. Ehlert, S. Grimme, M. Bursch,
     Phys. Chem. Chem. Phys., 2023, 25, 17860-17868. DOI: 10.1039/D3CP02178E
   
   for DIPRO refer to:
   * J. Kohn, N. Gildemeister, S. Grimme, D. Fazzi, A. Hansen,
     J. Chem. Phys., 2023, just accepted.
   
   for PTB refer to:
   * S. Grimme, M. Mueller, A. Hansen, J. Chem. Phys., 2023, 158, 124111.
     DOI: 10.1063/5.0137838
   
   with help from (in alphabetical order)
   P. Atkinson, C. Bannwarth, F. Bohle, G. Brandenburg, E. Caldeweyher
   M. Checinski, S. Dohm, S. Ehlert, S. Ehrlich, I. Gerasimov, C. Hölzer
   A. Katbashev, J. Kohn, J. Koopman, C. Lavigne, S. Lehtola, F. März, M. Müller,
   F. Musil, H. Neugebauer, J. Pisarek, C. Plett, P. Pracht, F. Pultar,
   J. Seibert, P. Shushkov, S. Spicher, M. Stahn, M. Steiner, T. Strunk,
   J. Stückrath, T. Rose, and J. Unsleber
   
 * started run on 2025/04/06 at 22:38:50.624     
   ID    Z sym.   atoms
    1    6 C      1-4
    2    8 O      5
    3    1 H      6-15

           -------------------------------------------------
          |                Calculation Setup                |
           -------------------------------------------------

          program call               : /srv/scratch/z5358697/.xtb/bin/xtb xtb_rrho.coord --gfn2 --ohess vtight --chrg 0 --enso --norestart -I rrho-xcontrol-inp --parallel 1 --alpb water
          hostname                   : k159
          coordinate file            : xtb_rrho.coord
          omp threads                :                     1


           -------------------------------------------------
          |                 G F N 2 - x T B                 |
           -------------------------------------------------

        Reference                      10.1021/acs.jctc.8b01176
      * Hamiltonian:
        H0-scaling (s, p, d)           1.850000    2.230000    2.230000
        zeta-weighting                 0.500000
      * Dispersion:
        s8                             2.700000
        a1                             0.520000
        a2                             5.000000
        s9                             5.000000
      * Repulsion:
        kExp                           1.500000    1.000000
        rExp                           1.000000
      * Coulomb:
        alpha                          2.000000
        third order                    shell-resolved
        anisotropic                    true
        a3                             3.000000
        a5                             4.000000
        cn-shift                       1.200000
        cn-exp                         4.000000
        max-rad                        5.000000

      * Solvation model:               ALPB
        Solvent                        water
        Parameter file                 internal GFN2-xTB/ALPB
        Dielectric constant                8.0200E+01
        Reference state                gsolv [1 M gas/solution]
        Free energy shift                  1.0808E-03 Eh       6.7819E-01 kcal/mol
        Temperature                        2.9815E+02 K
        Density                            1.0000E+00 kg/L
        Solvent mass                       1.8000E+01 g/mol
        Interaction kernel             P16
        Born radius scaling (c1)           1.4744E+00
        Born radii integrator          GBOBC
        Born offset                        0.0000E+00 a0       0.0000E+00 AA
        H-bond correction              true
        Ion screening                  false
        Surface tension                    1.0000E-05 Eh       1.5569E+01 dyn/cm
        Grid points                               974 per atom

          ...................................................
          :                      SETUP                      :
          :.................................................:
          :  # basis functions                  30          :
          :  # atomic orbitals                  30          :
          :  # shells                           20          :
          :  # electrons                        32          :
          :  max. iterations                   250          :
          :  Hamiltonian                  GFN2-xTB          :
          :  restarted?                      false          :
          :  GBSA solvation                   true          :
          :  PC potential                    false          :
          :  electronic temp.          300.0000000     K    :
          :  accuracy                    1.0000000          :
          :  -> integral cutoff          0.2500000E+02      :
          :  -> integral neglect         0.1000000E-07      :
          :  -> SCF convergence          0.1000000E-05 Eh   :
          :  -> wf. convergence          0.1000000E-03 e    :
          :  Broyden damping             0.4000000          :
          :  net charge                          0          :
          :  unpaired electrons                  0          :
          ...................................................

 iter      E             dE          RMSdq      gap      omega  full diag
   1    -17.9038752 -0.179039E+02  0.345E+00   11.89       0.0  T
   2    -17.9322488 -0.283735E-01  0.180E+00   11.56       1.0  T
   3    -17.9330564 -0.807658E-03  0.647E-01   11.56       1.0  T
   4    -17.9332454 -0.189012E-03  0.127E-01   11.57       1.0  T
   5    -17.9332713 -0.258976E-04  0.712E-02   11.59       1.0  T
   6    -17.9332744 -0.306906E-05  0.132E-02   11.59       2.0  T
   7    -17.9332747 -0.269637E-06  0.600E-03   11.59       4.3  T
   8    -17.9332747 -0.582129E-07  0.224E-03   11.59      11.5  T
   9    -17.9332747 -0.554083E-08  0.542E-04   11.59      47.7  T
  10    -17.9332747 -0.938385E-09  0.166E-04   11.59     155.4  T

   *** convergence criteria satisfied after 10 iterations ***

         #    Occupation            Energy/Eh            Energy/eV
      -------------------------------------------------------------
         1        2.0000           -0.6834083             -18.5965
       ...           ...                  ...                  ...
        10        2.0000           -0.4825980             -13.1322
        11        2.0000           -0.4710238             -12.8172
        12        2.0000           -0.4556233             -12.3981
        13        2.0000           -0.4369145             -11.8890
        14        2.0000           -0.4330508             -11.7839
        15        2.0000           -0.4239075             -11.5351
        16        2.0000           -0.4077799             -11.0963 (HOMO)
        17                          0.0182058               0.4954 (LUMO)
        18                          0.0956939               2.6040
        19                          0.1175701               3.1992
        20                          0.1261386               3.4324
        21                          0.1330395               3.6202
       ...                                ...                  ...
        30                          0.2905702               7.9068
      -------------------------------------------------------------
                  HL-Gap            0.4259857 Eh           11.5917 eV
             Fermi-level           -0.1947870 Eh           -5.3004 eV

 SCC (total)                   0 d,  0 h,  0 min,  0.021 sec
 SCC setup                      ...        0 min,  0.001 sec (  3.315%)
 Dispersion                     ...        0 min,  0.000 sec (  0.277%)
 classical contributions        ...        0 min,  0.000 sec (  0.063%)
 integral evaluation            ...        0 min,  0.001 sec (  3.475%)
 iterations                     ...        0 min,  0.017 sec ( 83.007%)
 molecular gradient             ...        0 min,  0.002 sec (  9.327%)
 printout                       ...        0 min,  0.000 sec (  0.486%)

         :::::::::::::::::::::::::::::::::::::::::::::::::::::
         ::                     SUMMARY                     ::
         :::::::::::::::::::::::::::::::::::::::::::::::::::::
         :: total energy             -17.726409179190 Eh    ::
         :: total w/o Gsasa/hb       -17.721610605305 Eh    ::
         :: gradient norm              0.025816271228 Eh/a0 ::
         :: HOMO-LUMO gap             11.591659992488 eV    ::
         ::.................................................::
         :: SCC energy               -17.933265372162 Eh    ::
         :: -> isotropic ES            0.037150809647 Eh    ::
         :: -> anisotropic ES          0.003817362699 Eh    ::
         :: -> anisotropic XC          0.006605834782 Eh    ::
         :: -> dispersion             -0.007119554737 Eh    ::
         :: -> Gsolv                  -0.009753002669 Eh    ::
         ::    -> Gelec               -0.004954428784 Eh    ::
         ::    -> Gsasa                0.000666951205 Eh    ::
         ::    -> Ghb                 -0.006546284788 Eh    ::
         ::    -> Gshift               0.001080759698 Eh    ::
         :: repulsion energy           0.206856192972 Eh    ::
         :: add. restraining           0.000000000000 Eh    ::
         :: total charge              -0.000000000000 e     ::
         :::::::::::::::::::::::::::::::::::::::::::::::::::::

      ----------------------------------------------------------- 
     |                   =====================                   |
     |                        A N C O P T                        |
     |                   =====================                   |
     |               Approximate Normal Coordinate               |
     |                Rational Function Optimizer                |
      ----------------------------------------------------------- 
      ----------------------------------------------------------- 
     |                   =====================                   |
     |                        A N C O P T                        |
     |                   =====================                   |
     |               Approximate Normal Coordinate               |
     |                Rational Function Optimizer                |
      ----------------------------------------------------------- 

          ...................................................
          :                      SETUP                      :
          :.................................................:
          :   optimization level         verytight          :
          :   max. optcycles                   300          :
          :   ANC micro-cycles                  20          :
          :   degrees of freedom                39          :
          :.................................................:
          :   RF solver                   davidson          :
          :   write xtbopt.log                true          :
          :   linear?                        false          :
          :   energy convergence         0.1000000E-06 Eh   :
          :   grad. convergence          0.2000000E-03 Eh/α :
          :   maxmium RF displ.          1.0000000          :
          :   Hlow (freq-cutoff)         0.1000000E-01      :
          :   Hmax (freq-cutoff)         5.0000000          :
          :   S6 in model hess.         20.0000000          :
          ...................................................

generating ANC from exact Hessian ...
Using Lindh-Hessian (1995)
 Shifting diagonal of input Hessian by   6.337461728615270E-003
 Lowest  eigenvalues of input Hessian
    0.000000    0.000000    0.000000    0.000000    0.000000    0.000000
    0.010000    0.010895    0.012390    0.018990    0.023071    0.035962
    0.037328    0.047279    0.054213    0.057830    0.059120    0.062054
 Highest eigenvalues
    1.124975    1.160940    1.208865    1.262660    1.264633    1.417599
 

........................................................................
.............................. CYCLE    1 ..............................
........................................................................

 iter      E             dE          RMSdq      gap      omega  full diag
   1    -17.9332747 -0.179333E+02  0.328E-05   11.59       0.0  T
   2    -17.9332747 -0.658318E-11  0.136E-05   11.59    1896.1  T
   3    -17.9332747 -0.284217E-12  0.860E-06   11.59    3000.9  T
     SCC iter.                  ...        0 min,  0.001 sec
     gradient                   ...        0 min,  0.002 sec
 * total energy  :   -17.7264092 Eh     change       -0.4554224E-10 Eh
   gradient norm :     0.0258164 Eh/α   predicted     0.0000000E+00 (-100.00%)
   displ. norm   :     0.0827830 α      lambda       -0.1060041E-02
   maximum displ.:     0.0351572 α      in ANC's #10, #1, #26, ...

........................................................................
.............................. CYCLE    2 ..............................
........................................................................

 iter      E             dE          RMSdq      gap      omega  full diag
   1    -17.9394052 -0.179394E+02  0.958E-02   11.85       0.0  T
   2    -17.9394106 -0.539465E-05  0.556E-02   11.85       1.0  T
   3    -17.9394109 -0.330044E-06  0.113E-02   11.85       2.3  T
   4    -17.9394113 -0.353552E-06  0.293E-03   11.85       8.8  T
   5    -17.9394113 -0.121737E-07  0.169E-03   11.85      15.2  T
   6    -17.9394113 -0.401048E-08  0.515E-04   11.85      50.2  T
   7    -17.9394113 -0.450903E-09  0.148E-04   11.85     174.6  T
     SCC iter.                  ...        0 min,  0.001 sec
     gradient                   ...        0 min,  0.002 sec
 * total energy  :   -17.7270923 Eh     change       -0.6831274E-03 Eh
   gradient norm :     0.0117657 Eh/α   predicted    -0.5336509E-03 ( -21.88%)
   displ. norm   :     0.0557431 α      lambda       -0.2398945E-03
   maximum displ.:     0.0394926 α      in ANC's #1, #4, #7, ...

........................................................................
.............................. CYCLE    3 ..............................
........................................................................

 iter      E             dE          RMSdq      gap      omega  full diag
   1    -17.9418654 -0.179419E+02  0.400E-02   12.03       0.0  T
   2    -17.9418675 -0.205575E-05  0.233E-02   12.04       1.1  T
   3    -17.9418676 -0.144975E-06  0.741E-03   12.04       3.5  T
   4    -17.9418677 -0.786713E-07  0.173E-03   12.04      14.9  T
   5    -17.9418677 -0.514888E-08  0.965E-04   12.04      26.8  T
   6    -17.9418677 -0.109669E-08  0.360E-04   12.04      71.8  T
     SCC iter.                  ...        0 min,  0.001 sec
     gradient                   ...        0 min,  0.002 sec
 * total energy  :   -17.7272348 Eh     change       -0.1425426E-03 Eh
   gradient norm :     0.0034081 Eh/α   predicted    -0.1203189E-03 ( -15.59%)
   displ. norm   :     0.0425038 α      lambda       -0.4098623E-04
   maximum displ.:     0.0346066 α      in ANC's #1, #4, #16, ...

........................................................................
.............................. CYCLE    4 ..............................
........................................................................

 iter      E             dE          RMSdq      gap      omega  full diag
   1    -17.9416800 -0.179417E+02  0.195E-02   12.09       0.0  T
   2    -17.9416801 -0.162733E-06  0.116E-02   12.09       2.2  T
   3    -17.9416802 -0.122325E-07  0.207E-03   12.09      12.5  T
   4    -17.9416802 -0.128526E-07  0.607E-04   12.09      42.5  T
   5    -17.9416802 -0.510344E-09  0.262E-04   12.09      98.7  T
     SCC iter.                  ...        0 min,  0.001 sec
     gradient                   ...        0 min,  0.002 sec
 * total energy  :   -17.7272631 Eh     change       -0.2820409E-04 Eh
   gradient norm :     0.0015006 Eh/α   predicted    -0.2052978E-04 ( -27.21%)
   displ. norm   :     0.0642441 α      lambda       -0.1776862E-04
   maximum displ.:     0.0546678 α      in ANC's #1, #4, #3, ...

........................................................................
.............................. CYCLE    5 ..............................
........................................................................

 iter      E             dE          RMSdq      gap      omega  full diag
   1    -17.9408808 -0.179409E+02  0.247E-02   12.12       0.0  T
   2    -17.9408809 -0.117207E-06  0.145E-02   12.12       1.8  T
   3    -17.9408809 -0.170177E-07  0.152E-03   12.13      16.9  T
   4    -17.9408809 -0.563159E-08  0.625E-04   12.13      41.3  T
   5    -17.9408809 -0.313406E-09  0.270E-04   12.13      95.7  T
     SCC iter.                  ...        0 min,  0.001 sec
     gradient                   ...        0 min,  0.002 sec
 * total energy  :   -17.7272769 Eh     change       -0.1387599E-04 Eh
   gradient norm :     0.0016221 Eh/α   predicted    -0.8900799E-05 ( -35.85%)
   displ. norm   :     0.0272519 α      lambda       -0.5297818E-05
   maximum displ.:     0.0235370 α      in ANC's #1, #3, #4, ...

........................................................................
.............................. CYCLE    6 ..............................
........................................................................

 iter      E             dE          RMSdq      gap      omega  full diag
   1    -17.9409078 -0.179409E+02  0.850E-03   12.11       0.0  T
   2    -17.9409078 -0.104263E-07  0.509E-03   12.11       5.1  T
   3    -17.9409078 -0.148071E-08  0.355E-04   12.11      72.7  T
   4    -17.9409078 -0.410232E-09  0.168E-04   12.11     153.8  T
     SCC iter.                  ...        0 min,  0.001 sec
     gradient                   ...        0 min,  0.002 sec
 * total energy  :   -17.7272836 Eh     change       -0.6659388E-05 Eh
   gradient norm :     0.0009562 Eh/α   predicted    -0.2650405E-05 ( -60.20%)
   displ. norm   :     0.0438763 α      lambda       -0.6429085E-05
   maximum displ.:     0.0360204 α      in ANC's #1, #3, #4, ...

........................................................................
.............................. CYCLE    7 ..............................
........................................................................

 iter      E             dE          RMSdq      gap      omega  full diag
   1    -17.9411674 -0.179412E+02  0.140E-02   12.10       0.0  T
   2    -17.9411674 -0.156441E-07  0.839E-03   12.10       3.1  T
   3    -17.9411674 -0.294287E-08  0.543E-04   12.10      47.5  T
   4    -17.9411674 -0.135607E-08  0.260E-04   12.10      99.3  T
     SCC iter.                  ...        0 min,  0.001 sec
     gradient                   ...        0 min,  0.002 sec
 * total energy  :   -17.7272906 Eh     change       -0.6967670E-05 Eh
   gradient norm :     0.0004255 Eh/α   predicted    -0.3217765E-05 ( -53.82%)
   displ. norm   :     0.0397867 α      lambda       -0.3183324E-05
   maximum displ.:     0.0327316 α      in ANC's #1, #3, #2, ...

........................................................................
.............................. CYCLE    8 ..............................
........................................................................

 iter      E             dE          RMSdq      gap      omega  full diag
   1    -17.9412126 -0.179412E+02  0.117E-02   12.09       0.0  T
   2    -17.9412126 -0.784712E-08  0.700E-03   12.09       3.7  T
   3    -17.9412126 -0.201949E-08  0.338E-04   12.09      76.4  T
   4    -17.9412126 -0.249582E-09  0.185E-04   12.09     139.8  T
     SCC iter.                  ...        0 min,  0.001 sec
     gradient                   ...        0 min,  0.002 sec
 * total energy  :   -17.7272942 Eh     change       -0.3626453E-05 Eh
   gradient norm :     0.0004470 Eh/α   predicted    -0.1594249E-05 ( -56.04%)
   displ. norm   :     0.0291318 α      lambda       -0.1889435E-05
   maximum displ.:     0.0241298 α      in ANC's #1, #3, #2, ...

........................................................................
.............................. CYCLE    9 ..............................
........................................................................

 iter      E             dE          RMSdq      gap      omega  full diag
   1    -17.9412069 -0.179412E+02  0.827E-03   12.09       0.0  T
   2    -17.9412069 -0.284805E-08  0.497E-03   12.09       5.2  T
   3    -17.9412069 -0.945391E-09  0.244E-04   12.09     105.6  T
   4    -17.9412069 -0.178730E-09  0.135E-04   12.09     190.6  T
     SCC iter.                  ...        0 min,  0.001 sec
     gradient                   ...        0 min,  0.002 sec
 * total energy  :   -17.7272965 Eh     change       -0.2336284E-05 Eh
   gradient norm :     0.0003210 Eh/α   predicted    -0.9438389E-06 ( -59.60%)
   displ. norm   :     0.0268859 α      lambda       -0.1462663E-05
   maximum displ.:     0.0218612 α      in ANC's #1, #3, #4, ...

........................................................................
.............................. CYCLE   10 ..............................
........................................................................

 iter      E             dE          RMSdq      gap      omega  full diag
   1    -17.9411955 -0.179412E+02  0.786E-03   12.10       0.0  T
   2    -17.9411955 -0.282327E-08  0.474E-03   12.10       5.4  T
   3    -17.9411955 -0.123158E-08  0.242E-04   12.10     106.5  T
   4    -17.9411955 -0.840323E-10  0.135E-04   12.10     190.8  T
     SCC iter.                  ...        0 min,  0.001 sec
     gradient                   ...        0 min,  0.002 sec
 * total energy  :   -17.7272983 Eh     change       -0.1809239E-05 Eh
   gradient norm :     0.0001267 Eh/α   predicted    -0.7315946E-06 ( -59.56%)
   displ. norm   :     0.0260469 α      lambda       -0.1039589E-05
   maximum displ.:     0.0205793 α      in ANC's #1, #3, #4, ...

........................................................................
.............................. CYCLE   11 ..............................
........................................................................

 iter      E             dE          RMSdq      gap      omega  full diag
   1    -17.9411673 -0.179412E+02  0.764E-03   12.10       0.0  T
   2    -17.9411673 -0.256809E-08  0.463E-03   12.10       5.6  T
   3    -17.9411673 -0.137578E-08  0.226E-04   12.10     114.0  T
   4    -17.9411673 -0.261480E-10  0.109E-04   12.10     236.6  T
     SCC iter.                  ...        0 min,  0.001 sec
     gradient                   ...        0 min,  0.002 sec
 * total energy  :   -17.7272996 Eh     change       -0.1230460E-05 Eh
   gradient norm :     0.0001122 Eh/α   predicted    -0.5197000E-06 ( -57.76%)
   displ. norm   :     0.0221232 α      lambda       -0.6083274E-06
   maximum displ.:     0.0169710 α      in ANC's #1, #3, #2, ...

........................................................................
.............................. CYCLE   12 ..............................
........................................................................

 iter      E             dE          RMSdq      gap      omega  full diag
   1    -17.9411665 -0.179412E+02  0.766E-03   12.10       0.0  T
   2    -17.9411665 -0.226347E-08  0.464E-03   12.10       5.6  T
   3    -17.9411665 -0.123391E-08  0.220E-04   12.10     117.6  T
   4    -17.9411665 -0.134435E-10  0.892E-05   12.10     289.6  T
     SCC iter.                  ...        0 min,  0.001 sec
     gradient                   ...        0 min,  0.002 sec
 * total energy  :   -17.7273003 Eh     change       -0.7030233E-06 Eh
   gradient norm :     0.0001034 Eh/α   predicted    -0.3032317E-06 ( -56.87%)
   displ. norm   :     0.0168722 α      lambda       -0.3566762E-06
   maximum displ.:     0.0126516 α      in ANC's #1, #2, #3, ...

........................................................................
.............................. CYCLE   13 ..............................
........................................................................

 iter      E             dE          RMSdq      gap      omega  full diag
   1    -17.9411873 -0.179412E+02  0.596E-03   12.10       0.0  T
   2    -17.9411873 -0.143032E-08  0.362E-03   12.10       7.1  T
   3    -17.9411873 -0.826432E-09  0.174E-04   12.10     148.4  T
   4    -17.9411873 -0.884626E-11  0.179E-05   12.10    1444.9  T
     SCC iter.                  ...        0 min,  0.001 sec
     gradient                   ...        0 min,  0.002 sec
 * total energy  :   -17.7273007 Eh     change       -0.4226318E-06 Eh
   gradient norm :     0.0000897 Eh/α   predicted    -0.1768862E-06 ( -58.15%)
   displ. norm   :     0.0132149 α      lambda       -0.2518891E-06
   maximum displ.:     0.0096314 α      in ANC's #1, #2, #3, ...

........................................................................
.............................. CYCLE   14 ..............................
........................................................................

 iter      E             dE          RMSdq      gap      omega  full diag
   1    -17.9411908 -0.179412E+02  0.554E-03   12.10       0.0  T
   2    -17.9411908 -0.104734E-08  0.335E-03   12.10       7.7  T
   3    -17.9411908 -0.589605E-09  0.156E-04   12.09     165.5  T
   4    -17.9411908 -0.542144E-11  0.326E-05   12.09     791.9  T
     SCC iter.                  ...        0 min,  0.001 sec
     gradient                   ...        0 min,  0.002 sec
 * total energy  :   -17.7273010 Eh     change       -0.3163915E-06 Eh
   gradient norm :     0.0000590 Eh/α   predicted    -0.1246869E-06 ( -60.59%)
   displ. norm   :     0.0128399 α      lambda       -0.2263391E-06
   maximum displ.:     0.0090946 α      in ANC's #2, #1, #5, ...

........................................................................
.............................. CYCLE   15 ..............................
........................................................................

 iter      E             dE          RMSdq      gap      omega  full diag
   1    -17.9411972 -0.179412E+02  0.532E-03   12.09       0.0  T
   2    -17.9411972 -0.104663E-08  0.322E-03   12.09       8.0  T
   3    -17.9411972 -0.575749E-09  0.157E-04   12.09     164.4  T
   4    -17.9411972 -0.665068E-11  0.620E-05   12.09     416.6  T
     SCC iter.                  ...        0 min,  0.001 sec
     gradient                   ...        0 min,  0.002 sec
 * total energy  :   -17.7273013 Eh     change       -0.2854755E-06 Eh
   gradient norm :     0.0000474 Eh/α   predicted    -0.1134710E-06 ( -60.25%)
   displ. norm   :     0.0137412 α      lambda       -0.1917338E-06
   maximum displ.:     0.0100810 α      in ANC's #2, #1, #5, ...

........................................................................
.............................. CYCLE   16 ..............................
........................................................................

 iter      E             dE          RMSdq      gap      omega  full diag
   1    -17.9411984 -0.179412E+02  0.600E-03   12.09       0.0  T
   2    -17.9411985 -0.131141E-08  0.363E-03   12.09       7.1  T
   3    -17.9411985 -0.704180E-09  0.173E-04   12.09     149.3  T
   4    -17.9411985 -0.759570E-11  0.715E-05   12.09     361.2  T
     SCC iter.                  ...        0 min,  0.001 sec
     gradient                   ...        0 min,  0.002 sec
 * total energy  :   -17.7273015 Eh     change       -0.2137069E-06 Eh
   gradient norm :     0.0000353 Eh/α   predicted    -0.9578798E-07 ( -55.18%)
   displ. norm   :     0.0098651 α      lambda       -0.8035875E-07
   maximum displ.:     0.0074727 α      in ANC's #2, #1, #3, ...

........................................................................
.............................. CYCLE   17 ..............................
........................................................................

 iter      E             dE          RMSdq      gap      omega  full diag
   1    -17.9411876 -0.179412E+02  0.445E-03   12.09       0.0  T
   2    -17.9411876 -0.784894E-09  0.270E-03   12.09       9.6  T
   3    -17.9411876 -0.419298E-09  0.137E-04   12.09     188.9  T
   4    -17.9411876 -0.949996E-11  0.660E-05   12.09     391.2  T
     SCC iter.                  ...        0 min,  0.001 sec
     gradient                   ...        0 min,  0.002 sec
 * total energy  :   -17.7273016 Eh     change       -0.7604433E-07 Eh
   gradient norm :     0.0000422 Eh/α   predicted    -0.4045851E-07 ( -46.80%)
   displ. norm   :     0.0037224 α      lambda       -0.1575878E-07
   maximum displ.:     0.0029922 α      in ANC's #2, #1, #3, ...

   *** GEOMETRY OPTIMIZATION CONVERGED AFTER 17 ITERATIONS ***

------------------------------------------------------------------------
 total energy gain   :        -0.0008924 Eh       -0.5600 kcal/mol
 total RMSD          :         0.1094781 a0        0.0579 Å
 total power (kW/mol):        -0.1378228 (step)  -28.6481 (real)
------------------------------------------------------------------------

 ANCopt (total)                0 d,  0 h,  0 min,  0.082 sec
 optimizer setup                ...        0 min,  0.000 sec (  0.392%)
 model hessian                  ...        0 min,  0.003 sec (  3.936%)
 ANC generation                 ...        0 min,  0.000 sec (  0.259%)
 coordinate transformation      ...        0 min,  0.000 sec (  0.078%)
 single point calculation       ...        0 min,  0.071 sec ( 86.510%)
 optimization log               ...        0 min,  0.005 sec (  6.210%)
 hessian update                 ...        0 min,  0.000 sec (  0.081%)
 rational function              ...        0 min,  0.002 sec (  1.883%)

================
 final structure:
================
$coord
        4.08102238882846       -0.46802071826083       -1.08251515394606      C
        2.61120681600642        0.81814418502537        1.03655136565289      C
       -0.05938489179555       -0.22607813542465        1.36832772565274      C
       -1.79876266568188        0.35716605128624       -0.85731558306899      C
       -4.27609856253678       -0.42836436537049       -0.21636175459998      O
        4.12431454040024       -2.50179730594199       -0.79173401008629      H
        3.22643715032474       -0.08778944773846       -2.91049776496785      H
        6.01522509706229        0.22340223826576       -1.12279607974372      H
        3.62943358561441        0.55296032822799        2.81085050563128      H
        2.50813220619771        2.84656696414703        0.67019597435278      H
        0.00537978102242       -2.27044506167534        1.63409290160359      H
       -0.91887367899293        0.59325076271447        3.05594045484199      H
       -1.77367826753674        2.39840109902175       -1.24060231216985      H
       -1.15678148548160       -0.64623069288118       -2.55384629344018      H
       -5.39966721228186       -0.09634702870831       -1.61687732093452      H
$end
 
 Bond Distances (Angstroems)
 ---------------------------
C1-C2=1.5250         C1-H6=1.0874         C1-H7=1.0866         C1-H8=1.0872         C2-C1=1.5250         C2-C3=1.5275         
C2-H9=1.0916         C2-H10=1.0921        C3-C2=1.5275         C3-C4=1.5263         C3-H11=1.0915        C3-H12=1.0920        
C4-C3=1.5263         C4-O5=1.4165         C4-H13=1.0991        C4-H14=1.0970        O5-C4=1.4165         O5-H15=0.9663        
H6-C1=1.0874         H7-C1=1.0866         H8-C1=1.0872         H9-C2=1.0916         H10-C2=1.0921        H11-C3=1.0915        
H12-C3=1.0920        H13-C4=1.0991        H14-C4=1.0970        H15-O5=0.9663        
 C  H  Rav=1.0916 sigma=0.0041  Rmin=1.0866  Rmax=1.0991     9
 C  C  Rav=1.5263 sigma=0.0010  Rmin=1.5250  Rmax=1.5275     3
 O  H  Rav=0.9663 sigma=0.0000  Rmin=0.9663  Rmax=0.9663     1
 O  C  Rav=1.4165 sigma=0.0000  Rmin=1.4165  Rmax=1.4165     1
 
 selected bond angles (degree)
 --------------------
H6-C1-C2=110.39                H7-C1-C2=111.08                H7-C1-H6=108.54                H8-C1-C2=110.14                
H8-C1-H6=108.42                H8-C1-H7=108.18                C3-C2-C1=113.26                H9-C2-C1=108.87                
H9-C2-C3=108.14                H10-C2-C1=109.49               H10-C2-C3=109.25               H10-C2-H9=107.68               
C4-C3-C2=113.33                H11-C3-C2=110.14               H11-C3-C4=108.59               H12-C3-C2=109.62               
H12-C3-C4=107.43               H12-C3-H11=107.53              O5-C4-C3=108.30                H13-C4-C3=109.50               
H13-C4-O5=110.11               H14-C4-C3=110.30               H14-C4-O5=109.91               H14-C4-H13=108.72              
H15-O5-C4=109.42               
 
 selected dihedral angles (degree)
 ---------------------------------
C3-C2-C1-H6=304.87            C3-C2-C1-H7= 65.33            C3-C2-C1-H8=185.17            H9-C2-C1-H6= 65.20            
H9-C2-C1-H7=185.66            H9-C2-C1-H8=305.50            H10-C2-C1-H6=182.68           H10-C2-C1-H7=303.13           
H10-C2-C1-H8= 62.98           C4-C3-C2-C1=292.73            C4-C3-C2-H9=171.99            C4-C3-C2-H10= 55.06           
H11-C3-C2-C1= 54.60           H11-C3-C2-H9=293.86           H11-C3-C2-H10=176.93          H12-C3-C2-C1=172.73           
H12-C3-C2-H9= 51.98           H12-C3-C2-H10=295.05          O5-C4-C3-C2=186.85            O5-C4-C3-H11= 64.12           
O5-C4-C3-H12=308.10           H13-C4-C3-C2=306.94           H13-C4-C3-H11=184.20          H13-C4-C3-H12= 68.18          
H14-C4-C3-C2= 66.54           H14-C4-C3-H11=303.81          H14-C4-C3-H12=187.78          H15-O5-C4-C3=180.87           
H15-O5-C4-H13= 61.17          H15-O5-C4-H14=301.43          
           -------------------------------------------------
          |                Final Singlepoint                |
           -------------------------------------------------

          ...................................................
          :                      SETUP                      :
          :.................................................:
          :  # basis functions                  30          :
          :  # atomic orbitals                  30          :
          :  # shells                           20          :
          :  # electrons                        32          :
          :  max. iterations                   250          :
          :  Hamiltonian                  GFN2-xTB          :
          :  restarted?                      false          :
          :  GBSA solvation                   true          :
          :  PC potential                    false          :
          :  electronic temp.          300.0000000     K    :
          :  accuracy                    1.0000000          :
          :  -> integral cutoff          0.2500000E+02      :
          :  -> integral neglect         0.1000000E-07      :
          :  -> SCF convergence          0.1000000E-05 Eh   :
          :  -> wf. convergence          0.1000000E-03 e    :
          :  Broyden damping             0.4000000          :
          :  net charge                          0          :
          :  unpaired electrons                  0          :
          ...................................................

 iter      E             dE          RMSdq      gap      omega  full diag
   1    -17.9411876 -0.179412E+02  0.830E-06   12.09       0.0  T
   2    -17.9411876 -0.568434E-13  0.536E-06   12.09    4819.1  T
   3    -17.9411876 -0.390799E-13  0.153E-06   12.09   16857.3  T

   *** convergence criteria satisfied after 3 iterations ***

         #    Occupation            Energy/Eh            Energy/eV
      -------------------------------------------------------------
         1        2.0000           -0.6861238             -18.6704
       ...           ...                  ...                  ...
        10        2.0000           -0.4841530             -13.1745
        11        2.0000           -0.4710440             -12.8178
        12        2.0000           -0.4536270             -12.3438
        13        2.0000           -0.4360048             -11.8643
        14        2.0000           -0.4333404             -11.7918
        15        2.0000           -0.4238043             -11.5323
        16        2.0000           -0.4063696             -11.0579 (HOMO)
        17                          0.0380987               1.0367 (LUMO)
        18                          0.1036184               2.8196
        19                          0.1173351               3.1929
        20                          0.1305641               3.5528
        21                          0.1400121               3.8099
       ...                                ...                  ...
        30                          0.2990699               8.1381
      -------------------------------------------------------------
                  HL-Gap            0.4444683 Eh           12.0946 eV
             Fermi-level           -0.1841354 Eh           -5.0106 eV

 SCC (total)                   0 d,  0 h,  0 min,  0.004 sec
 SCC setup                      ...        0 min,  0.001 sec ( 15.641%)
 Dispersion                     ...        0 min,  0.000 sec (  0.742%)
 classical contributions        ...        0 min,  0.000 sec (  0.231%)
 integral evaluation            ...        0 min,  0.001 sec ( 16.304%)
 iterations                     ...        0 min,  0.001 sec ( 16.249%)
 molecular gradient             ...        0 min,  0.002 sec ( 48.455%)
 printout                       ...        0 min,  0.000 sec (  2.068%)

         :::::::::::::::::::::::::::::::::::::::::::::::::::::
         ::                     SUMMARY                     ::
         :::::::::::::::::::::::::::::::::::::::::::::::::::::
         :: total energy             -17.727301576078 Eh    ::
         :: total w/o Gsasa/hb       -17.722317370799 Eh    ::
         :: gradient norm              0.000042526271 Eh/a0 ::
         :: HOMO-LUMO gap             12.094597929227 eV    ::
         ::.................................................::
         :: SCC energy               -17.941178854386 Eh    ::
         :: -> isotropic ES            0.036525856792 Eh    ::
         :: -> anisotropic ES          0.003451946920 Eh    ::
         :: -> anisotropic XC          0.005997829040 Eh    ::
         :: -> dispersion             -0.007134830332 Eh    ::
         :: -> Gsolv                  -0.009745465600 Eh    ::
         ::    -> Gelec               -0.004761260321 Eh    ::
         ::    -> Gsasa                0.000617002131 Eh    ::
         ::    -> Ghb                 -0.006681967107 Eh    ::
         ::    -> Gshift               0.001080759698 Eh    ::
         :: repulsion energy           0.213877278308 Eh    ::
         :: add. restraining           0.000000000000 Eh    ::
         :: total charge              -0.000000000000 e     ::
         :::::::::::::::::::::::::::::::::::::::::::::::::::::

           ------------------------------------------------- 
          |                Numerical Hessian                |
           ------------------------------------------------- 
step length          :   0.00500
SCC accuracy         :   0.30000
Hessian scale factor :   1.00000
frozen atoms in %    :   0.00000    0
RMS gradient         :   0.00004
estimated CPU  time      0.01 min
estimated wall time      0.01 min

writing file <hessian>.

 projected vibrational frequencies (cm⁻¹)
eigval :       -0.00    -0.00    -0.00     0.00     0.00     0.00
eigval :       75.32   110.39   214.43   271.39   286.59   335.71
eigval :      477.07   787.61   826.85   923.20   966.88   989.33
eigval :     1059.63  1097.29  1126.75  1152.73  1195.14  1210.19
eigval :     1262.45  1281.51  1316.86  1347.11  1374.94  1410.62
eigval :     1480.80  1485.41  1490.66  1501.09  1505.65  2860.46
eigval :     2901.13  2965.65  2974.12  2983.72  2991.46  3031.59
eigval :     3034.62  3046.06  3510.95
           -------------------------------------------------
          |                Property Printout                |
           -------------------------------------------------

    * Orbital Energies and Occupations

         #    Occupation            Energy/Eh            Energy/eV
      -------------------------------------------------------------
         1        2.0000           -0.6861238             -18.6704
       ...           ...                  ...                  ...
         4        2.0000           -0.5826684             -15.8552
         5        2.0000           -0.5652868             -15.3822
         6        2.0000           -0.5493066             -14.9474
         7        2.0000           -0.5286074             -14.3841
         8        2.0000           -0.5155751             -14.0295
         9        2.0000           -0.4919821             -13.3875
        10        2.0000           -0.4841530             -13.1745
        11        2.0000           -0.4710439             -12.8178
        12        2.0000           -0.4536270             -12.3438
        13        2.0000           -0.4360048             -11.8643
        14        2.0000           -0.4333404             -11.7918
        15        2.0000           -0.4238043             -11.5323
        16        2.0000           -0.4063696             -11.0579 (HOMO)
        17                          0.0380987               1.0367 (LUMO)
        18                          0.1036184               2.8196
        19                          0.1173352               3.1929
        20                          0.1305641               3.5528
        21                          0.1400121               3.8099
        22                          0.1446603               3.9364
        23                          0.1702644               4.6331
        24                          0.1844216               5.0184
        25                          0.2068653               5.6291
        26                          0.2234799               6.0812
        27                          0.2483052               6.7567
       ...                                ...                  ...
        30                          0.2990699               8.1381
      -------------------------------------------------------------
                  HL-Gap            0.4444683 Eh           12.0946 eV
             Fermi-level           -0.1841354 Eh           -5.0106 eV

     #   Z          covCN         q      C6AA      α(0)
     1   6 C        3.751    -0.114    22.752     6.802
     2   6 C        3.800    -0.063    21.705     6.633
     3   6 C        3.801    -0.069    21.818     6.650
     4   6 C        3.673     0.085    19.389     6.310
     5   8 O        1.655    -0.529    23.514     6.546
     6   1 H        0.925     0.041     2.432     2.439
     7   1 H        0.925     0.036     2.500     2.473
     8   1 H        0.925     0.042     2.417     2.431
     9   1 H        0.924     0.041     2.432     2.439
    10   1 H        0.924     0.035     2.513     2.479
    11   1 H        0.924     0.045     2.384     2.415
    12   1 H        0.924     0.045     2.388     2.416
    13   1 H        0.923     0.020     2.741     2.589
    14   1 H        0.924     0.023     2.689     2.564
    15   1 H        0.805     0.361     0.563     1.179

 Mol. C6AA /au·bohr⁶  :       1462.334240
 Mol. C8AA /au·bohr⁸  :      29933.229434
 Mol. α(0) /au        :         56.366199


Wiberg/Mayer (AO) data.
largest (>0.10) Wiberg bond orders for each atom

 ---------------------------------------------------------------------------
     #   Z sym  total        # sym  WBO       # sym  WBO       # sym  WBO
 ---------------------------------------------------------------------------
     1   6 C    3.996 --     2 C    1.020     6 H    0.987     7 H    0.987
                             8 H    0.987
     2   6 C    3.997 --     1 C    1.020     3 C    1.007     9 H    0.978
                            10 H    0.978
     3   6 C    3.995 --     2 C    1.007     4 C    1.005    11 H    0.976
                            12 H    0.976
     4   6 C    3.953 --     3 C    1.005     5 O    0.988    13 H    0.972
                            14 H    0.972
     5   8 O    1.895 --     4 C    0.988    15 H    0.857
     6   1 H    0.998 --     1 C    0.987
     7   1 H    0.999 --     1 C    0.987
     8   1 H    0.998 --     1 C    0.987
     9   1 H    0.998 --     2 C    0.978
    10   1 H    0.999 --     2 C    0.978
    11   1 H    0.998 --     3 C    0.976
    12   1 H    0.998 --     3 C    0.976
    13   1 H    1.000 --     4 C    0.972
    14   1 H    0.999 --     4 C    0.972
    15   1 H    0.870 --     5 O    0.857
 ---------------------------------------------------------------------------

Topologies differ in total number of bonds
Writing topology from bond orders to xtbtopo.mol

molecular dipole:
                 x           y           z       tot (Debye)
 q only:        0.210       0.223      -0.496
   full:        0.185       0.302      -0.682       1.952
molecular quadrupole (traceless):
                xx          xy          yy          xz          yz          zz
 q only:        0.871      -1.330      -1.426       4.259      -0.004       0.555
  q+dip:       -0.779      -2.271      -0.337       5.834      -0.018       1.116
   full:        0.018      -2.027      -1.042       5.726      -0.085       1.024

           -------------------------------------------------
          |                Geometry Summary                 |
           -------------------------------------------------

      molecular mass/u    :       74.1217560
   center of mass at/Å    :       -0.0000911      -0.0003846       0.0003016
  moments of inertia/u·Å² :        0.3979769E+02   0.2162276E+03   0.2340285E+03
rotational constants/cm⁻¹ :        0.4235832E+00   0.7796246E-01   0.7203239E-01

 * 14 selected distances

     #   Z          #   Z                                           value/Å
     1   6 C        2   6 C                                       1.5250059
     2   6 C        3   6 C                                       1.5275301 (max)
     3   6 C        4   6 C                                       1.5262978
     4   6 C        5   8 O                                       1.4164834
     1   6 C        6   1 H                                       1.0874142
     1   6 C        7   1 H                                       1.0866075
     1   6 C        8   1 H                                       1.0871764
     2   6 C        9   1 H                                       1.0915999
     2   6 C       10   1 H                                       1.0921249
     3   6 C       11   1 H                                       1.0914737
     3   6 C       12   1 H                                       1.0919605
     4   6 C       13   1 H                                       1.0991329
     4   6 C       14   1 H                                       1.0969631
     5   8 O       15   1 H                                       0.9662501 (min)

 * 4 distinct bonds (by element types)

   Z      Z             #   av. dist./Å        max./Å        min./Å
   1 H    6 C           9     1.0916059     1.0991329     1.0866075
   6 C    6 C           3     1.5262779     1.5275301     1.5250059
   1 H    8 O           1     0.9662501     0.9662501     0.9662501
   6 C    8 O           1     1.4164834     1.4164834     1.4164834

           -------------------------------------------------
          |               Frequency Printout                |
           -------------------------------------------------
 projected vibrational frequencies (cm⁻¹)
eigval :       -0.00    -0.00    -0.00     0.00     0.00     0.00
eigval :       75.32   110.39   214.43   271.39   286.59   335.71
eigval :      477.07   787.61   826.85   923.20   966.88   989.33
eigval :     1059.63  1097.29  1126.75  1152.73  1195.14  1210.19
eigval :     1262.45  1281.51  1316.86  1347.11  1374.94  1410.62
eigval :     1480.80  1485.41  1490.66  1501.09  1505.65  2860.46
eigval :     2901.13  2965.65  2974.12  2983.72  2991.46  3031.59
eigval :     3034.62  3046.06  3510.95
 reduced masses (amu)
   1: 12.56   2: 10.06   3:  9.10   4:  9.97   5: 10.50   6: 11.48   7:  8.98   8:  6.89
   9:  4.69  10:  2.92  11:  5.64  12: 10.11  13:  9.58  14:  2.78  15:  2.84  16:  7.21
  17:  4.29  18:  6.20  19: 11.53  20:  5.01  21:  8.07  22:  6.24  23:  3.94  24:  4.22
  25:  3.02  26:  1.93  27:  3.87  28:  4.70  29:  4.72  30:  3.24  31:  1.83  32:  1.86
  33:  1.87  34:  1.63  35:  1.57  36:  1.92  37:  1.48  38:  1.93  39:  1.92  40:  1.57
  41:  1.51  42:  1.93  43:  1.87  44:  1.34  45:  1.88
 IR intensities (km·mol⁻¹)
   1:  0.47   2:  0.10   3:  2.22   4:  0.16   5:  0.92   6:  0.72   7:  8.45   8:  0.92
   9:  1.58  10:170.45  11: 52.39  12: 10.77  13:  4.59  14:  6.51  15:  3.72  16: 13.41
  17:  0.64  18:  3.16  19:155.20  20:  3.20  21: 14.42  22:  8.99  23: 50.72  24: 27.36
  25: 11.68  26:  0.96  27: 17.76  28:  8.59  29:  8.86  30:  0.91  31:  3.61  32:  0.50
  33:  0.23  34:  1.90  35:  0.77  36:116.51  37: 80.95  38: 48.47  39: 60.62  40: 96.41
  41: 79.58  42: 80.30  43: 77.24  44: 45.61  45: 71.27
 Raman intensities (Ä⁴*amu⁻¹)
   1:  0.00   2:  0.00   3:  0.00   4:  0.00   5:  0.00   6:  0.00   7:  0.00   8:  0.00
   9:  0.00  10:  0.00  11:  0.00  12:  0.00  13:  0.00  14:  0.00  15:  0.00  16:  0.00
  17:  0.00  18:  0.00  19:  0.00  20:  0.00  21:  0.00  22:  0.00  23:  0.00  24:  0.00
  25:  0.00  26:  0.00  27:  0.00  28:  0.00  29:  0.00  30:  0.00  31:  0.00  32:  0.00
  33:  0.00  34:  0.00  35:  0.00  36:  0.00  37:  0.00  38:  0.00  39:  0.00  40:  0.00
  41:  0.00  42:  0.00  43:  0.00  44:  0.00  45:  0.00
 output can be read by thermo (or use thermo option).
 writing <g98.out> molden fake output.
 recommended (thermochemical) frequency scaling factor: 1.0
           -------------------------------------------------
          |             Thermodynamic Functions             |
           -------------------------------------------------

Molecule has no symmetry elements
It seems to be the C1 point group
c1  symmetry found (for desy threshold:  0.10E+00) used in thermo

          ...................................................
          :                      SETUP                      :
          :.................................................:
          :  # frequencies                          39      :
          :  # imaginary freq.                       0      :
          :  linear?                             false      :
          :  only rotor calc.                    false      :
          :  symmetry                               c1      :
          :  rotational number                       1      :
          :  scaling factor                  1.0000000      :
          :  rotor cutoff                    0.0000000 cm⁻¹ :
          :  imag. cutoff                 -100.0000000 cm⁻¹ :
          :.................................................:

    mode    ω/cm⁻¹     T·S(HO)/kcal·mol⁻¹    T·S(FR)/kcal·mol⁻¹   T·S(vib)
   ------------------------------------------------------------------------
       1     75.32    -1.19537 (100.00%)    -0.93477 (  0.00%)    -1.19537
       2    110.39    -0.97258 (100.00%)    -0.82165 (  0.00%)    -0.97258
       3    214.43    -0.59798 (100.00%)    -0.62509 (  0.00%)    -0.59798
       4    271.39    -0.47327 (100.00%)    -0.55534 (  0.00%)    -0.47327
       5    286.59    -0.44544 (100.00%)    -0.53920 (  0.00%)    -0.44544
   ------------------------------------------------------------------------

   temp. (K)  partition function   enthalpy   heat capacity  entropy
                                   cal/mol     cal/K/mol   cal/K/mol   J/K/mol
 298.15  VIB   34.8                 2540.398     17.303     15.577
         ROT  0.108E+06              888.752      2.981     26.020
         INT  0.378E+07             3429.150     20.284     41.598
         TR   0.617E+27             1481.254      4.968     38.808
         TOT                        4910.4042    25.2524    80.4053   336.4157

       T/K    H(0)-H(T)+PV         H(T)/Eh          T*S/Eh         G(T)/Eh
   ------------------------------------------------------------------------
    298.15    0.782523E-02    0.141926E+00    0.382031E-01    0.103723E+00
   ------------------------------------------------------------------------

         :::::::::::::::::::::::::::::::::::::::::::::::::::::
         ::                  THERMODYNAMIC                  ::
         :::::::::::::::::::::::::::::::::::::::::::::::::::::
         :: total free energy         -17.623578824771 Eh   ::
         ::.................................................::
         :: total energy              -17.727301576096 Eh   ::
         :: zero point energy           0.134100669061 Eh   ::
         :: G(RRHO) w/o ZPVE           -0.030377917736 Eh   ::
         :: G(RRHO) contrib.            0.103722751325 Eh   ::
         :::::::::::::::::::::::::::::::::::::::::::::::::::::

optimized geometry written to: xtbopt.coord


           -------------------------------------------------
          | TOTAL ENERGY              -17.727301576096 Eh   |
          | TOTAL ENTHALPY            -17.585375679912 Eh   |
          | TOTAL FREE ENERGY         -17.623578824771 Eh   |
          | GRADIENT NORM               0.000042533447 Eh/α |
          | HOMO-LUMO GAP              12.094597897185 eV   |
           -------------------------------------------------

------------------------------------------------------------------------
 * finished run on 2025/04/06 at 22:38:51.171     
------------------------------------------------------------------------
 total:
 * wall-time:     0 d,  0 h,  0 min,  0.546 sec
 *  cpu-time:     0 d,  0 h,  0 min,  0.465 sec
 * ratio c/w:     0.852 speedup
 SCF:
 * wall-time:     0 d,  0 h,  0 min,  0.021 sec
 *  cpu-time:     0 d,  0 h,  0 min,  0.007 sec
 * ratio c/w:     0.340 speedup
 ANC optimizer:
 * wall-time:     0 d,  0 h,  0 min,  0.097 sec
 *  cpu-time:     0 d,  0 h,  0 min,  0.082 sec
 * ratio c/w:     0.853 speedup
 analytical hessian:
 * wall-time:     0 d,  0 h,  0 min,  0.376 sec
 *  cpu-time:     0 d,  0 h,  0 min,  0.367 sec
 * ratio c/w:     0.977 speedup

