      -----------------------------------------------------------      
     |                   =====================                   |     
     |                           x T B                           |     
     |                   =====================                   |     
     |                         S. Grimme                         |     
     |          Mulliken Center for Theoretical Chemistry        |     
     |                    University of Bonn                     |     
      -----------------------------------------------------------      

   * xtb version 6.7.1 (edcfbbe) compiled by 'albert@albert-system' on 2024-07-22

   xtb is free software: you can redistribute it and/or modify it under
   the terms of the GNU Lesser General Public License as published by
   the Free Software Foundation, either version 3 of the License, or
   (at your option) any later version.
   
   xtb is distributed in the hope that it will be useful,
   but WITHOUT ANY WARRANTY; without even the implied warranty of
   MERCHANTABILITY or FITNESS FOR A PARTICULAR PURPOSE.  See the
   GNU Lesser General Public License for more details.
   
   Cite this work as:
   * C. Bannwarth, E. Caldeweyher, S. Ehlert, A. Hansen, P. Pracht,
     J. Seibert, S. Spicher, S. Grimme, WIREs Comput. Mol. Sci., 2020, 11,
     e01493. DOI: 10.1002/wcms.1493
   
   for GFN2-xTB:
   * C. Bannwarth, S. Ehlert and S. Grimme., J. Chem. Theory Comput., 2019,
     15, 1652-1671. DOI: 10.1021/acs.jctc.8b01176
   for GFN1-xTB:
   * S. Grimme, C. Bannwarth, P. Shushkov, J. Chem. Theory Comput., 2017,
     13, 1989-2009. DOI: 10.1021/acs.jctc.7b00118
   for GFN0-xTB:
   * P. Pracht, E. Caldeweyher, S. Ehlert, S. Grimme, ChemRxiv, 2019, preprint.
     DOI: 10.26434/chemrxiv.8326202.v1
   for GFN-FF:
   * S. Spicher and S. Grimme, Angew. Chem. Int. Ed., 2020, 59, 15665-15673.
     DOI: 10.1002/anie.202004239
   
   for ALPB and GBSA implicit solvation:
   * S. Ehlert, M. Stahn, S. Spicher, S. Grimme, J. Chem. Theory Comput.,
     2021, 17, 4250-4261. DOI: 10.1021/acs.jctc.1c00471
   
   for ddCOSMO and CPCM-X implicit solvation:
   * M. Stahn, S. Ehlert, S. Grimme, J. Phys. Chem. A,
     2023, XX, XXXX-XXXX. DOI: 10.1021/acs.jpca.3c04382
   
   for DFT-D4:
   * E. Caldeweyher, C. Bannwarth and S. Grimme, J. Chem. Phys., 2017,
     147, 034112. DOI: 10.1063/1.4993215
   * E. Caldeweyher, S. Ehlert, A. Hansen, H. Neugebauer, S. Spicher,
     C. Bannwarth and S. Grimme, J. Chem. Phys., 2019, 150, 154122.
     DOI: 10.1063/1.5090222
   * E. Caldeweyher, J.-M. Mewes, S. Ehlert and S. Grimme, Phys. Chem. Chem. Phys.
     2020, 22, 8499-8512. DOI: 10.1039/D0CP00502A
   
   for sTDA-xTB:
   * S. Grimme and C. Bannwarth, J. Chem. Phys., 2016, 145, 054103.
     DOI: 10.1063/1.4959605
   
   in the mass-spec context:
   * V. Asgeirsson, C. Bauer and S. Grimme, Chem. Sci., 2017, 8, 4879.
     DOI: 10.1039/c7sc00601b
   * J. Koopman and S. Grimme, ACS Omega 2019, 4, 12, 15120-15133.
     DOI: 10.1021/acsomega.9b02011
   
   for metadynamics refer to:
   * S. Grimme, J. Chem. Theory Comput., 2019, 155, 2847-2862
     DOI: 10.1021/acs.jctc.9b00143
   
   for SPH calculations refer to:
   * S. Spicher and S. Grimme, J. Chem. Theory Comput., 2021, 17, 1701-1714
     DOI: 10.1021/acs.jctc.0c01306
   
   for ONIOM refer to:
   * C. Plett, A. Katbashev, S. Ehlert, S. Grimme, M. Bursch,
     Phys. Chem. Chem. Phys., 2023, 25, 17860-17868. DOI: 10.1039/D3CP02178E
   
   for DIPRO refer to:
   * J. Kohn, N. Gildemeister, S. Grimme, D. Fazzi, A. Hansen,
     J. Chem. Phys., 2023, just accepted.
   
   for PTB refer to:
   * S. Grimme, M. Mueller, A. Hansen, J. Chem. Phys., 2023, 158, 124111.
     DOI: 10.1063/5.0137838
   
   with help from (in alphabetical order)
   P. Atkinson, C. Bannwarth, F. Bohle, G. Brandenburg, E. Caldeweyher
   M. Checinski, S. Dohm, S. Ehlert, S. Ehrlich, I. Gerasimov, C. Hölzer
   A. Katbashev, J. Kohn, J. Koopman, C. Lavigne, S. Lehtola, F. März, M. Müller,
   F. Musil, H. Neugebauer, J. Pisarek, C. Plett, P. Pracht, F. Pultar,
   J. Seibert, P. Shushkov, S. Spicher, M. Stahn, M. Steiner, T. Strunk,
   J. Stückrath, T. Rose, and J. Unsleber
   
 * started run on 2025/04/06 at 22:31:19.770     
   ID    Z sym.   atoms
    1    6 C      1-4
    2    8 O      5
    3    1 H      6-15

           -------------------------------------------------
          |                Calculation Setup                |
           -------------------------------------------------

          program call               : /srv/scratch/z5358697/.xtb/bin/xtb gas.coord --gfn2 --sp --chrg 0 --norestart --parallel 1
          hostname                   : k159
          coordinate file            : gas.coord
          omp threads                :                     1


           -------------------------------------------------
          |                 G F N 2 - x T B                 |
           -------------------------------------------------

        Reference                      10.1021/acs.jctc.8b01176
      * Hamiltonian:
        H0-scaling (s, p, d)           1.850000    2.230000    2.230000
        zeta-weighting                 0.500000
      * Dispersion:
        s8                             2.700000
        a1                             0.520000
        a2                             5.000000
        s9                             5.000000
      * Repulsion:
        kExp                           1.500000    1.000000
        rExp                           1.000000
      * Coulomb:
        alpha                          2.000000
        third order                    shell-resolved
        anisotropic                    true
        a3                             3.000000
        a5                             4.000000
        cn-shift                       1.200000
        cn-exp                         4.000000
        max-rad                        5.000000


          ...................................................
          :                      SETUP                      :
          :.................................................:
          :  # basis functions                  30          :
          :  # atomic orbitals                  30          :
          :  # shells                           20          :
          :  # electrons                        32          :
          :  max. iterations                   250          :
          :  Hamiltonian                  GFN2-xTB          :
          :  restarted?                      false          :
          :  GBSA solvation                  false          :
          :  PC potential                    false          :
          :  electronic temp.          300.0000000     K    :
          :  accuracy                    1.0000000          :
          :  -> integral cutoff          0.2500000E+02      :
          :  -> integral neglect         0.1000000E-07      :
          :  -> SCF convergence          0.1000000E-05 Eh   :
          :  -> wf. convergence          0.1000000E-03 e    :
          :  Broyden damping             0.4000000          :
          :  net charge                          0          :
          :  unpaired electrons                  0          :
          ...................................................

 iter      E             dE          RMSdq      gap      omega  full diag
   1    -17.8986548 -0.178987E+02  0.325E+00   12.71       0.0  T
   2    -17.9334740 -0.348192E-01  0.173E+00   12.40       1.0  T
   3    -17.9340059 -0.531844E-03  0.752E-01   12.46       1.0  T
   4    -17.9341600 -0.154142E-03  0.104E-01   12.46       1.0  T
   5    -17.9341787 -0.186973E-04  0.605E-02   12.47       1.0  T
   6    -17.9341798 -0.110942E-05  0.752E-03   12.48       3.4  T
   7    -17.9341800 -0.151504E-06  0.411E-03   12.48       6.3  T
   8    -17.9341800 -0.759629E-08  0.810E-04   12.48      31.9  T
   9    -17.9341800 -0.119257E-08  0.243E-04   12.48     106.3  T

   *** convergence criteria satisfied after 9 iterations ***

         #    Occupation            Energy/Eh            Energy/eV
      -------------------------------------------------------------
         1        2.0000           -0.6808638             -18.5272
       ...           ...                  ...                  ...
        10        2.0000           -0.4952921             -13.4776
        11        2.0000           -0.4739582             -12.8971
        12        2.0000           -0.4674196             -12.7191
        13        2.0000           -0.4473590             -12.1733
        14        2.0000           -0.4377595             -11.9120
        15        2.0000           -0.4274678             -11.6320
        16        2.0000           -0.4059112             -11.0454 (HOMO)
        17                          0.0525647               1.4304 (LUMO)
        18                          0.0828164               2.2535
        19                          0.0927706               2.5244
        20                          0.1190398               3.2392
        21                          0.1303951               3.5482
       ...                                ...                  ...
        30                          0.2953402               8.0366
      -------------------------------------------------------------
                  HL-Gap            0.4584759 Eh           12.4758 eV
             Fermi-level           -0.1766732 Eh           -4.8075 eV

 SCC (total)                   0 d,  0 h,  0 min,  0.007 sec
 SCC setup                      ...        0 min,  0.000 sec (  1.586%)
 Dispersion                     ...        0 min,  0.000 sec (  0.737%)
 classical contributions        ...        0 min,  0.000 sec (  0.169%)
 integral evaluation            ...        0 min,  0.001 sec (  9.956%)
 iterations                     ...        0 min,  0.004 sec ( 58.846%)
 molecular gradient             ...        0 min,  0.002 sec ( 27.252%)
 printout                       ...        0 min,  0.000 sec (  1.275%)

         :::::::::::::::::::::::::::::::::::::::::::::::::::::
         ::                     SUMMARY                     ::
         :::::::::::::::::::::::::::::::::::::::::::::::::::::
         :: total energy             -17.720867086291 Eh    ::
         :: gradient norm              0.006349661116 Eh/a0 ::
         :: HOMO-LUMO gap             12.475765335476 eV    ::
         ::.................................................::
         :: SCC energy               -17.934167890053 Eh    ::
         :: -> isotropic ES            0.027166125301 Eh    ::
         :: -> anisotropic ES          0.003724278736 Eh    ::
         :: -> anisotropic XC          0.005960119656 Eh    ::
         :: -> dispersion             -0.007457966601 Eh    ::
         :: repulsion energy           0.213300803763 Eh    ::
         :: add. restraining           0.000000000000 Eh    ::
         :: total charge              -0.000000000000 e     ::
         :::::::::::::::::::::::::::::::::::::::::::::::::::::

           -------------------------------------------------
          |                Property Printout                |
           -------------------------------------------------

    * Orbital Energies and Occupations

         #    Occupation            Energy/Eh            Energy/eV
      -------------------------------------------------------------
         1        2.0000           -0.6808638             -18.5272
       ...           ...                  ...                  ...
         4        2.0000           -0.5935217             -16.1505
         5        2.0000           -0.5697408             -15.5034
         6        2.0000           -0.5538932             -15.0722
         7        2.0000           -0.5277060             -14.3596
         8        2.0000           -0.5125159             -13.9463
         9        2.0000           -0.5050842             -13.7440
        10        2.0000           -0.4952921             -13.4776
        11        2.0000           -0.4739582             -12.8971
        12        2.0000           -0.4674196             -12.7191
        13        2.0000           -0.4473590             -12.1733
        14        2.0000           -0.4377595             -11.9120
        15        2.0000           -0.4274678             -11.6320
        16        2.0000           -0.4059112             -11.0454 (HOMO)
        17                          0.0525647               1.4304 (LUMO)
        18                          0.0828164               2.2535
        19                          0.0927706               2.5244
        20                          0.1190398               3.2392
        21                          0.1303951               3.5482
        22                          0.1349053               3.6710
        23                          0.1541744               4.1953
        24                          0.1844405               5.0189
        25                          0.1972195               5.3666
        26                          0.2223054               6.0492
        27                          0.2511397               6.8339
       ...                                ...                  ...
        30                          0.2953402               8.0366
      -------------------------------------------------------------
                  HL-Gap            0.4584759 Eh           12.4758 eV
             Fermi-level           -0.1766732 Eh           -4.8075 eV

     #   Z          covCN         q      C6AA      α(0)
     1   6 C        3.751    -0.102    22.506     6.766
     2   6 C        3.799    -0.055    21.557     6.611
     3   6 C        3.799    -0.074    21.925     6.667
     4   6 C        3.673     0.080    19.476     6.325
     5   8 O        1.654    -0.449    21.834     6.308
     6   1 H        0.925     0.035     2.515     2.480
     7   1 H        0.925     0.035     2.515     2.480
     8   1 H        0.925     0.032     2.560     2.502
     9   1 H        0.924     0.033     2.550     2.497
    10   1 H        0.924     0.031     2.567     2.506
    11   1 H        0.924     0.048     2.342     2.393
    12   1 H        0.924     0.034     2.533     2.489
    13   1 H        0.924     0.044     2.398     2.422
    14   1 H        0.923     0.019     2.749     2.593
    15   1 H        0.805     0.289     0.754     1.364

 Mol. C6AA /au·bohr⁶  :       1461.986529
 Mol. C8AA /au·bohr⁸  :      29852.174728
 Mol. α(0) /au        :         56.400487


Wiberg/Mayer (AO) data.
largest (>0.10) Wiberg bond orders for each atom

 ---------------------------------------------------------------------------
     #   Z sym  total        # sym  WBO       # sym  WBO       # sym  WBO
 ---------------------------------------------------------------------------
     1   6 C    3.997 --     2 C    1.020     7 H    0.987     6 H    0.987
                             8 H    0.984
     2   6 C    3.998 --     1 C    1.020     3 C    1.009     9 H    0.978
                            10 H    0.978
     3   6 C    3.996 --     2 C    1.009     4 C    0.996    12 H    0.978
                            11 H    0.975
     4   6 C    3.957 --     5 O    0.999     3 C    0.996    13 H    0.975
                            14 H    0.970
     5   8 O    1.955 --     4 C    0.999    15 H    0.896
     6   1 H    0.999 --     1 C    0.987
     7   1 H    0.999 --     1 C    0.987
     8   1 H    0.999 --     1 C    0.984
     9   1 H    0.999 --     2 C    0.978
    10   1 H    0.999 --     2 C    0.978
    11   1 H    0.998 --     3 C    0.975
    12   1 H    0.999 --     3 C    0.978
    13   1 H    0.998 --     4 C    0.975
    14   1 H    1.000 --     4 C    0.970
    15   1 H    0.916 --     5 O    0.896
 ---------------------------------------------------------------------------

Topologies differ in total number of bonds
Writing topology from bond orders to xtbtopo.mol

molecular dipole:
                 x           y           z       tot (Debye)
 q only:        0.603       0.133       0.003
   full:        0.815       0.162      -0.052       2.115
molecular quadrupole (traceless):
                xx          xy          yy          xz          yz          zz
 q only:       -3.243      -1.971       2.024      -0.644       0.848       1.220
  q+dip:       -4.558      -2.975       2.132      -0.955       0.159       2.426
   full:       -4.486      -2.880       2.465      -0.946       0.689       2.020


           -------------------------------------------------
          | TOTAL ENERGY              -17.720867086291 Eh   |
          | GRADIENT NORM               0.006349661116 Eh/α |
          | HOMO-LUMO GAP              12.475765335476 eV   |
           -------------------------------------------------

------------------------------------------------------------------------
 * finished run on 2025/04/06 at 22:31:19.804     
------------------------------------------------------------------------
 total:
 * wall-time:     0 d,  0 h,  0 min,  0.034 sec
 *  cpu-time:     0 d,  0 h,  0 min,  0.012 sec
 * ratio c/w:     0.349 speedup
 SCF:
 * wall-time:     0 d,  0 h,  0 min,  0.007 sec
 *  cpu-time:     0 d,  0 h,  0 min,  0.006 sec
 * ratio c/w:     0.831 speedup

