      -----------------------------------------------------------      
     |                   =====================                   |     
     |                           x T B                           |     
     |                   =====================                   |     
     |                         S. Grimme                         |     
     |          Mulliken Center for Theoretical Chemistry        |     
     |                    University of Bonn                     |     
      -----------------------------------------------------------      

   * xtb version 6.7.1 (edcfbbe) compiled by 'albert@albert-system' on 2024-07-22

   xtb is free software: you can redistribute it and/or modify it under
   the terms of the GNU Lesser General Public License as published by
   the Free Software Foundation, either version 3 of the License, or
   (at your option) any later version.
   
   xtb is distributed in the hope that it will be useful,
   but WITHOUT ANY WARRANTY; without even the implied warranty of
   MERCHANTABILITY or FITNESS FOR A PARTICULAR PURPOSE.  See the
   GNU Lesser General Public License for more details.
   
   Cite this work as:
   * C. Bannwarth, E. Caldeweyher, S. Ehlert, A. Hansen, P. Pracht,
     J. Seibert, S. Spicher, S. Grimme, WIREs Comput. Mol. Sci., 2020, 11,
     e01493. DOI: 10.1002/wcms.1493
   
   for GFN2-xTB:
   * C. Bannwarth, S. Ehlert and S. Grimme., J. Chem. Theory Comput., 2019,
     15, 1652-1671. DOI: 10.1021/acs.jctc.8b01176
   for GFN1-xTB:
   * S. Grimme, C. Bannwarth, P. Shushkov, J. Chem. Theory Comput., 2017,
     13, 1989-2009. DOI: 10.1021/acs.jctc.7b00118
   for GFN0-xTB:
   * P. Pracht, E. Caldeweyher, S. Ehlert, S. Grimme, ChemRxiv, 2019, preprint.
     DOI: 10.26434/chemrxiv.8326202.v1
   for GFN-FF:
   * S. Spicher and S. Grimme, Angew. Chem. Int. Ed., 2020, 59, 15665-15673.
     DOI: 10.1002/anie.202004239
   
   for ALPB and GBSA implicit solvation:
   * S. Ehlert, M. Stahn, S. Spicher, S. Grimme, J. Chem. Theory Comput.,
     2021, 17, 4250-4261. DOI: 10.1021/acs.jctc.1c00471
   
   for ddCOSMO and CPCM-X implicit solvation:
   * M. Stahn, S. Ehlert, S. Grimme, J. Phys. Chem. A,
     2023, XX, XXXX-XXXX. DOI: 10.1021/acs.jpca.3c04382
   
   for DFT-D4:
   * E. Caldeweyher, C. Bannwarth and S. Grimme, J. Chem. Phys., 2017,
     147, 034112. DOI: 10.1063/1.4993215
   * E. Caldeweyher, S. Ehlert, A. Hansen, H. Neugebauer, S. Spicher,
     C. Bannwarth and S. Grimme, J. Chem. Phys., 2019, 150, 154122.
     DOI: 10.1063/1.5090222
   * E. Caldeweyher, J.-M. Mewes, S. Ehlert and S. Grimme, Phys. Chem. Chem. Phys.
     2020, 22, 8499-8512. DOI: 10.1039/D0CP00502A
   
   for sTDA-xTB:
   * S. Grimme and C. Bannwarth, J. Chem. Phys., 2016, 145, 054103.
     DOI: 10.1063/1.4959605
   
   in the mass-spec context:
   * V. Asgeirsson, C. Bauer and S. Grimme, Chem. Sci., 2017, 8, 4879.
     DOI: 10.1039/c7sc00601b
   * J. Koopman and S. Grimme, ACS Omega 2019, 4, 12, 15120-15133.
     DOI: 10.1021/acsomega.9b02011
   
   for metadynamics refer to:
   * S. Grimme, J. Chem. Theory Comput., 2019, 155, 2847-2862
     DOI: 10.1021/acs.jctc.9b00143
   
   for SPH calculations refer to:
   * S. Spicher and S. Grimme, J. Chem. Theory Comput., 2021, 17, 1701-1714
     DOI: 10.1021/acs.jctc.0c01306
   
   for ONIOM refer to:
   * C. Plett, A. Katbashev, S. Ehlert, S. Grimme, M. Bursch,
     Phys. Chem. Chem. Phys., 2023, 25, 17860-17868. DOI: 10.1039/D3CP02178E
   
   for DIPRO refer to:
   * J. Kohn, N. Gildemeister, S. Grimme, D. Fazzi, A. Hansen,
     J. Chem. Phys., 2023, just accepted.
   
   for PTB refer to:
   * S. Grimme, M. Mueller, A. Hansen, J. Chem. Phys., 2023, 158, 124111.
     DOI: 10.1063/5.0137838
   
   with help from (in alphabetical order)
   P. Atkinson, C. Bannwarth, F. Bohle, G. Brandenburg, E. Caldeweyher
   M. Checinski, S. Dohm, S. Ehlert, S. Ehrlich, I. Gerasimov, C. Hölzer
   A. Katbashev, J. Kohn, J. Koopman, C. Lavigne, S. Lehtola, F. März, M. Müller,
   F. Musil, H. Neugebauer, J. Pisarek, C. Plett, P. Pracht, F. Pultar,
   J. Seibert, P. Shushkov, S. Spicher, M. Stahn, M. Steiner, T. Strunk,
   J. Stückrath, T. Rose, and J. Unsleber
   
 * started run on 2025/04/06 at 22:31:19.837     
   ID    Z sym.   atoms
    1    6 C      1-4
    2    8 O      5
    3    1 H      6-15

           -------------------------------------------------
          |                Calculation Setup                |
           -------------------------------------------------

          program call               : /srv/scratch/z5358697/.xtb/bin/xtb solv.coord --gfn2 --sp --chrg 0 --norestart --parallel 1 --alpb water reference -I xtb_sp-xcontrol-inp
          hostname                   : k159
          coordinate file            : solv.coord
          omp threads                :                     1


           -------------------------------------------------
          |                 G F N 2 - x T B                 |
           -------------------------------------------------

        Reference                      10.1021/acs.jctc.8b01176
      * Hamiltonian:
        H0-scaling (s, p, d)           1.850000    2.230000    2.230000
        zeta-weighting                 0.500000
      * Dispersion:
        s8                             2.700000
        a1                             0.520000
        a2                             5.000000
        s9                             5.000000
      * Repulsion:
        kExp                           1.500000    1.000000
        rExp                           1.000000
      * Coulomb:
        alpha                          2.000000
        third order                    shell-resolved
        anisotropic                    true
        a3                             3.000000
        a5                             4.000000
        cn-shift                       1.200000
        cn-exp                         4.000000
        max-rad                        5.000000

      * Solvation model:               ALPB
        Solvent                        water
        Parameter file                 internal GFN2-xTB/ALPB
        Dielectric constant                8.0200E+01
        Reference state                gsolv=reference [X=1]
        Free energy shift                  2.8945E-03 Eh       1.8164E+00 kcal/mol
        Temperature                        2.9815E+02 K
        Density                            1.0000E+00 kg/L
        Solvent mass                       1.8000E+01 g/mol
        Interaction kernel             P16
        Born radius scaling (c1)           1.4744E+00
        Born radii integrator          GBOBC
        Born offset                        0.0000E+00 a0       0.0000E+00 AA
        H-bond correction              true
        Ion screening                  false
        Surface tension                    1.0000E-05 Eh       1.5569E+01 dyn/cm
        Grid points                               974 per atom

          ...................................................
          :                      SETUP                      :
          :.................................................:
          :  # basis functions                  30          :
          :  # atomic orbitals                  30          :
          :  # shells                           20          :
          :  # electrons                        32          :
          :  max. iterations                   250          :
          :  Hamiltonian                  GFN2-xTB          :
          :  restarted?                      false          :
          :  GBSA solvation                   true          :
          :  PC potential                    false          :
          :  electronic temp.          300.0000000     K    :
          :  accuracy                    1.0000000          :
          :  -> integral cutoff          0.2500000E+02      :
          :  -> integral neglect         0.1000000E-07      :
          :  -> SCF convergence          0.1000000E-05 Eh   :
          :  -> wf. convergence          0.1000000E-03 e    :
          :  Broyden damping             0.4000000          :
          :  net charge                          0          :
          :  unpaired electrons                  0          :
          ...................................................

 iter      E             dE          RMSdq      gap      omega  full diag
   1    -17.9111452 -0.179111E+02  0.333E+00   12.71       0.0  T
   2    -17.9364717 -0.253265E-01  0.175E+00   12.54       1.0  T
   3    -17.9372186 -0.746886E-03  0.609E-01   12.52       1.0  T
   4    -17.9373650 -0.146458E-03  0.114E-01   12.51       1.0  T
   5    -17.9373813 -0.163124E-04  0.635E-02   12.52       1.0  T
   6    -17.9373840 -0.265799E-05  0.119E-02   12.53       2.2  T
   7    -17.9373842 -0.238602E-06  0.553E-03   12.53       4.7  T
   8    -17.9373843 -0.543599E-07  0.210E-03   12.53      12.3  T
   9    -17.9373843 -0.584290E-08  0.486E-04   12.53      53.2  T
  10    -17.9373843 -0.747736E-09  0.196E-04   12.53     131.6  T

   *** convergence criteria satisfied after 10 iterations ***

         #    Occupation            Energy/Eh            Energy/eV
      -------------------------------------------------------------
         1        2.0000           -0.6865891             -18.6830
       ...           ...                  ...                  ...
        10        2.0000           -0.4911277             -13.3643
        11        2.0000           -0.4681825             -12.7399
        12        2.0000           -0.4623379             -12.5809
        13        2.0000           -0.4416945             -12.0191
        14        2.0000           -0.4310355             -11.7291
        15        2.0000           -0.4235422             -11.5252
        16        2.0000           -0.4077436             -11.0953 (HOMO)
        17                          0.0525926               1.4311 (LUMO)
        18                          0.0866393               2.3576
        19                          0.0977705               2.6605
        20                          0.1250568               3.4030
        21                          0.1364906               3.7141
       ...                                ...                  ...
        30                          0.3026016               8.2342
      -------------------------------------------------------------
                  HL-Gap            0.4603362 Eh           12.5264 eV
             Fermi-level           -0.1775755 Eh           -4.8321 eV

 SCC (total)                   0 d,  0 h,  0 min,  0.007 sec
 SCC setup                      ...        0 min,  0.001 sec (  9.018%)
 Dispersion                     ...        0 min,  0.000 sec (  0.706%)
 classical contributions        ...        0 min,  0.000 sec (  0.149%)
 integral evaluation            ...        0 min,  0.001 sec (  9.384%)
 iterations                     ...        0 min,  0.004 sec ( 53.266%)
 molecular gradient             ...        0 min,  0.002 sec ( 26.105%)
 printout                       ...        0 min,  0.000 sec (  1.234%)

         :::::::::::::::::::::::::::::::::::::::::::::::::::::
         ::                     SUMMARY                     ::
         :::::::::::::::::::::::::::::::::::::::::::::::::::::
         :: total energy             -17.724071403037 Eh    ::
         :: total w/o Gsasa/hb       -17.724181036408 Eh    ::
         :: gradient norm              0.000111491225 Eh/a0 ::
         :: HOMO-LUMO gap             12.526385464563 eV    ::
         ::.................................................::
         :: SCC energy               -17.937372206799 Eh    ::
         :: -> isotropic ES            0.034411474994 Eh    ::
         :: -> anisotropic ES          0.002905571825 Eh    ::
         :: -> anisotropic XC          0.006209402710 Eh    ::
         :: -> dispersion             -0.007414932421 Eh    ::
         :: -> Gsolv                  -0.004325853132 Eh    ::
         ::    -> Gelec               -0.004435486503 Eh    ::
         ::    -> Gsasa                0.000801401400 Eh    ::
         ::    -> Ghb                 -0.003586317189 Eh    ::
         ::    -> Gshift               0.002894549160 Eh    ::
         :: repulsion energy           0.213300803763 Eh    ::
         :: add. restraining           0.000000000000 Eh    ::
         :: total charge              -0.000000000000 e     ::
         :::::::::::::::::::::::::::::::::::::::::::::::::::::

           -------------------------------------------------
          |                Property Printout                |
           -------------------------------------------------

    * Orbital Energies and Occupations

         #    Occupation            Energy/Eh            Energy/eV
      -------------------------------------------------------------
         1        2.0000           -0.6865891             -18.6830
       ...           ...                  ...                  ...
         4        2.0000           -0.5889622             -16.0265
         5        2.0000           -0.5645827             -15.3631
         6        2.0000           -0.5521049             -15.0235
         7        2.0000           -0.5272870             -14.3482
         8        2.0000           -0.5090409             -13.8517
         9        2.0000           -0.4994389             -13.5904
        10        2.0000           -0.4911277             -13.3643
        11        2.0000           -0.4681825             -12.7399
        12        2.0000           -0.4623379             -12.5809
        13        2.0000           -0.4416945             -12.0191
        14        2.0000           -0.4310355             -11.7291
        15        2.0000           -0.4235422             -11.5252
        16        2.0000           -0.4077436             -11.0953 (HOMO)
        17                          0.0525926               1.4311 (LUMO)
        18                          0.0866393               2.3576
        19                          0.0977705               2.6605
        20                          0.1250568               3.4030
        21                          0.1364906               3.7141
        22                          0.1415313               3.8513
        23                          0.1593878               4.3372
        24                          0.1879555               5.1145
        25                          0.2041308               5.5547
        26                          0.2287877               6.2256
        27                          0.2589434               7.0462
       ...                                ...                  ...
        30                          0.3026016               8.2342
      -------------------------------------------------------------
                  HL-Gap            0.4603362 Eh           12.5264 eV
             Fermi-level           -0.1775755 Eh           -4.8321 eV

     #   Z          covCN         q      C6AA      α(0)
     1   6 C        3.751    -0.112    22.703     6.795
     2   6 C        3.799    -0.060    21.663     6.627
     3   6 C        3.799    -0.079    22.014     6.680
     4   6 C        3.673     0.079    19.489     6.327
     5   8 O        1.654    -0.512    23.159     6.496
     6   1 H        0.925     0.040     2.448     2.447
     7   1 H        0.925     0.040     2.443     2.444
     8   1 H        0.925     0.037     2.485     2.465
     9   1 H        0.924     0.038     2.482     2.464
    10   1 H        0.924     0.035     2.517     2.481
    11   1 H        0.924     0.051     2.310     2.377
    12   1 H        0.924     0.040     2.444     2.445
    13   1 H        0.924     0.040     2.449     2.447
    14   1 H        0.923     0.024     2.668     2.554
    15   1 H        0.805     0.339     0.615     1.232

 Mol. C6AA /au·bohr⁶  :       1457.921172
 Mol. C8AA /au·bohr⁸  :      29865.785339
 Mol. α(0) /au        :         56.281146


Wiberg/Mayer (AO) data.
largest (>0.10) Wiberg bond orders for each atom

 ---------------------------------------------------------------------------
     #   Z sym  total        # sym  WBO       # sym  WBO       # sym  WBO
 ---------------------------------------------------------------------------
     1   6 C    3.996 --     2 C    1.020     7 H    0.987     6 H    0.986
                             8 H    0.984
     2   6 C    3.997 --     1 C    1.020     3 C    1.009    10 H    0.978
                             9 H    0.978
     3   6 C    3.995 --     2 C    1.009     4 C    0.996    12 H    0.977
                            11 H    0.974
     4   6 C    3.951 --     3 C    0.996     5 O    0.992    13 H    0.976
                            14 H    0.970
     5   8 O    1.916 --     4 C    0.992    15 H    0.865
     6   1 H    0.998 --     1 C    0.986
     7   1 H    0.998 --     1 C    0.987
     8   1 H    0.999 --     1 C    0.984
     9   1 H    0.999 --     2 C    0.978
    10   1 H    0.999 --     2 C    0.978
    11   1 H    0.997 --     3 C    0.974
    12   1 H    0.998 --     3 C    0.977
    13   1 H    0.998 --     4 C    0.976
    14   1 H    0.999 --     4 C    0.970
    15   1 H    0.885 --     5 O    0.865
 ---------------------------------------------------------------------------

Topologies differ in total number of bonds
Writing topology from bond orders to xtbtopo.mol

molecular dipole:
                 x           y           z       tot (Debye)
 q only:        0.753       0.110      -0.021
   full:        0.908       0.145      -0.067       2.342
molecular quadrupole (traceless):
                xx          xy          yy          xz          yz          zz
 q only:       -3.846      -2.084       2.384      -0.673       1.050       1.462
  q+dip:       -4.922      -3.048       2.347      -0.979       0.290       2.575
   full:       -4.859      -2.950       2.693      -0.969       0.828       2.166


           -------------------------------------------------
          | TOTAL ENERGY              -17.724071403037 Eh   |
          | GRADIENT NORM               0.000111491225 Eh/α |
          | HOMO-LUMO GAP              12.526385464563 eV   |
           -------------------------------------------------

------------------------------------------------------------------------
 * finished run on 2025/04/06 at 22:31:19.870     
------------------------------------------------------------------------
 total:
 * wall-time:     0 d,  0 h,  0 min,  0.033 sec
 *  cpu-time:     0 d,  0 h,  0 min,  0.012 sec
 * ratio c/w:     0.359 speedup
 SCF:
 * wall-time:     0 d,  0 h,  0 min,  0.008 sec
 *  cpu-time:     0 d,  0 h,  0 min,  0.007 sec
 * ratio c/w:     0.882 speedup

