      -----------------------------------------------------------      
     |                   =====================                   |     
     |                           x T B                           |     
     |                   =====================                   |     
     |                         S. Grimme                         |     
     |          Mulliken Center for Theoretical Chemistry        |     
     |                    University of Bonn                     |     
      -----------------------------------------------------------      

   * xtb version 6.7.1 (edcfbbe) compiled by 'albert@albert-system' on 2024-07-22

   xtb is free software: you can redistribute it and/or modify it under
   the terms of the GNU Lesser General Public License as published by
   the Free Software Foundation, either version 3 of the License, or
   (at your option) any later version.
   
   xtb is distributed in the hope that it will be useful,
   but WITHOUT ANY WARRANTY; without even the implied warranty of
   MERCHANTABILITY or FITNESS FOR A PARTICULAR PURPOSE.  See the
   GNU Lesser General Public License for more details.
   
   Cite this work as:
   * C. Bannwarth, E. Caldeweyher, S. Ehlert, A. Hansen, P. Pracht,
     J. Seibert, S. Spicher, S. Grimme, WIREs Comput. Mol. Sci., 2020, 11,
     e01493. DOI: 10.1002/wcms.1493
   
   for GFN2-xTB:
   * C. Bannwarth, S. Ehlert and S. Grimme., J. Chem. Theory Comput., 2019,
     15, 1652-1671. DOI: 10.1021/acs.jctc.8b01176
   for GFN1-xTB:
   * S. Grimme, C. Bannwarth, P. Shushkov, J. Chem. Theory Comput., 2017,
     13, 1989-2009. DOI: 10.1021/acs.jctc.7b00118
   for GFN0-xTB:
   * P. Pracht, E. Caldeweyher, S. Ehlert, S. Grimme, ChemRxiv, 2019, preprint.
     DOI: 10.26434/chemrxiv.8326202.v1
   for GFN-FF:
   * S. Spicher and S. Grimme, Angew. Chem. Int. Ed., 2020, 59, 15665-15673.
     DOI: 10.1002/anie.202004239
   
   for ALPB and GBSA implicit solvation:
   * S. Ehlert, M. Stahn, S. Spicher, S. Grimme, J. Chem. Theory Comput.,
     2021, 17, 4250-4261. DOI: 10.1021/acs.jctc.1c00471
   
   for ddCOSMO and CPCM-X implicit solvation:
   * M. Stahn, S. Ehlert, S. Grimme, J. Phys. Chem. A,
     2023, XX, XXXX-XXXX. DOI: 10.1021/acs.jpca.3c04382
   
   for DFT-D4:
   * E. Caldeweyher, C. Bannwarth and S. Grimme, J. Chem. Phys., 2017,
     147, 034112. DOI: 10.1063/1.4993215
   * E. Caldeweyher, S. Ehlert, A. Hansen, H. Neugebauer, S. Spicher,
     C. Bannwarth and S. Grimme, J. Chem. Phys., 2019, 150, 154122.
     DOI: 10.1063/1.5090222
   * E. Caldeweyher, J.-M. Mewes, S. Ehlert and S. Grimme, Phys. Chem. Chem. Phys.
     2020, 22, 8499-8512. DOI: 10.1039/D0CP00502A
   
   for sTDA-xTB:
   * S. Grimme and C. Bannwarth, J. Chem. Phys., 2016, 145, 054103.
     DOI: 10.1063/1.4959605
   
   in the mass-spec context:
   * V. Asgeirsson, C. Bauer and S. Grimme, Chem. Sci., 2017, 8, 4879.
     DOI: 10.1039/c7sc00601b
   * J. Koopman and S. Grimme, ACS Omega 2019, 4, 12, 15120-15133.
     DOI: 10.1021/acsomega.9b02011
   
   for metadynamics refer to:
   * S. Grimme, J. Chem. Theory Comput., 2019, 155, 2847-2862
     DOI: 10.1021/acs.jctc.9b00143
   
   for SPH calculations refer to:
   * S. Spicher and S. Grimme, J. Chem. Theory Comput., 2021, 17, 1701-1714
     DOI: 10.1021/acs.jctc.0c01306
   
   for ONIOM refer to:
   * C. Plett, A. Katbashev, S. Ehlert, S. Grimme, M. Bursch,
     Phys. Chem. Chem. Phys., 2023, 25, 17860-17868. DOI: 10.1039/D3CP02178E
   
   for DIPRO refer to:
   * J. Kohn, N. Gildemeister, S. Grimme, D. Fazzi, A. Hansen,
     J. Chem. Phys., 2023, just accepted.
   
   for PTB refer to:
   * S. Grimme, M. Mueller, A. Hansen, J. Chem. Phys., 2023, 158, 124111.
     DOI: 10.1063/5.0137838
   
   with help from (in alphabetical order)
   P. Atkinson, C. Bannwarth, F. Bohle, G. Brandenburg, E. Caldeweyher
   M. Checinski, S. Dohm, S. Ehlert, S. Ehrlich, I. Gerasimov, C. Hölzer
   A. Katbashev, J. Kohn, J. Koopman, C. Lavigne, S. Lehtola, F. März, M. Müller,
   F. Musil, H. Neugebauer, J. Pisarek, C. Plett, P. Pracht, F. Pultar,
   J. Seibert, P. Shushkov, S. Spicher, M. Stahn, M. Steiner, T. Strunk,
   J. Stückrath, T. Rose, and J. Unsleber
   
 * started run on 2025/04/06 at 22:31:19.604     
   ID    Z sym.   atoms
    1    6 C      1-4
    2    8 O      5
    3    1 H      6-15

           -------------------------------------------------
          |                Calculation Setup                |
           -------------------------------------------------

          program call               : /srv/scratch/z5358697/.xtb/bin/xtb gas.coord --gfn2 --sp --chrg 0 --norestart --parallel 1
          hostname                   : k159
          coordinate file            : gas.coord
          omp threads                :                     1


           -------------------------------------------------
          |                 G F N 2 - x T B                 |
           -------------------------------------------------

        Reference                      10.1021/acs.jctc.8b01176
      * Hamiltonian:
        H0-scaling (s, p, d)           1.850000    2.230000    2.230000
        zeta-weighting                 0.500000
      * Dispersion:
        s8                             2.700000
        a1                             0.520000
        a2                             5.000000
        s9                             5.000000
      * Repulsion:
        kExp                           1.500000    1.000000
        rExp                           1.000000
      * Coulomb:
        alpha                          2.000000
        third order                    shell-resolved
        anisotropic                    true
        a3                             3.000000
        a5                             4.000000
        cn-shift                       1.200000
        cn-exp                         4.000000
        max-rad                        5.000000


          ...................................................
          :                      SETUP                      :
          :.................................................:
          :  # basis functions                  30          :
          :  # atomic orbitals                  30          :
          :  # shells                           20          :
          :  # electrons                        32          :
          :  max. iterations                   250          :
          :  Hamiltonian                  GFN2-xTB          :
          :  restarted?                      false          :
          :  GBSA solvation                  false          :
          :  PC potential                    false          :
          :  electronic temp.          300.0000000     K    :
          :  accuracy                    1.0000000          :
          :  -> integral cutoff          0.2500000E+02      :
          :  -> integral neglect         0.1000000E-07      :
          :  -> SCF convergence          0.1000000E-05 Eh   :
          :  -> wf. convergence          0.1000000E-03 e    :
          :  Broyden damping             0.4000000          :
          :  net charge                          0          :
          :  unpaired electrons                  0          :
          ...................................................

 iter      E             dE          RMSdq      gap      omega  full diag
   1    -17.9008238 -0.179008E+02  0.325E+00   12.80       0.0  T
   2    -17.9356547 -0.348309E-01  0.174E+00   12.46       1.0  T
   3    -17.9362365 -0.581840E-03  0.755E-01   12.54       1.0  T
   4    -17.9363917 -0.155178E-03  0.108E-01   12.55       1.0  T
   5    -17.9364120 -0.203178E-04  0.625E-02   12.57       1.0  T
   6    -17.9364132 -0.121105E-05  0.854E-03   12.57       3.0  T
   7    -17.9364134 -0.179676E-06  0.450E-03   12.57       5.7  T
   8    -17.9364134 -0.109534E-07  0.910E-04   12.57      28.4  T
   9    -17.9364134 -0.957854E-09  0.259E-04   12.57      99.6  T

   *** convergence criteria satisfied after 9 iterations ***

         #    Occupation            Energy/Eh            Energy/eV
      -------------------------------------------------------------
         1        2.0000           -0.6833093             -18.5938
       ...           ...                  ...                  ...
        10        2.0000           -0.4824120             -13.1271
        11        2.0000           -0.4753194             -12.9341
        12        2.0000           -0.4622185             -12.5776
        13        2.0000           -0.4500113             -12.2454
        14        2.0000           -0.4332914             -11.7905
        15        2.0000           -0.4311675             -11.7327
        16        2.0000           -0.4088431             -11.1252 (HOMO)
        17                          0.0532067               1.4478 (LUMO)
        18                          0.0723396               1.9685
        19                          0.1047109               2.8493
        20                          0.1172618               3.1909
        21                          0.1406801               3.8281
       ...                                ...                  ...
        30                          0.3014476               8.2028
      -------------------------------------------------------------
                  HL-Gap            0.4620498 Eh           12.5730 eV
             Fermi-level           -0.1778182 Eh           -4.8387 eV

 SCC (total)                   0 d,  0 h,  0 min,  0.019 sec
 SCC setup                      ...        0 min,  0.000 sec (  0.615%)
 Dispersion                     ...        0 min,  0.000 sec (  0.290%)
 classical contributions        ...        0 min,  0.000 sec (  0.069%)
 integral evaluation            ...        0 min,  0.001 sec (  3.553%)
 iterations                     ...        0 min,  0.016 sec ( 85.147%)
 molecular gradient             ...        0 min,  0.002 sec (  9.760%)
 printout                       ...        0 min,  0.000 sec (  0.511%)

         :::::::::::::::::::::::::::::::::::::::::::::::::::::
         ::                     SUMMARY                     ::
         :::::::::::::::::::::::::::::::::::::::::::::::::::::
         :: total energy             -17.722425461858 Eh    ::
         :: gradient norm              0.005953011249 Eh/a0 ::
         :: HOMO-LUMO gap             12.573015385342 eV    ::
         ::.................................................::
         :: SCC energy               -17.936404286983 Eh    ::
         :: -> isotropic ES            0.026730265687 Eh    ::
         :: -> anisotropic ES          0.004146314237 Eh    ::
         :: -> anisotropic XC          0.005953677946 Eh    ::
         :: -> dispersion             -0.007048392607 Eh    ::
         :: repulsion energy           0.213978825125 Eh    ::
         :: add. restraining           0.000000000000 Eh    ::
         :: total charge               0.000000000000 e     ::
         :::::::::::::::::::::::::::::::::::::::::::::::::::::

           -------------------------------------------------
          |                Property Printout                |
           -------------------------------------------------

    * Orbital Energies and Occupations

         #    Occupation            Energy/Eh            Energy/eV
      -------------------------------------------------------------
         1        2.0000           -0.6833093             -18.5938
       ...           ...                  ...                  ...
         4        2.0000           -0.5921381             -16.1129
         5        2.0000           -0.5662049             -15.4072
         6        2.0000           -0.5557012             -15.1214
         7        2.0000           -0.5306942             -14.4409
         8        2.0000           -0.5165752             -14.0567
         9        2.0000           -0.5082746             -13.8309
        10        2.0000           -0.4824120             -13.1271
        11        2.0000           -0.4753194             -12.9341
        12        2.0000           -0.4622185             -12.5776
        13        2.0000           -0.4500113             -12.2454
        14        2.0000           -0.4332914             -11.7905
        15        2.0000           -0.4311675             -11.7327
        16        2.0000           -0.4088431             -11.1252 (HOMO)
        17                          0.0532067               1.4478 (LUMO)
        18                          0.0723396               1.9685
        19                          0.1047109               2.8493
        20                          0.1172618               3.1909
        21                          0.1406801               3.8281
        22                          0.1513495               4.1184
        23                          0.1695570               4.6139
        24                          0.1810685               4.9271
        25                          0.2025305               5.5111
        26                          0.2086545               5.6778
        27                          0.2402239               6.5368
       ...                                ...                  ...
        30                          0.3014476               8.2028
      -------------------------------------------------------------
                  HL-Gap            0.4620498 Eh           12.5730 eV
             Fermi-level           -0.1778182 Eh           -4.8387 eV

     #   Z          covCN         q      C6AA      α(0)
     1   6 C        3.752    -0.104    22.547     6.771
     2   6 C        3.800    -0.052    21.500     6.602
     3   6 C        3.801    -0.074    21.912     6.665
     4   6 C        3.674     0.079    19.489     6.326
     5   8 O        1.654    -0.444    21.719     6.291
     6   1 H        0.925     0.035     2.514     2.479
     7   1 H        0.925     0.035     2.512     2.478
     8   1 H        0.925     0.037     2.494     2.470
     9   1 H        0.924     0.029     2.597     2.520
    10   1 H        0.924     0.028     2.622     2.532
    11   1 H        0.924     0.047     2.356     2.401
    12   1 H        0.924     0.035     2.511     2.478
    13   1 H        0.924     0.046     2.365     2.405
    14   1 H        0.923     0.016     2.792     2.613
    15   1 H        0.805     0.285     0.767     1.375

 Mol. C6AA /au·bohr⁶  :       1462.262984
 Mol. C8AA /au·bohr⁸  :      29851.140001
 Mol. α(0) /au        :         56.407733


Wiberg/Mayer (AO) data.
largest (>0.10) Wiberg bond orders for each atom

 ---------------------------------------------------------------------------
     #   Z sym  total        # sym  WBO       # sym  WBO       # sym  WBO
 ---------------------------------------------------------------------------
     1   6 C    3.997 --     2 C    1.019     8 H    0.988     7 H    0.988
                             6 H    0.987
     2   6 C    3.998 --     1 C    1.019     3 C    1.009     9 H    0.978
                            10 H    0.977
     3   6 C    3.996 --     2 C    1.009     4 C    0.997    11 H    0.976
                            12 H    0.976
     4   6 C    3.957 --     5 O    0.999     3 C    0.997    13 H    0.973
                            14 H    0.971
     5   8 O    1.959 --     4 C    0.999    15 H    0.902
     6   1 H    0.999 --     1 C    0.987
     7   1 H    0.999 --     1 C    0.988
     8   1 H    0.999 --     1 C    0.988
     9   1 H    0.999 --     2 C    0.978
    10   1 H    0.999 --     2 C    0.977
    11   1 H    0.998 --     3 C    0.976
    12   1 H    0.999 --     3 C    0.976
    13   1 H    0.998 --     4 C    0.973
    14   1 H    1.000 --     4 C    0.971
    15   1 H    0.919 --     5 O    0.902
 ---------------------------------------------------------------------------

Topologies differ in total number of bonds
Writing topology from bond orders to xtbtopo.mol

molecular dipole:
                 x           y           z       tot (Debye)
 q only:        0.559       0.208      -0.014
   full:        0.731       0.327      -0.080       2.046
molecular quadrupole (traceless):
                xx          xy          yy          xz          yz          zz
 q only:       -3.762      -1.382       0.598      -0.511      -0.345       3.164
  q+dip:       -6.301      -1.776       2.072      -1.028      -0.635       4.229
   full:       -5.852      -1.799       1.445      -0.857      -0.568       4.407


           -------------------------------------------------
          | TOTAL ENERGY              -17.722425461858 Eh   |
          | GRADIENT NORM               0.005953011249 Eh/α |
          | HOMO-LUMO GAP              12.573015385342 eV   |
           -------------------------------------------------

------------------------------------------------------------------------
 * finished run on 2025/04/06 at 22:31:19.696     
------------------------------------------------------------------------
 total:
 * wall-time:     0 d,  0 h,  0 min,  0.091 sec
 *  cpu-time:     0 d,  0 h,  0 min,  0.015 sec
 * ratio c/w:     0.163 speedup
 SCF:
 * wall-time:     0 d,  0 h,  0 min,  0.019 sec
 *  cpu-time:     0 d,  0 h,  0 min,  0.006 sec
 * ratio c/w:     0.327 speedup

