      -----------------------------------------------------------      
     |                   =====================                   |     
     |                           x T B                           |     
     |                   =====================                   |     
     |                         S. Grimme                         |     
     |          Mulliken Center for Theoretical Chemistry        |     
     |                    University of Bonn                     |     
      -----------------------------------------------------------      

   * xtb version 6.7.1 (edcfbbe) compiled by 'albert@albert-system' on 2024-07-22

   xtb is free software: you can redistribute it and/or modify it under
   the terms of the GNU Lesser General Public License as published by
   the Free Software Foundation, either version 3 of the License, or
   (at your option) any later version.
   
   xtb is distributed in the hope that it will be useful,
   but WITHOUT ANY WARRANTY; without even the implied warranty of
   MERCHANTABILITY or FITNESS FOR A PARTICULAR PURPOSE.  See the
   GNU Lesser General Public License for more details.
   
   Cite this work as:
   * C. Bannwarth, E. Caldeweyher, S. Ehlert, A. Hansen, P. Pracht,
     J. Seibert, S. Spicher, S. Grimme, WIREs Comput. Mol. Sci., 2020, 11,
     e01493. DOI: 10.1002/wcms.1493
   
   for GFN2-xTB:
   * C. Bannwarth, S. Ehlert and S. Grimme., J. Chem. Theory Comput., 2019,
     15, 1652-1671. DOI: 10.1021/acs.jctc.8b01176
   for GFN1-xTB:
   * S. Grimme, C. Bannwarth, P. Shushkov, J. Chem. Theory Comput., 2017,
     13, 1989-2009. DOI: 10.1021/acs.jctc.7b00118
   for GFN0-xTB:
   * P. Pracht, E. Caldeweyher, S. Ehlert, S. Grimme, ChemRxiv, 2019, preprint.
     DOI: 10.26434/chemrxiv.8326202.v1
   for GFN-FF:
   * S. Spicher and S. Grimme, Angew. Chem. Int. Ed., 2020, 59, 15665-15673.
     DOI: 10.1002/anie.202004239
   
   for ALPB and GBSA implicit solvation:
   * S. Ehlert, M. Stahn, S. Spicher, S. Grimme, J. Chem. Theory Comput.,
     2021, 17, 4250-4261. DOI: 10.1021/acs.jctc.1c00471
   
   for ddCOSMO and CPCM-X implicit solvation:
   * M. Stahn, S. Ehlert, S. Grimme, J. Phys. Chem. A,
     2023, XX, XXXX-XXXX. DOI: 10.1021/acs.jpca.3c04382
   
   for DFT-D4:
   * E. Caldeweyher, C. Bannwarth and S. Grimme, J. Chem. Phys., 2017,
     147, 034112. DOI: 10.1063/1.4993215
   * E. Caldeweyher, S. Ehlert, A. Hansen, H. Neugebauer, S. Spicher,
     C. Bannwarth and S. Grimme, J. Chem. Phys., 2019, 150, 154122.
     DOI: 10.1063/1.5090222
   * E. Caldeweyher, J.-M. Mewes, S. Ehlert and S. Grimme, Phys. Chem. Chem. Phys.
     2020, 22, 8499-8512. DOI: 10.1039/D0CP00502A
   
   for sTDA-xTB:
   * S. Grimme and C. Bannwarth, J. Chem. Phys., 2016, 145, 054103.
     DOI: 10.1063/1.4959605
   
   in the mass-spec context:
   * V. Asgeirsson, C. Bauer and S. Grimme, Chem. Sci., 2017, 8, 4879.
     DOI: 10.1039/c7sc00601b
   * J. Koopman and S. Grimme, ACS Omega 2019, 4, 12, 15120-15133.
     DOI: 10.1021/acsomega.9b02011
   
   for metadynamics refer to:
   * S. Grimme, J. Chem. Theory Comput., 2019, 155, 2847-2862
     DOI: 10.1021/acs.jctc.9b00143
   
   for SPH calculations refer to:
   * S. Spicher and S. Grimme, J. Chem. Theory Comput., 2021, 17, 1701-1714
     DOI: 10.1021/acs.jctc.0c01306
   
   for ONIOM refer to:
   * C. Plett, A. Katbashev, S. Ehlert, S. Grimme, M. Bursch,
     Phys. Chem. Chem. Phys., 2023, 25, 17860-17868. DOI: 10.1039/D3CP02178E
   
   for DIPRO refer to:
   * J. Kohn, N. Gildemeister, S. Grimme, D. Fazzi, A. Hansen,
     J. Chem. Phys., 2023, just accepted.
   
   for PTB refer to:
   * S. Grimme, M. Mueller, A. Hansen, J. Chem. Phys., 2023, 158, 124111.
     DOI: 10.1063/5.0137838
   
   with help from (in alphabetical order)
   P. Atkinson, C. Bannwarth, F. Bohle, G. Brandenburg, E. Caldeweyher
   M. Checinski, S. Dohm, S. Ehlert, S. Ehrlich, I. Gerasimov, C. Hölzer
   A. Katbashev, J. Kohn, J. Koopman, C. Lavigne, S. Lehtola, F. März, M. Müller,
   F. Musil, H. Neugebauer, J. Pisarek, C. Plett, P. Pracht, F. Pultar,
   J. Seibert, P. Shushkov, S. Spicher, M. Stahn, M. Steiner, T. Strunk,
   J. Stückrath, T. Rose, and J. Unsleber
   
 * started run on 2025/04/06 at 22:31:19.735     
   ID    Z sym.   atoms
    1    6 C      1-4
    2    8 O      5
    3    1 H      6-15

           -------------------------------------------------
          |                Calculation Setup                |
           -------------------------------------------------

          program call               : /srv/scratch/z5358697/.xtb/bin/xtb solv.coord --gfn2 --sp --chrg 0 --norestart --parallel 1 --alpb water reference -I xtb_sp-xcontrol-inp
          hostname                   : k159
          coordinate file            : solv.coord
          omp threads                :                     1


           -------------------------------------------------
          |                 G F N 2 - x T B                 |
           -------------------------------------------------

        Reference                      10.1021/acs.jctc.8b01176
      * Hamiltonian:
        H0-scaling (s, p, d)           1.850000    2.230000    2.230000
        zeta-weighting                 0.500000
      * Dispersion:
        s8                             2.700000
        a1                             0.520000
        a2                             5.000000
        s9                             5.000000
      * Repulsion:
        kExp                           1.500000    1.000000
        rExp                           1.000000
      * Coulomb:
        alpha                          2.000000
        third order                    shell-resolved
        anisotropic                    true
        a3                             3.000000
        a5                             4.000000
        cn-shift                       1.200000
        cn-exp                         4.000000
        max-rad                        5.000000

      * Solvation model:               ALPB
        Solvent                        water
        Parameter file                 internal GFN2-xTB/ALPB
        Dielectric constant                8.0200E+01
        Reference state                gsolv=reference [X=1]
        Free energy shift                  2.8945E-03 Eh       1.8164E+00 kcal/mol
        Temperature                        2.9815E+02 K
        Density                            1.0000E+00 kg/L
        Solvent mass                       1.8000E+01 g/mol
        Interaction kernel             P16
        Born radius scaling (c1)           1.4744E+00
        Born radii integrator          GBOBC
        Born offset                        0.0000E+00 a0       0.0000E+00 AA
        H-bond correction              true
        Ion screening                  false
        Surface tension                    1.0000E-05 Eh       1.5569E+01 dyn/cm
        Grid points                               974 per atom

          ...................................................
          :                      SETUP                      :
          :.................................................:
          :  # basis functions                  30          :
          :  # atomic orbitals                  30          :
          :  # shells                           20          :
          :  # electrons                        32          :
          :  max. iterations                   250          :
          :  Hamiltonian                  GFN2-xTB          :
          :  restarted?                      false          :
          :  GBSA solvation                   true          :
          :  PC potential                    false          :
          :  electronic temp.          300.0000000     K    :
          :  accuracy                    1.0000000          :
          :  -> integral cutoff          0.2500000E+02      :
          :  -> integral neglect         0.1000000E-07      :
          :  -> SCF convergence          0.1000000E-05 Eh   :
          :  -> wf. convergence          0.1000000E-03 e    :
          :  Broyden damping             0.4000000          :
          :  net charge                          0          :
          :  unpaired electrons                  0          :
          ...................................................

 iter      E             dE          RMSdq      gap      omega  full diag
   1    -17.9138301 -0.179138E+02  0.333E+00   12.83       0.0  T
   2    -17.9394518 -0.256217E-01  0.176E+00   12.64       1.0  T
   3    -17.9402618 -0.810091E-03  0.613E-01   12.62       1.0  T
   4    -17.9404140 -0.152187E-03  0.115E-01   12.62       1.0  T
   5    -17.9404297 -0.156339E-04  0.646E-02   12.63       1.0  T
   6    -17.9404323 -0.261655E-05  0.123E-02   12.64       2.1  T
   7    -17.9404325 -0.250536E-06  0.562E-03   12.64       4.6  T
   8    -17.9404326 -0.540889E-07  0.203E-03   12.64      12.7  T
   9    -17.9404326 -0.533141E-08  0.391E-04   12.64      66.1  T
  10    -17.9404326 -0.606295E-09  0.182E-04   12.64     141.7  T

   *** convergence criteria satisfied after 10 iterations ***

         #    Occupation            Energy/Eh            Energy/eV
      -------------------------------------------------------------
         1        2.0000           -0.6877061             -18.7134
       ...           ...                  ...                  ...
        10        2.0000           -0.4785372             -13.0217
        11        2.0000           -0.4707534             -12.8099
        12        2.0000           -0.4570761             -12.4377
        13        2.0000           -0.4449118             -12.1067
        14        2.0000           -0.4273487             -11.6287
        15        2.0000           -0.4265408             -11.6068
        16        2.0000           -0.4100430             -11.1578 (HOMO)
        17                          0.0543634               1.4793 (LUMO)
        18                          0.0757966               2.0625
        19                          0.1101239               2.9966
        20                          0.1239042               3.3716
        21                          0.1458413               3.9685
       ...                                ...                  ...
        30                          0.3076845               8.3725
      -------------------------------------------------------------
                  HL-Gap            0.4644064 Eh           12.6371 eV
             Fermi-level           -0.1778398 Eh           -4.8393 eV

 SCC (total)                   0 d,  0 h,  0 min,  0.025 sec
 SCC setup                      ...        0 min,  0.001 sec (  2.599%)
 Dispersion                     ...        0 min,  0.000 sec (  0.210%)
 classical contributions        ...        0 min,  0.000 sec (  0.043%)
 integral evaluation            ...        0 min,  0.001 sec (  3.654%)
 iterations                     ...        0 min,  0.022 sec ( 85.856%)
 molecular gradient             ...        0 min,  0.002 sec (  7.220%)
 printout                       ...        0 min,  0.000 sec (  0.367%)

         :::::::::::::::::::::::::::::::::::::::::::::::::::::
         ::                     SUMMARY                     ::
         :::::::::::::::::::::::::::::::::::::::::::::::::::::
         :: total energy             -17.726444648317 Eh    ::
         :: total w/o Gsasa/hb       -17.725473087301 Eh    ::
         :: gradient norm              0.000103256360 Eh/a0 ::
         :: HOMO-LUMO gap             12.637141302487 eV    ::
         ::.................................................::
         :: SCC energy               -17.940423473442 Eh    ::
         :: -> isotropic ES            0.034806607111 Eh    ::
         :: -> anisotropic ES          0.003339360117 Eh    ::
         :: -> anisotropic XC          0.006199149023 Eh    ::
         :: -> dispersion             -0.007007470627 Eh    ::
         :: -> Gsolv                  -0.005473067386 Eh    ::
         ::    -> Gelec               -0.004501506370 Eh    ::
         ::    -> Gsasa                0.000792077233 Eh    ::
         ::    -> Ghb                 -0.004658187409 Eh    ::
         ::    -> Gshift               0.002894549160 Eh    ::
         :: repulsion energy           0.213978825125 Eh    ::
         :: add. restraining           0.000000000000 Eh    ::
         :: total charge              -0.000000000000 e     ::
         :::::::::::::::::::::::::::::::::::::::::::::::::::::

           -------------------------------------------------
          |                Property Printout                |
           -------------------------------------------------

    * Orbital Energies and Occupations

         #    Occupation            Energy/Eh            Energy/eV
      -------------------------------------------------------------
         1        2.0000           -0.6877061             -18.7134
       ...           ...                  ...                  ...
         4        2.0000           -0.5881454             -16.0043
         5        2.0000           -0.5606217             -15.2553
         6        2.0000           -0.5538105             -15.0700
         7        2.0000           -0.5289475             -14.3934
         8        2.0000           -0.5140425             -13.9878
         9        2.0000           -0.5036741             -13.7057
        10        2.0000           -0.4785372             -13.0217
        11        2.0000           -0.4707534             -12.8099
        12        2.0000           -0.4570761             -12.4377
        13        2.0000           -0.4449118             -12.1067
        14        2.0000           -0.4273487             -11.6287
        15        2.0000           -0.4265408             -11.6068
        16        2.0000           -0.4100430             -11.1578 (HOMO)
        17                          0.0543634               1.4793 (LUMO)
        18                          0.0757966               2.0625
        19                          0.1101239               2.9966
        20                          0.1239042               3.3716
        21                          0.1458413               3.9685
        22                          0.1564380               4.2569
        23                          0.1739158               4.7325
        24                          0.1864690               5.0741
        25                          0.2085400               5.6747
        26                          0.2145357               5.8378
        27                          0.2457022               6.6859
       ...                                ...                  ...
        30                          0.3076845               8.3725
      -------------------------------------------------------------
                  HL-Gap            0.4644064 Eh           12.6371 eV
             Fermi-level           -0.1778398 Eh           -4.8393 eV

     #   Z          covCN         q      C6AA      α(0)
     1   6 C        3.752    -0.114    22.737     6.800
     2   6 C        3.800    -0.058    21.613     6.619
     3   6 C        3.801    -0.078    21.994     6.677
     4   6 C        3.674     0.078    19.509     6.330
     5   8 O        1.654    -0.514    23.206     6.503
     6   1 H        0.925     0.041     2.439     2.442
     7   1 H        0.925     0.039     2.468     2.457
     8   1 H        0.925     0.039     2.461     2.453
     9   1 H        0.924     0.035     2.520     2.482
    10   1 H        0.924     0.034     2.531     2.488
    11   1 H        0.924     0.047     2.354     2.399
    12   1 H        0.924     0.043     2.415     2.430
    13   1 H        0.924     0.043     2.409     2.427
    14   1 H        0.923     0.022     2.705     2.572
    15   1 H        0.805     0.345     0.600     1.217

 Mol. C6AA /au·bohr⁶  :       1458.845547
 Mol. C8AA /au·bohr⁸  :      29880.928752
 Mol. α(0) /au        :         56.298018


Wiberg/Mayer (AO) data.
largest (>0.10) Wiberg bond orders for each atom

 ---------------------------------------------------------------------------
     #   Z sym  total        # sym  WBO       # sym  WBO       # sym  WBO
 ---------------------------------------------------------------------------
     1   6 C    3.996 --     2 C    1.019     8 H    0.988     7 H    0.988
                             6 H    0.987
     2   6 C    3.998 --     1 C    1.019     3 C    1.009     9 H    0.978
                            10 H    0.976
     3   6 C    3.995 --     2 C    1.009     4 C    0.998    11 H    0.976
                            12 H    0.975
     4   6 C    3.952 --     3 C    0.998     5 O    0.993    13 H    0.974
                            14 H    0.971
     5   8 O    1.915 --     4 C    0.993    15 H    0.865
     6   1 H    0.998 --     1 C    0.987
     7   1 H    0.999 --     1 C    0.988
     8   1 H    0.998 --     1 C    0.988
     9   1 H    0.999 --     2 C    0.978
    10   1 H    0.999 --     2 C    0.976
    11   1 H    0.998 --     3 C    0.976
    12   1 H    0.998 --     3 C    0.975
    13   1 H    0.998 --     4 C    0.974
    14   1 H    1.000 --     4 C    0.971
    15   1 H    0.881 --     5 O    0.865
 ---------------------------------------------------------------------------

Topologies differ in total number of bonds
Writing topology from bond orders to xtbtopo.mol

molecular dipole:
                 x           y           z       tot (Debye)
 q only:        0.688       0.263      -0.099
   full:        0.810       0.360      -0.135       2.280
molecular quadrupole (traceless):
                xx          xy          yy          xz          yz          zz
 q only:       -4.437      -1.549       0.671      -0.273      -0.395       3.766
  q+dip:       -6.731      -1.864       2.100      -0.880      -0.674       4.631
   full:       -6.279      -1.890       1.469      -0.702      -0.604       4.810


           -------------------------------------------------
          | TOTAL ENERGY              -17.726444648317 Eh   |
          | GRADIENT NORM               0.000103256360 Eh/α |
          | HOMO-LUMO GAP              12.637141302487 eV   |
           -------------------------------------------------

------------------------------------------------------------------------
 * finished run on 2025/04/06 at 22:31:19.791     
------------------------------------------------------------------------
 total:
 * wall-time:     0 d,  0 h,  0 min,  0.056 sec
 *  cpu-time:     0 d,  0 h,  0 min,  0.013 sec
 * ratio c/w:     0.231 speedup
 SCF:
 * wall-time:     0 d,  0 h,  0 min,  0.025 sec
 *  cpu-time:     0 d,  0 h,  0 min,  0.007 sec
 * ratio c/w:     0.274 speedup

