15
 xtb: 6.7.1 (edcfbbe)
C            2.42909502698557       -0.29012902515811       -0.14344313704428
C            1.02246667220486        0.24606360166758       -0.39572784234457
C            0.04848393890393       -0.15332534588574        0.71272457303168
C           -1.35184713364550        0.39606347516364        0.53037408357258
O           -1.92302807153291       -0.16706894679072       -0.67070718633356
H            2.82690614035100        0.08323131744014        0.80707591014888
H            2.42727389422386       -1.38505378110173       -0.09599057584221
H            3.12098244904232        0.00899228958342       -0.93721926872266
H            1.04994408058722        1.34121359979561       -0.47084781806149
H            0.65796243071320       -0.12573481697531       -1.36018067767920
H           -0.00108949481637       -1.24800850148319        0.78941844554783
H            0.42442815074637        0.21373105526969        1.67661724842267
H           -1.97509112030011        0.13435624362364        1.39670284342700
H           -1.32070186927814        1.49274294485406        0.45057153758203
H           -2.80960305800822        0.20098202259258       -0.76850878946196
