! wb97x-v def2-tzvp def2/J RIJCOSX DEFGRID2 scfconv7 GCP(DFT/TZ) printgap
%output
    printlevel normal
end
%cpcm
    smd true
    smdsolvent "water"
end
* xyz 0 1
C 1.6782034060596962 -1.203975049518446 0.04761996159589435
C 0.9249063875035817 -0.00033182427069852863 -0.47794293558300904
H 0.8988329965363309 -0.0061486408679590964 -1.5759169844224126
C -0.5310523756174822 -0.014872715179656444 -0.021148923322895495
F -1.1934058380123815 -1.0910034719033943 -0.5108107570250617
F -0.6546273079716317 -0.048092302258091496 1.32723283873487
F -1.1989959906110872 1.0881591686363548 -0.4462340169747092
O 1.5525396437637986 1.1816312023135818 0.013622437878628187
H 2.697669914631138 -1.1816867554647585 -0.34334651403259625
H 1.2036718310319836 -2.1322082507499043 -0.2789572335448691
H 1.7183160277844687 -1.1872402982021049 1.140249070682865
H 1.2385382358956711 1.9337687395154133 -0.5066821754203862
*
