! pbe def2-sv(p) def2/J RI DEFGRID1 loosescf d4 GCP(DFT/SV(P)) printgap
%output
    printlevel normal
end
* xyz 0 1
C -2.2631927641 -1.1221869003 0.0581137378
C -0.8682741684 -0.5605314661 0.3444275571
H -0.8284009697 -0.2948311471 1.4120325156
C -0.5557390809 0.6893233342 -0.4905303781
H -0.475667058 0.3970537085 -1.5449918789
C 0.8031212183 1.2756796712 -0.0419224554
H 0.6313584519 2.0005914185 0.7611735719
C 1.7188619118 0.1669039062 0.52462575
H 2.7545216798 0.4366064684 0.2755636129
C 1.3934565524 -1.1665248865 -0.1689326051
H 2.030241948 -1.9729160725 0.2290596274
O 0.0780603542 -1.5933833146 0.0829474757
O 1.6317934718 -0.9861639125 -1.5329491324
O 1.5315390585 0.0951032101 1.9133581461
O 1.4385865103 1.9899928526 -1.0673428856
O -1.5898015325 1.634144515 -0.4528731405
O -3.1799807491 -0.4455705504 0.8845967887
H -2.2398420439 -2.1951986809 0.2866240122
H -2.5070168496 -0.9813000078 -1.001111277
H 1.4767270702 -1.8171226523 -2.00839786
H 2.1977112737 -0.4824489086 2.3137415496
H 1.6122820255 1.3875942073 -1.8074538001
H -1.8676598528 1.7793308195 0.4630815538
H -4.07855302 -0.7274668358 0.6645693703
*
