15
 xtb: 6.7.1 (edcfbbe)
C            2.56040243616593       -0.34927248555486        0.00171871865738
C            1.29851899767551        0.50754708400374        0.03084296867725
C            0.02501459392396       -0.33569175405930       -0.01684769758472
C           -1.22328614521510        0.52073380018880        0.02159053800827
O           -2.37722598675039       -0.34581934030339       -0.03442631645699
H            2.60210493545897       -0.95507866386097       -0.91021417418961
H            3.46308533704248        0.26890640491234        0.03519312067317
H            2.58960228783440       -1.03265786616208        0.85754253794550
H            1.29217301254582        1.12355366253368        0.93921549905332
H            1.30496561361589        1.20310939128284       -0.81810192916764
H            0.01745032992988       -0.94162989744254       -0.93246271253243
H            0.01069664963544       -1.03175065892098        0.83216765163307
H           -1.24660032721672        1.11617330264687        0.94571523410659
H           -1.23366184457958        1.21438804833269       -0.83154472824806
H           -3.16078997905177        0.21715767595500       -0.01108034346472
