! r2scan-3c def2/J RI DEFGRID2 scfconv6 printgap
%output
    printlevel normal
end
* xyz 0 1
C 2.0456579666 0.9566328782 -0.6138867417
C 1.1619437284 -0.1915569982 -0.1448789811
C 1.8125681577 -1.001244285 0.9697276511
O -0.0649441933 0.3788830776 0.3674150589
C -1.230272823 -0.0126420598 -0.1211396546
O -1.3556771315 -0.851157296 -0.9925853791
C -2.370424262 0.7155832052 0.5283232481
H 1.5506763695 1.5164813046 -1.4031226857
H 2.2489636904 1.6258474605 0.2174486126
H 2.9817749559 0.5617770887 -0.9948146766
H 0.8960505631 -0.8443143195 -0.9859046165
H 2.0228864056 -0.3562591368 1.818444337
H 2.7395591166 -1.4353513238 0.6095724773
H 1.1498231754 -1.8013072294 1.2904275517
H -2.8142797507 1.3865862413 -0.2034540643
H -2.0108610168 1.2820866384 1.3802021114
H -3.1293108298 -0.0011318559 0.828800079
*
