15
 xtb: 6.7.1 (edcfbbe)
C            2.39021468256804        0.39591807909618        0.00006839450728
C            1.18771041325927       -0.51955694033688       -0.00017949282244
O            0.00000449232538        0.28499675354443        0.00007864522068
C           -1.18769973014688       -0.51955969749583        0.00005573058869
C           -2.39020609389407        0.39591217298808       -0.00002679933290
H            2.39495935125540        1.03355074650663        0.88955299102552
H            3.30865484544872       -0.19869365434076       -0.00029585209591
H            2.39474172166507        1.03429420396201       -0.88888590964752
H            1.19018572068145       -1.16932932328873        0.88897436272810
H            1.19014523172229       -1.16879429772046       -0.88972428537439
H           -1.19011793625529       -1.16909079295317       -0.88927429229167
H           -1.19018790777941       -1.16903903694011        0.88942428626323
H           -2.39488088341303        1.03395518550104        0.88916387652036
H           -2.39480598285372        1.03387765802171       -0.88927462004018
H           -3.30864431008178       -0.19870207738541       -0.00003905706861
