! wb97x-v def2-tzvp def2/J RIJCOSX DEFGRID2 scfconv7 GCP(DFT/TZ) printgap
%output
    printlevel normal
end
* xyz 0 1
C -3.1858744116838236 -0.15873814819752 0.0020082476882202003
O -1.9628562432448455 -0.9093329894157925 0.0010073762106658684
C -0.7867545516737097 -0.1966175040243056 0.004843682851552061
C -0.7202728859829562 1.198579814289431 0.001859746842986867
C 0.5432681230062353 1.7938477324397237 0.0008933285853054548
C 1.7078732423328102 1.0423903608085612 0.006215079379063229
C 1.630476801364749 -0.36242410130288166 0.012784452129626412
C 0.37301643856633065 -0.9727907655296287 0.00860259569375509
N 2.78667676653685 -1.1303197157715952 0.0851833735441323
H -3.2663176085231758 0.46672066726755557 -0.8941270228396687
H -3.2657018152804334 0.4641472957846525 0.9000222936834218
H -3.9861660537275423 -0.8998257761295725 0.0011599540706613983
H -1.610677388428488 1.8132386766146118 -0.002728447456633876
H 0.6115362921822449 2.877663732201001 -0.006262610240318713
H 2.679685310523854 1.5269681412325298 0.005838060880122071
H 0.28701954971810767 -2.055571531733336 0.00953091368465178
H 3.6127300197141268 -0.6735367967843943 -0.2746007043047098
H 2.6892966873199597 -2.073204789122719 -0.264162045136138
*
