! r2scan-3c def2/J RI DEFGRID2 scfconv6 printgap
%output
    printlevel normal
end
* xyz 0 1
C -1.8838092465 -1.2418570231 -0.0198938867
C -1.5157934369 0.2347396485 0.0184952956
C -0.0341244426 0.5099030665 0.0073108094
O 0.4379538026 1.6315160176 0.0085766378
O 0.6967928393 -0.5935002858 -0.0022709227
C 2.122648707 -0.4866716715 -0.0105174015
H -2.964547652 -1.3487627741 -0.0079110808
H -1.4955536751 -1.7096895396 -0.9199995287
H -1.4707516199 -1.7612863037 0.8399259019
H -1.9173449944 0.7113053094 0.9157347877
H -1.9415909148 0.7654173809 -0.8359141415
H 2.4870579962 -1.0444580641 -0.8707206573
H 2.4972204311 -0.926815313 0.9120655049
H 2.4162287462 0.5615899512 -0.078397779
*
