15
 xtb: 6.7.1 (edcfbbe)
C            2.09926032096582        0.41738969281149       -0.35544516806237
C            1.02676959369224       -0.01554042097308        0.62831499338022
O            0.00004807554688       -0.80626333597087        0.00085161572815
C           -1.02679196076690       -0.01683802505825       -0.62804848553308
C           -2.09930533290763        0.41782796654899        0.35492068218014
H            2.57175928854204       -0.45415129184377       -0.81899231440822
H            1.68911556847552        1.05424523512061       -1.14521927477565
H            2.87258936095784        0.98890187600674        0.16900013145437
H            0.58132200766446        0.85557652884855        1.12751062394674
H            1.46179566746210       -0.65432532298905        1.40439325591738
H           -0.58146318456347        0.85338920015000       -1.12889832638844
H           -1.46178486890275       -0.65712903370893       -1.40290291763496
H           -2.87279070406414        0.98812583954235       -0.17061397558595
H           -2.57158975406575       -0.45288854376224        0.82022916929052
H           -1.68924214986138        1.05633562372405        1.14339927872020
