15
 xtb: 6.7.1 (edcfbbe)
C            2.13574494595013       -0.23351189634094       -0.59343418926522
C            1.38498111344583        0.42003836610418        0.56594809355470
C           -0.04478284605382       -0.09650365614186        0.74857481352691
C           -0.93179019033646        0.17862118089168       -0.44991000919150
O           -2.27567508378607       -0.23300290526118       -0.11897199957982
H            2.12425647729573       -1.32576923861467       -0.49984421357080
H            1.69430966666069        0.02333772713876       -1.56169015466889
H            3.18159987117579        0.08977030846963       -0.61392364626802
H            1.93619426357492        0.24357433758475        1.49668843898141
H            1.36090458875334        1.50789433207697        0.42178114115750
H           -0.02667131642149       -1.17737106239133        0.94158187657080
H           -0.49420088218308        0.38222873388836        1.62770989540520
H           -0.91572739513528        1.25222029093540       -0.69159069412257
H           -0.58323285473343       -0.37497036421680       -1.33171240041447
H           -2.82132166770429       -0.09307827295577       -0.90250357682429
