! wb97x-v def2-tzvp def2/J RIJCOSX DEFGRID2 scfconv7 GCP(DFT/TZ) printgap
%output
    printlevel normal
end
%cpcm
    smd true
    smdsolvent "water"
end
* xyz 0 1
C -1.5871550140323725 -0.1613810133303392 0.5045055985251053
C -0.6677946939600811 0.4946053813268871 -0.5220246417237272
C 0.6778107612915333 -0.2003863821631653 -0.6570073939187847
O 1.439266624203771 -0.1914003613914802 0.5687687567982962
H -2.5571669262516004 0.34492835951803974 0.5445487804516225
H -1.7659196632876535 -1.2132402472721513 0.25086871158426477
H -1.1515045330578784 -0.12662098049812343 1.508491962396101
H -0.49886877921663586 1.5484436012896308 -0.26241398325606546
H -1.1439955625573133 0.48783973376990447 -1.5107919916794066
H 0.5367301517999545 -1.2581126851095 -0.90638523361348
H 1.2644656622550752 0.2628464182437291 -1.4629360839811147
H 1.5842634606977661 0.734545590413174 0.8047228007422161
*
