! wb97x-v def2-tzvp def2/J RIJCOSX DEFGRID2 scfconv7 GCP(DFT/TZ) printgap
%output
    printlevel normal
end
%cpcm
    smd true
    smdsolvent "water"
end
* xyz 0 1
C -2.666469656921976 0.6147597391022446 0.76079306880993
C -1.8516630968524164 0.6250373570694009 -0.5399575900709962
C -0.3826557417808834 0.3909478281639955 -0.29798388820823685
C 0.5077624040070156 1.4652214532806813 -0.21732544371027432
C 1.8612011992332487 1.2825139961897436 0.05325784055205199
C 2.351386617642363 -0.006865811197914533 0.24776699819247897
C 1.491881323762439 -1.0968897376256852 0.1722028146406616
C 0.13847759915685193 -0.8969313228901937 -0.09490877291395233
O -0.6493031912872617 -2.0298596654517667 -0.14962900152514727
H -2.3260645739363643 1.410881806226576 1.4303305277136995
H -2.5604928218103375 -0.33839485176992157 1.2899845633463785
H -3.7294309023435614 0.7714167217815194 0.5529602372783512
H -1.971061731625715 1.59374996628053 -1.0347587118841988
H -2.2555540800352505 -0.12208481892104664 -1.236365154819515
H 0.1188466195268474 2.468366738236374 -0.3728952461890625
H 2.5264776482397404 2.1379264014224426 0.10708657139429807
H 3.4039457563099402 -0.1691487547574699 0.45759750569935576
H 1.8564272311245817 -2.1088648109691674 0.3184764728789271
H -1.5614384647518906 -1.7825700089311138 -0.3525903023469891
*
