 Entering Gaussian System
 *********************************************
 Gaussian 98:
 frequency output generated by the xtb code
 *********************************************
                         Standard orientation:
 --------------------------------------------------------------------
  Center     Atomic     Atomic              Coordinates (Angstroms)
  Number     Number      Type              X           Y           Z
 --------------------------------------------------------------------
    1          6             0        2.033673   -0.479789   -0.406526
    2          6             0        1.077194   -0.036739    0.694944
    3          6             0        0.018319    0.954052    0.207667
    4          6             0       -1.072510    0.294419   -0.632733
    5          8             0       -1.813348   -0.590755    0.187534
    6          1             0        2.537273    0.381351   -0.840515
    7          1             0        2.786823   -1.150832   -0.001079
    8          1             0        1.505152   -1.004308   -1.198192
    9          1             0        0.568862   -0.905156    1.117737
   10          1             0        1.653101    0.434878    1.493652
   11          1             0       -0.464926    1.412632    1.072188
   12          1             0        0.487881    1.740671   -0.384665
   13          1             0       -1.734544    1.072234   -1.038376
   14          1             0       -0.624886   -0.251542   -1.472460
   15          1             0       -2.494235   -1.024651   -0.342250
 --------------------------------------------------------------------
     1 basis functions        1 primitive gaussians
     1 alpha electrons        1 beta electrons
 
 Harmonic frequencies (cm**-1), IR intensities (km*mol⁻¹),
 Raman scattering activities (A**4/amu), Raman depolarization ratios,
 reduced masses (AMU), force constants (mDyne/A) and normal coordinates:
                      1                      2                      3
                        a                      a                      a 
 Frequencies --    61.3224               133.7554               226.5943
 Red. masses --     9.7160                 6.5927                 3.6019
 Frc consts  --     0.0000                 0.0000                 0.0000
 IR Inten    --     1.7789                 5.7853                46.6571
 Raman Activ --     0.0000                 0.0000                 0.0000
 Depolar     --     0.0000                 0.0000                 0.0000
 Atom AN      X      Y      Z        X      Y      Z        X      Y      Z
   1   6     0.37   0.30   0.02    -0.06   0.00  -0.14     0.25   0.01   0.13
   2   6     0.01  -0.20  -0.09     0.26   0.12   0.09    -0.05  -0.14  -0.08
   3   6     0.02  -0.20  -0.09    -0.04  -0.13   0.25     0.04  -0.05  -0.12
   4   6    -0.01  -0.21  -0.04     0.18  -0.17  -0.02    -0.23   0.18   0.04
   5   8    -0.41   0.31   0.20    -0.36   0.17  -0.15     0.05  -0.11  -0.01
   6   1     0.16   0.14   0.18    -0.25   0.01  -0.30    -0.21   0.06  -0.18
   7   1     0.06   0.02  -0.02     0.18   0.23  -0.03     0.30   0.33   0.16
   8   1     0.18   0.21  -0.12    -0.04  -0.26   0.15     0.20  -0.34   0.18
   9   1     0.00  -0.12  -0.14     0.17   0.04   0.14    -0.03  -0.06  -0.08
  10   1    -0.07  -0.11   0.06     0.14   0.13  -0.07    -0.07  -0.05   0.03
  11   1     0.00  -0.05  -0.03    -0.07  -0.14   0.09     0.07   0.04  -0.03
  12   1     0.01  -0.06  -0.03    -0.06   0.04   0.14     0.03  -0.05  -0.07
  13   1     0.07  -0.06  -0.12     0.13  -0.04  -0.13    -0.10   0.10   0.15
  14   1    -0.00  -0.18   0.07     0.12  -0.12   0.08    -0.14   0.13  -0.08
  15   1    -0.11   0.07   0.06    -0.03   0.02  -0.10    -0.26   0.29   0.10
                      4                      5                      6
                        a                      a                      a 
 Frequencies --   252.1874               277.0538               391.6090
 Red. masses --     3.8922                 7.4236                 6.8301
 Frc consts  --     0.0000                 0.0000                 0.0000
 IR Inten    --   125.4973                54.5501                 7.6142
 Raman Activ --     0.0000                 0.0000                 0.0000
 Depolar     --     0.0000                 0.0000                 0.0000
 Atom AN      X      Y      Z        X      Y      Z        X      Y      Z
   1   6    -0.06   0.05  -0.01    -0.32   0.16  -0.08     0.24  -0.23   0.02
   2   6    -0.24  -0.22  -0.06    -0.25  -0.15   0.09    -0.06   0.09  -0.32
   3   6    -0.00   0.05  -0.02    -0.01   0.03   0.03    -0.36   0.05   0.19
   4   6     0.06   0.05  -0.06     0.30  -0.17  -0.16    -0.03   0.03  -0.16
   5   8     0.12   0.24   0.17     0.38   0.07   0.11     0.22   0.14   0.11
   6   1    -0.21   0.08  -0.10    -0.19   0.10  -0.03     0.18  -0.13   0.00
   7   1     0.14   0.21   0.04    -0.01   0.09  -0.09    -0.02  -0.07   0.17
   8   1     0.07  -0.17   0.06    -0.09   0.02  -0.01     0.15  -0.11  -0.02
   9   1    -0.12  -0.09  -0.12    -0.12  -0.06  -0.06    -0.00   0.02  -0.08
  10   1    -0.10  -0.16   0.06    -0.08  -0.13   0.08    -0.03   0.03  -0.08
  11   1    -0.01   0.01  -0.01    -0.08  -0.01  -0.02    -0.20  -0.29   0.17
  12   1     0.04   0.01   0.02     0.04   0.02   0.06    -0.21   0.24   0.28
  13   1     0.00  -0.02  -0.06     0.10  -0.11  -0.16    -0.03  -0.04  -0.10
  14   1     0.04  -0.01   0.02     0.14  -0.13   0.04     0.05  -0.01  -0.00
  15   1     0.49  -0.52  -0.08    -0.27   0.38   0.20    -0.03   0.05   0.12
                      7                      8                      9
                        a                      a                      a 
 Frequencies --   467.6698               787.0306               848.9075
 Red. masses --     8.4593                 3.3789                 6.3622
 Frc consts  --     0.0000                 0.0000                 0.0000
 IR Inten    --     7.9623                 7.0692                 8.0047
 Raman Activ --     0.0000                 0.0000                 0.0000
 Depolar     --     0.0000                 0.0000                 0.0000
 Atom AN      X      Y      Z        X      Y      Z        X      Y      Z
   1   6    -0.07   0.10   0.06     0.01   0.05   0.08     0.24  -0.07  -0.12
   2   6     0.15  -0.07   0.26     0.21   0.18   0.09     0.19  -0.08   0.27
   3   6    -0.07  -0.46  -0.10     0.20   0.08  -0.13    -0.28   0.18   0.19
   4   6    -0.21   0.09  -0.34     0.01  -0.09  -0.13    -0.30   0.08  -0.15
   5   8     0.25   0.25   0.07    -0.13  -0.07   0.06     0.11   0.04  -0.07
   6   1    -0.05   0.06   0.04     0.03  -0.12  -0.21     0.06  -0.09  -0.17
   7   1     0.01  -0.01  -0.11    -0.03  -0.09  -0.09     0.07  -0.10  -0.18
   8   1    -0.10   0.10   0.02    -0.29   0.01   0.22    -0.14   0.00   0.08
   9   1     0.17  -0.02   0.22    -0.16  -0.03  -0.38     0.10  -0.13  -0.09
  10   1     0.03   0.17  -0.03    -0.14  -0.26   0.34    -0.03  -0.12   0.18
  11   1    -0.11  -0.20  -0.04    -0.10  -0.23   0.02     0.03   0.32  -0.04
  12   1     0.02  -0.07   0.08    -0.09   0.23   0.13     0.04  -0.16  -0.14
  13   1    -0.06   0.12   0.08    -0.01   0.04   0.12    -0.10  -0.13  -0.29
  14   1    -0.22   0.08  -0.21    -0.18  -0.01  -0.14     0.16  -0.04   0.12
  15   1     0.05  -0.07   0.14    -0.02  -0.04   0.02    -0.04  -0.06   0.13
                     10                     11                     12
                        a                      a                      a 
 Frequencies --   887.9521               977.7607               997.0297
 Red. masses --     6.3170                 6.1683                 5.4103
 Frc consts  --     0.0000                 0.0000                 0.0000
 IR Inten    --    12.0185                 6.5031                 1.6280
 Raman Activ --     0.0000                 0.0000                 0.0000
 Depolar     --     0.0000                 0.0000                 0.0000
 Atom AN      X      Y      Z        X      Y      Z        X      Y      Z
   1   6    -0.05   0.18  -0.01    -0.21   0.21  -0.02    -0.10   0.11   0.29
   2   6    -0.08   0.18  -0.15     0.02   0.01  -0.08     0.08  -0.08  -0.25
   3   6    -0.18  -0.39   0.09     0.25   0.01   0.21     0.11  -0.16  -0.20
   4   6     0.11  -0.10   0.25    -0.06   0.14  -0.37    -0.18   0.28   0.14
   5   8     0.16   0.20  -0.11    -0.15  -0.20   0.13     0.06  -0.07  -0.01
   6   1     0.20  -0.19  -0.22     0.19  -0.12  -0.06    -0.08   0.01  -0.02
   7   1    -0.20  -0.04   0.21    -0.25   0.06   0.38    -0.02  -0.05  -0.07
   8   1    -0.10  -0.08   0.14     0.10  -0.12   0.01    -0.23   0.08   0.18
   9   1     0.12  -0.13  -0.22     0.16  -0.10  -0.05     0.09  -0.04  -0.03
  10   1    -0.16   0.01   0.08     0.10  -0.04  -0.06    -0.14   0.15  -0.05
  11   1     0.03   0.12  -0.06     0.07   0.08   0.02     0.26  -0.22   0.17
  12   1    -0.04  -0.27  -0.19     0.32  -0.07   0.15    -0.02   0.06   0.06
  13   1     0.11   0.09   0.14    -0.04  -0.02  -0.13    -0.03  -0.12  -0.34
  14   1     0.02   0.07  -0.00    -0.00  -0.04  -0.03     0.23  -0.11   0.29
  15   1     0.06   0.06  -0.07    -0.09  -0.13   0.17     0.03   0.04  -0.07
                     13                     14                     15
                        a                      a                      a 
 Frequencies --  1027.9268              1108.4078              1126.2902
 Red. masses --     7.6416                 4.9302                 8.3689
 Frc consts  --     0.0000                 0.0000                 0.0000
 IR Inten    --   100.1748                 6.7597                50.0753
 Raman Activ --     0.0000                 0.0000                 0.0000
 Depolar     --     0.0000                 0.0000                 0.0000
 Atom AN      X      Y      Z        X      Y      Z        X      Y      Z
   1   6     0.25   0.00  -0.14     0.13  -0.08   0.16     0.19  -0.02  -0.30
   2   6    -0.26  -0.06   0.11    -0.17   0.13  -0.28    -0.36   0.22   0.22
   3   6    -0.13  -0.01  -0.14     0.05  -0.07   0.28     0.33  -0.14   0.05
   4   6     0.33   0.30  -0.06     0.18  -0.04  -0.20    -0.29  -0.11   0.14
   5   8    -0.17  -0.23   0.27    -0.12  -0.04   0.00     0.11   0.07  -0.18
   6   1     0.09  -0.09  -0.18    -0.14   0.06   0.00     0.11  -0.07  -0.13
   7   1     0.03  -0.09  -0.13     0.14  -0.07  -0.26     0.01  -0.02  -0.02
   8   1    -0.12   0.01   0.07    -0.18   0.12   0.09     0.07  -0.04  -0.07
   9   1     0.14  -0.10   0.10    -0.10   0.10  -0.00    -0.23   0.16   0.11
  10   1    -0.24   0.25  -0.01    -0.15   0.15  -0.06    -0.18   0.13   0.08
  11   1    -0.20   0.00  -0.13     0.22   0.11   0.11     0.10  -0.13   0.07
  12   1     0.24  -0.02   0.16     0.02  -0.13  -0.08     0.17   0.02   0.17
  13   1     0.02   0.03   0.02     0.09   0.10   0.10     0.04  -0.00  -0.11
  14   1     0.02   0.01   0.01     0.09   0.17  -0.14    -0.06  -0.15   0.12
  15   1     0.06   0.11  -0.20    -0.16  -0.25   0.37    -0.03  -0.06   0.10
                     16                     17                     18
                        a                      a                      a 
 Frequencies --  1132.7427              1192.0794              1216.8987
 Red. masses --     7.3207                 4.7618                 2.7391
 Frc consts  --     0.0000                 0.0000                 0.0000
 IR Inten    --    19.1345                55.1317                39.7339
 Raman Activ --     0.0000                 0.0000                 0.0000
 Depolar     --     0.0000                 0.0000                 0.0000
 Atom AN      X      Y      Z        X      Y      Z        X      Y      Z
   1   6    -0.07  -0.12  -0.14     0.01   0.16  -0.13    -0.01  -0.04   0.10
   2   6     0.10   0.27   0.16    -0.03  -0.29   0.23     0.03  -0.03  -0.11
   3   6    -0.08  -0.36  -0.05    -0.02   0.11  -0.28    -0.03   0.09  -0.04
   4   6     0.12   0.42  -0.10     0.15   0.04   0.14    -0.03   0.12   0.23
   5   8    -0.07  -0.19   0.16    -0.08   0.02  -0.12     0.06  -0.07  -0.17
   6   1    -0.03   0.06   0.12     0.16  -0.10  -0.12    -0.06   0.03   0.03
   7   1     0.03   0.07   0.04    -0.12  -0.02   0.13     0.03  -0.00  -0.03
   8   1     0.19  -0.04  -0.17     0.02  -0.09   0.04    -0.04   0.04   0.02
   9   1    -0.25   0.15  -0.12     0.05  -0.05   0.16     0.14  -0.09  -0.05
  10   1     0.03  -0.15   0.17    -0.02   0.07  -0.02     0.06  -0.02  -0.06
  11   1     0.00  -0.04  -0.03     0.05  -0.14   0.05    -0.35   0.05  -0.21
  12   1    -0.22  -0.09  -0.17    -0.30   0.17  -0.10     0.09   0.03   0.07
  13   1     0.17   0.13  -0.16     0.03   0.02   0.06     0.43   0.32  -0.10
  14   1     0.16  -0.00   0.13     0.25   0.23   0.00    -0.26  -0.32   0.16
  15   1    -0.03  -0.04   0.05    -0.18  -0.26   0.40    -0.11  -0.21   0.28
                     19                     20                     21
                        a                      a                      a 
 Frequencies --  1243.4081              1283.0554              1337.7094
 Red. masses --     3.3850                 2.2775                 3.8119
 Frc consts  --     0.0000                 0.0000                 0.0000
 IR Inten    --    15.1543                 7.6757                11.8915
 Raman Activ --     0.0000                 0.0000                 0.0000
 Depolar     --     0.0000                 0.0000                 0.0000
 Atom AN      X      Y      Z        X      Y      Z        X      Y      Z
   1   6     0.17   0.23   0.03     0.08   0.10   0.10    -0.02   0.01  -0.07
   2   6    -0.12  -0.22  -0.03     0.01   0.04  -0.11     0.20  -0.18  -0.13
   3   6     0.01   0.01   0.14    -0.04  -0.17  -0.09     0.22  -0.05   0.25
   4   6    -0.02   0.06  -0.16    -0.02   0.03   0.16     0.11   0.15   0.04
   5   8     0.04  -0.07   0.09    -0.03   0.05  -0.05    -0.01   0.03  -0.08
   6   1     0.12  -0.10  -0.21     0.01  -0.03  -0.09    -0.02   0.05   0.07
   7   1    -0.08  -0.08   0.01    -0.00  -0.04  -0.05    -0.07   0.02   0.12
   8   1    -0.17  -0.00   0.19    -0.10   0.03   0.10    -0.05  -0.01   0.03
   9   1    -0.30   0.22   0.25    -0.29   0.22   0.05    -0.19   0.14   0.05
  10   1     0.28  -0.12  -0.19     0.36  -0.25  -0.13    -0.34   0.27   0.06
  11   1     0.08   0.04   0.06    -0.34  -0.02  -0.22    -0.35   0.09  -0.22
  12   1    -0.28  -0.00  -0.19     0.31  -0.10   0.17    -0.20  -0.02  -0.15
  13   1     0.17   0.15  -0.07    -0.19  -0.17   0.02    -0.32  -0.28  -0.03
  14   1    -0.22  -0.21  -0.01     0.28   0.22   0.05    -0.16  -0.13   0.02
  15   1     0.08   0.10  -0.16    -0.05  -0.05   0.10    -0.03  -0.04   0.06
                     22                     23                     24
                        a                      a                      a 
 Frequencies --  1353.2175              1364.0057              1410.0906
 Red. masses --     4.9163                 4.5908                 3.2512
 Frc consts  --     0.0000                 0.0000                 0.0000
 IR Inten    --     4.7465                 9.6791                 0.9246
 Raman Activ --     0.0000                 0.0000                 0.0000
 Depolar     --     0.0000                 0.0000                 0.0000
 Atom AN      X      Y      Z        X      Y      Z        X      Y      Z
   1   6    -0.06   0.06  -0.09    -0.00   0.00   0.00    -0.29   0.14   0.29
   2   6     0.40  -0.22  -0.06     0.03   0.05   0.06     0.09  -0.07  -0.02
   3   6    -0.31   0.09  -0.09    -0.31  -0.02  -0.12     0.01   0.02   0.04
   4   6    -0.05  -0.13  -0.00     0.35   0.18   0.11    -0.01   0.00  -0.02
   5   8     0.01  -0.01   0.03    -0.01   0.04  -0.15     0.00   0.00  -0.01
   6   1     0.03   0.03   0.07     0.03  -0.02  -0.02     0.27  -0.32  -0.29
   7   1    -0.08   0.04   0.14     0.02   0.02  -0.00     0.20  -0.02  -0.45
   8   1    -0.03  -0.05   0.04     0.01   0.01  -0.01     0.43  -0.08  -0.23
   9   1    -0.36   0.26   0.08    -0.06   0.04  -0.01    -0.11   0.04  -0.04
  10   1    -0.28   0.18   0.12     0.11  -0.11   0.01    -0.07   0.12  -0.02
  11   1     0.15   0.07   0.08     0.31  -0.05   0.20    -0.06  -0.01  -0.01
  12   1     0.31  -0.04   0.20     0.18  -0.09   0.07     0.01  -0.03  -0.03
  13   1     0.24   0.21   0.04    -0.28  -0.25   0.06    -0.01   0.02   0.05
  14   1     0.05   0.05  -0.02    -0.41  -0.33   0.00     0.00  -0.04   0.03
  15   1     0.02   0.02  -0.03    -0.07  -0.11   0.16     0.00   0.00  -0.00
                     25                     26                     27
                        a                      a                      a 
 Frequencies --  1460.6169              1478.4807              1488.6929
 Red. masses --     1.9589                 1.8031                 1.8949
 Frc consts  --     0.0000                 0.0000                 0.0000
 IR Inten    --     0.3420                 3.9825                 0.2584
 Raman Activ --     0.0000                 0.0000                 0.0000
 Depolar     --     0.0000                 0.0000                 0.0000
 Atom AN      X      Y      Z        X      Y      Z        X      Y      Z
   1   6    -0.01  -0.01  -0.04     0.04   0.04   0.00    -0.04  -0.01   0.04
   2   6     0.00   0.02  -0.02     0.01   0.03  -0.10    -0.00   0.06  -0.25
   3   6     0.00   0.28   0.06     0.00   0.04  -0.01     0.00  -0.04  -0.02
   4   6    -0.01  -0.00   0.03    -0.06   0.03  -0.22     0.03  -0.00   0.08
   5   8    -0.00  -0.01   0.02     0.02   0.03  -0.04    -0.01  -0.01   0.01
   6   1     0.05   0.00   0.07    -0.11   0.06  -0.01     0.03  -0.07  -0.10
   7   1     0.04   0.05   0.01    -0.11  -0.13  -0.02     0.04   0.06   0.00
   8   1    -0.04  -0.02   0.03     0.05  -0.07   0.01     0.04   0.09  -0.09
   9   1     0.02   0.02   0.06     0.11   0.04   0.21     0.24   0.14   0.57
  10   1    -0.04  -0.04   0.06    -0.09  -0.16   0.16    -0.21  -0.42   0.39
  11   1    -0.21  -0.59   0.21    -0.04  -0.07   0.02     0.01   0.08  -0.04
  12   1     0.23  -0.44  -0.43     0.02  -0.05  -0.06    -0.04   0.06   0.06
  13   1     0.05   0.00  -0.10    -0.16   0.16   0.57     0.05  -0.06  -0.20
  14   1    -0.03   0.07  -0.06     0.29  -0.36   0.40    -0.10   0.13  -0.14
  15   1     0.00   0.01  -0.01    -0.01  -0.01   0.01    -0.00   0.00   0.00
                     28                     29                     30
                        a                      a                      a 
 Frequencies --  1499.5914              1505.1554              2860.3759
 Red. masses --     1.5999                 1.5646                 1.9277
 Frc consts  --     0.0000                 0.0000                 0.0000
 IR Inten    --     1.1188                 1.3956               127.6573
 Raman Activ --     0.0000                 0.0000                 0.0000
 Depolar     --     0.0000                 0.0000                 0.0000
 Atom AN      X      Y      Z        X      Y      Z        X      Y      Z
   1   6     0.14  -0.04   0.15     0.06   0.20  -0.01    -0.00  -0.00  -0.00
   2   6     0.06  -0.03   0.05     0.01   0.05  -0.02    -0.00  -0.00  -0.00
   3   6    -0.02   0.04  -0.00    -0.01  -0.01   0.00    -0.01  -0.00  -0.00
   4   6     0.00  -0.01   0.02     0.02  -0.00   0.06    -0.19   0.22   0.01
   5   8    -0.00  -0.00   0.01    -0.00  -0.01   0.00    -0.00   0.01  -0.00
   6   1    -0.49   0.03  -0.50    -0.20   0.21   0.15     0.00   0.00  -0.00
   7   1    -0.29  -0.20   0.22    -0.31  -0.50  -0.27    -0.00   0.00  -0.00
   8   1     0.19   0.33  -0.33     0.27  -0.51   0.17     0.00   0.00   0.00
   9   1    -0.05  -0.00  -0.05     0.04   0.00   0.02     0.00   0.00  -0.00
  10   1    -0.01   0.07  -0.02    -0.02  -0.03   0.04     0.00   0.00   0.01
  11   1    -0.01  -0.06   0.03     0.01   0.00   0.00    -0.01   0.01   0.03
  12   1     0.03  -0.05  -0.05     0.02  -0.00   0.01     0.01   0.01  -0.01
  13   1     0.02  -0.01  -0.05     0.04  -0.04  -0.15     0.52  -0.60   0.32
  14   1    -0.02   0.04  -0.04    -0.10   0.08  -0.11     0.16  -0.20  -0.35
  15   1     0.00   0.00  -0.00    -0.00  -0.00   0.00     0.01  -0.00  -0.00
                     31                     32                     33
                        a                      a                      a 
 Frequencies --  2903.5981              2969.1539              2978.5977
 Red. masses --     1.4692                 1.8713                 1.9245
 Frc consts  --     0.0000                 0.0000                 0.0000
 IR Inten    --    82.9172                57.2189                44.9067
 Raman Activ --     0.0000                 0.0000                 0.0000
 Depolar     --     0.0000                 0.0000                 0.0000
 Atom AN      X      Y      Z        X      Y      Z        X      Y      Z
   1   6    -0.00  -0.00  -0.00     0.02   0.01   0.01    -0.00  -0.00  -0.01
   2   6     0.00   0.00   0.00    -0.17  -0.18  -0.13     0.02   0.04  -0.04
   3   6     0.01   0.00  -0.01    -0.01   0.04   0.02    -0.15  -0.08   0.22
   4   6    -0.01   0.04   0.20     0.00   0.00   0.00    -0.00   0.00   0.02
   5   8    -0.01  -0.01   0.02    -0.00   0.00   0.00    -0.00  -0.00  -0.00
   6   1    -0.00  -0.00   0.00    -0.02  -0.04   0.02     0.00   0.00  -0.00
   7   1     0.00   0.00  -0.00    -0.02   0.02  -0.01    -0.00  -0.00   0.00
   8   1     0.01   0.01   0.01    -0.03  -0.03  -0.05     0.01   0.01   0.01
   9   1     0.00   0.01  -0.00     0.14   0.26  -0.15    -0.13  -0.23   0.10
  10   1    -0.00  -0.00  -0.00     0.46   0.38   0.64     0.06   0.05   0.07
  11   1    -0.02   0.02   0.03     0.08  -0.06  -0.14     0.24  -0.25  -0.43
  12   1    -0.02  -0.03   0.02    -0.06  -0.09   0.07     0.31   0.53  -0.38
  13   1    -0.28   0.34  -0.12    -0.00   0.00  -0.00    -0.01   0.02  -0.01
  14   1     0.37  -0.45  -0.63     0.00  -0.00  -0.00     0.02  -0.03  -0.03
  15   1     0.00  -0.00  -0.00     0.00   0.00  -0.00     0.00   0.00   0.00
                     34                     35                     36
                        a                      a                      a 
 Frequencies --  2989.6068              2992.4071              3025.3096
 Red. masses --     1.5249                 1.6128                 1.8732
 Frc consts  --     0.0000                 0.0000                 0.0000
 IR Inten    --    83.7972                74.3860                91.6156
 Raman Activ --     0.0000                 0.0000                 0.0000
 Depolar     --     0.0000                 0.0000                 0.0000
 Atom AN      X      Y      Z        X      Y      Z        X      Y      Z
   1   6     0.01   0.01   0.00    -0.01   0.03  -0.02     0.09   0.25  -0.08
   2   6    -0.04  -0.06  -0.01    -0.06  -0.13   0.15     0.02   0.04  -0.01
   3   6     0.01  -0.19  -0.07    -0.05  -0.01   0.08     0.00   0.00  -0.01
   4   6     0.01  -0.01  -0.00    -0.00   0.00   0.00    -0.00   0.00  -0.00
   5   8     0.00   0.00   0.00    -0.00  -0.00  -0.00     0.00  -0.00   0.00
   6   1    -0.02  -0.03   0.01    -0.05  -0.08   0.04    -0.42  -0.73   0.36
   7   1    -0.00   0.01  -0.00     0.06  -0.05   0.03     0.16  -0.09   0.07
   8   1    -0.01  -0.01  -0.01     0.00   0.01   0.00    -0.07  -0.04  -0.13
   9   1     0.07   0.12  -0.06     0.40   0.67  -0.30    -0.06  -0.10   0.04
  10   1     0.08   0.06   0.11    -0.20  -0.18  -0.24    -0.01  -0.00  -0.01
  11   1    -0.33   0.28   0.59     0.11  -0.11  -0.20    -0.00   0.01   0.01
  12   1     0.27   0.41  -0.35     0.07   0.12  -0.09    -0.01  -0.02   0.02
  13   1    -0.02   0.02  -0.01    -0.00   0.00   0.00     0.00  -0.00   0.00
  14   1    -0.01   0.01   0.01     0.01  -0.01  -0.01     0.00   0.00  -0.00
  15   1    -0.00  -0.00  -0.00     0.00   0.00   0.00    -0.00   0.00   0.00
                     37                     38                     39
                        a                      a                      a 
 Frequencies --  3031.9278              3042.8804              3518.5926
 Red. masses --     1.9351                 1.3331                 1.8791
 Frc consts  --     0.0000                 0.0000                 0.0000
 IR Inten    --    84.3903                45.9637                71.8587
 Raman Activ --     0.0000                 0.0000                 0.0000
 Depolar     --     0.0000                 0.0000                 0.0000
 Atom AN      X      Y      Z        X      Y      Z        X      Y      Z
   1   6    -0.22   0.03  -0.18    -0.04   0.13   0.11     0.00  -0.00   0.00
   2   6    -0.01  -0.00  -0.02     0.00   0.01   0.00     0.00   0.00  -0.00
   3   6     0.00  -0.00  -0.01    -0.00  -0.00   0.00     0.00  -0.00  -0.00
   4   6     0.00  -0.00  -0.00    -0.00   0.00   0.00    -0.00  -0.00  -0.00
   5   8     0.00   0.00   0.00    -0.00  -0.00   0.00    -0.17  -0.11  -0.13
   6   1    -0.00   0.06  -0.05     0.12   0.23  -0.09     0.00   0.00   0.00
   7   1     0.50  -0.47   0.27     0.40  -0.35   0.24    -0.00   0.00   0.00
   8   1     0.29   0.31   0.42    -0.39  -0.34  -0.53    -0.00  -0.00  -0.00
   9   1    -0.01  -0.02   0.01    -0.01  -0.02   0.01    -0.00  -0.00   0.00
  10   1     0.05   0.04   0.06    -0.01  -0.00  -0.01     0.00   0.00   0.00
  11   1    -0.01   0.01   0.02    -0.00   0.00   0.00    -0.00   0.00   0.01
  12   1    -0.01  -0.01   0.01     0.00   0.00  -0.00     0.00   0.00  -0.00
  13   1     0.00  -0.00   0.00    -0.00   0.00  -0.00    -0.00   0.00   0.00
  14   1    -0.00   0.01   0.01     0.00  -0.01  -0.01     0.00  -0.00   0.00
  15   1    -0.00  -0.00  -0.00    -0.00  -0.00  -0.00     0.69   0.44   0.53
