      -----------------------------------------------------------      
     |                   =====================                   |     
     |                           x T B                           |     
     |                   =====================                   |     
     |                         S. Grimme                         |     
     |          Mulliken Center for Theoretical Chemistry        |     
     |                    University of Bonn                     |     
      -----------------------------------------------------------      

   * xtb version 6.7.1 (edcfbbe) compiled by 'albert@albert-system' on 2024-07-22

   xtb is free software: you can redistribute it and/or modify it under
   the terms of the GNU Lesser General Public License as published by
   the Free Software Foundation, either version 3 of the License, or
   (at your option) any later version.
   
   xtb is distributed in the hope that it will be useful,
   but WITHOUT ANY WARRANTY; without even the implied warranty of
   MERCHANTABILITY or FITNESS FOR A PARTICULAR PURPOSE.  See the
   GNU Lesser General Public License for more details.
   
   Cite this work as:
   * C. Bannwarth, E. Caldeweyher, S. Ehlert, A. Hansen, P. Pracht,
     J. Seibert, S. Spicher, S. Grimme, WIREs Comput. Mol. Sci., 2020, 11,
     e01493. DOI: 10.1002/wcms.1493
   
   for GFN2-xTB:
   * C. Bannwarth, S. Ehlert and S. Grimme., J. Chem. Theory Comput., 2019,
     15, 1652-1671. DOI: 10.1021/acs.jctc.8b01176
   for GFN1-xTB:
   * S. Grimme, C. Bannwarth, P. Shushkov, J. Chem. Theory Comput., 2017,
     13, 1989-2009. DOI: 10.1021/acs.jctc.7b00118
   for GFN0-xTB:
   * P. Pracht, E. Caldeweyher, S. Ehlert, S. Grimme, ChemRxiv, 2019, preprint.
     DOI: 10.26434/chemrxiv.8326202.v1
   for GFN-FF:
   * S. Spicher and S. Grimme, Angew. Chem. Int. Ed., 2020, 59, 15665-15673.
     DOI: 10.1002/anie.202004239
   
   for ALPB and GBSA implicit solvation:
   * S. Ehlert, M. Stahn, S. Spicher, S. Grimme, J. Chem. Theory Comput.,
     2021, 17, 4250-4261. DOI: 10.1021/acs.jctc.1c00471
   
   for ddCOSMO and CPCM-X implicit solvation:
   * M. Stahn, S. Ehlert, S. Grimme, J. Phys. Chem. A,
     2023, XX, XXXX-XXXX. DOI: 10.1021/acs.jpca.3c04382
   
   for DFT-D4:
   * E. Caldeweyher, C. Bannwarth and S. Grimme, J. Chem. Phys., 2017,
     147, 034112. DOI: 10.1063/1.4993215
   * E. Caldeweyher, S. Ehlert, A. Hansen, H. Neugebauer, S. Spicher,
     C. Bannwarth and S. Grimme, J. Chem. Phys., 2019, 150, 154122.
     DOI: 10.1063/1.5090222
   * E. Caldeweyher, J.-M. Mewes, S. Ehlert and S. Grimme, Phys. Chem. Chem. Phys.
     2020, 22, 8499-8512. DOI: 10.1039/D0CP00502A
   
   for sTDA-xTB:
   * S. Grimme and C. Bannwarth, J. Chem. Phys., 2016, 145, 054103.
     DOI: 10.1063/1.4959605
   
   in the mass-spec context:
   * V. Asgeirsson, C. Bauer and S. Grimme, Chem. Sci., 2017, 8, 4879.
     DOI: 10.1039/c7sc00601b
   * J. Koopman and S. Grimme, ACS Omega 2019, 4, 12, 15120-15133.
     DOI: 10.1021/acsomega.9b02011
   
   for metadynamics refer to:
   * S. Grimme, J. Chem. Theory Comput., 2019, 155, 2847-2862
     DOI: 10.1021/acs.jctc.9b00143
   
   for SPH calculations refer to:
   * S. Spicher and S. Grimme, J. Chem. Theory Comput., 2021, 17, 1701-1714
     DOI: 10.1021/acs.jctc.0c01306
   
   for ONIOM refer to:
   * C. Plett, A. Katbashev, S. Ehlert, S. Grimme, M. Bursch,
     Phys. Chem. Chem. Phys., 2023, 25, 17860-17868. DOI: 10.1039/D3CP02178E
   
   for DIPRO refer to:
   * J. Kohn, N. Gildemeister, S. Grimme, D. Fazzi, A. Hansen,
     J. Chem. Phys., 2023, just accepted.
   
   for PTB refer to:
   * S. Grimme, M. Mueller, A. Hansen, J. Chem. Phys., 2023, 158, 124111.
     DOI: 10.1063/5.0137838
   
   with help from (in alphabetical order)
   P. Atkinson, C. Bannwarth, F. Bohle, G. Brandenburg, E. Caldeweyher
   M. Checinski, S. Dohm, S. Ehlert, S. Ehrlich, I. Gerasimov, C. Hölzer
   A. Katbashev, J. Kohn, J. Koopman, C. Lavigne, S. Lehtola, F. März, M. Müller,
   F. Musil, H. Neugebauer, J. Pisarek, C. Plett, P. Pracht, F. Pultar,
   J. Seibert, P. Shushkov, S. Spicher, M. Stahn, M. Steiner, T. Strunk,
   J. Stückrath, T. Rose, and J. Unsleber
   
 * started run on 2025/04/06 at 22:38:50.624     
   ID    Z sym.   atoms
    1    6 C      1-4
    2    8 O      5
    3    1 H      6-15

           -------------------------------------------------
          |                Calculation Setup                |
           -------------------------------------------------

          program call               : /srv/scratch/z5358697/.xtb/bin/xtb xtb_rrho.coord --gfn2 --ohess vtight --chrg 0 --enso --norestart -I rrho-xcontrol-inp --parallel 1 --alpb water
          hostname                   : k159
          coordinate file            : xtb_rrho.coord
          omp threads                :                     1


           -------------------------------------------------
          |                 G F N 2 - x T B                 |
           -------------------------------------------------

        Reference                      10.1021/acs.jctc.8b01176
      * Hamiltonian:
        H0-scaling (s, p, d)           1.850000    2.230000    2.230000
        zeta-weighting                 0.500000
      * Dispersion:
        s8                             2.700000
        a1                             0.520000
        a2                             5.000000
        s9                             5.000000
      * Repulsion:
        kExp                           1.500000    1.000000
        rExp                           1.000000
      * Coulomb:
        alpha                          2.000000
        third order                    shell-resolved
        anisotropic                    true
        a3                             3.000000
        a5                             4.000000
        cn-shift                       1.200000
        cn-exp                         4.000000
        max-rad                        5.000000

      * Solvation model:               ALPB
        Solvent                        water
        Parameter file                 internal GFN2-xTB/ALPB
        Dielectric constant                8.0200E+01
        Reference state                gsolv [1 M gas/solution]
        Free energy shift                  1.0808E-03 Eh       6.7819E-01 kcal/mol
        Temperature                        2.9815E+02 K
        Density                            1.0000E+00 kg/L
        Solvent mass                       1.8000E+01 g/mol
        Interaction kernel             P16
        Born radius scaling (c1)           1.4744E+00
        Born radii integrator          GBOBC
        Born offset                        0.0000E+00 a0       0.0000E+00 AA
        H-bond correction              true
        Ion screening                  false
        Surface tension                    1.0000E-05 Eh       1.5569E+01 dyn/cm
        Grid points                               974 per atom

          ...................................................
          :                      SETUP                      :
          :.................................................:
          :  # basis functions                  30          :
          :  # atomic orbitals                  30          :
          :  # shells                           20          :
          :  # electrons                        32          :
          :  max. iterations                   250          :
          :  Hamiltonian                  GFN2-xTB          :
          :  restarted?                      false          :
          :  GBSA solvation                   true          :
          :  PC potential                    false          :
          :  electronic temp.          300.0000000     K    :
          :  accuracy                    1.0000000          :
          :  -> integral cutoff          0.2500000E+02      :
          :  -> integral neglect         0.1000000E-07      :
          :  -> SCF convergence          0.1000000E-05 Eh   :
          :  -> wf. convergence          0.1000000E-03 e    :
          :  Broyden damping             0.4000000          :
          :  net charge                          0          :
          :  unpaired electrons                  0          :
          ...................................................

 iter      E             dE          RMSdq      gap      omega  full diag
   1    -17.9054172 -0.179054E+02  0.318E+00   12.14       0.0  T
   2    -17.9313502 -0.259330E-01  0.163E+00   11.84       1.0  T
   3    -17.9321474 -0.797172E-03  0.610E-01   11.84       1.0  T
   4    -17.9323056 -0.158215E-03  0.118E-01   11.83       1.0  T
   5    -17.9323257 -0.201257E-04  0.645E-02   11.84       1.0  T
   6    -17.9323286 -0.288266E-05  0.131E-02   11.85       2.0  T
   7    -17.9323289 -0.282447E-06  0.579E-03   11.85       4.5  T
   8    -17.9323289 -0.625803E-07  0.227E-03   11.85      11.4  T
   9    -17.9323289 -0.622047E-08  0.736E-04   11.85      35.1  T
  10    -17.9323289 -0.129314E-08  0.169E-04   11.85     153.1  T

   *** convergence criteria satisfied after 10 iterations ***

         #    Occupation            Energy/Eh            Energy/eV
      -------------------------------------------------------------
         1        2.0000           -0.6816039             -18.5474
       ...           ...                  ...                  ...
        10        2.0000           -0.4833086             -13.1515
        11        2.0000           -0.4657454             -12.6736
        12        2.0000           -0.4569781             -12.4350
        13        2.0000           -0.4374172             -11.9027
        14        2.0000           -0.4281097             -11.6495
        15        2.0000           -0.4210781             -11.4581
        16        2.0000           -0.4068653             -11.0714 (HOMO)
        17                          0.0285476               0.7768 (LUMO)
        18                          0.0938332               2.5533
        19                          0.1041223               2.8333
        20                          0.1241165               3.3774
        21                          0.1300341               3.5384
       ...                                ...                  ...
        30                          0.2897741               7.8852
      -------------------------------------------------------------
                  HL-Gap            0.4354129 Eh           11.8482 eV
             Fermi-level           -0.1891589 Eh           -5.1473 eV

 SCC (total)                   0 d,  0 h,  0 min,  0.020 sec
 SCC setup                      ...        0 min,  0.001 sec (  3.448%)
 Dispersion                     ...        0 min,  0.000 sec (  0.273%)
 classical contributions        ...        0 min,  0.000 sec (  0.060%)
 integral evaluation            ...        0 min,  0.001 sec (  3.538%)
 iterations                     ...        0 min,  0.017 sec ( 82.023%)
 molecular gradient             ...        0 min,  0.002 sec ( 10.109%)
 printout                       ...        0 min,  0.000 sec (  0.485%)

         :::::::::::::::::::::::::::::::::::::::::::::::::::::
         ::                     SUMMARY                     ::
         :::::::::::::::::::::::::::::::::::::::::::::::::::::
         :: total energy             -17.725345805323 Eh    ::
         :: total w/o Gsasa/hb       -17.720555090451 Eh    ::
         :: gradient norm              0.027948971818 Eh/a0 ::
         :: HOMO-LUMO gap             11.848188318724 eV    ::
         ::.................................................::
         :: SCC energy               -17.932314685011 Eh    ::
         :: -> isotropic ES            0.036544533313 Eh    ::
         :: -> anisotropic ES          0.004702721591 Eh    ::
         :: -> anisotropic XC          0.006413086587 Eh    ::
         :: -> dispersion             -0.007342590051 Eh    ::
         :: -> Gsolv                  -0.009641049869 Eh    ::
         ::    -> Gelec               -0.004850334997 Eh    ::
         ::    -> Gsasa                0.000363937648 Eh    ::
         ::    -> Ghb                 -0.006235412218 Eh    ::
         ::    -> Gshift               0.001080759698 Eh    ::
         :: repulsion energy           0.206968879688 Eh    ::
         :: add. restraining           0.000000000000 Eh    ::
         :: total charge               0.000000000000 e     ::
         :::::::::::::::::::::::::::::::::::::::::::::::::::::

      ----------------------------------------------------------- 
     |                   =====================                   |
     |                        A N C O P T                        |
     |                   =====================                   |
     |               Approximate Normal Coordinate               |
     |                Rational Function Optimizer                |
      ----------------------------------------------------------- 
      ----------------------------------------------------------- 
     |                   =====================                   |
     |                        A N C O P T                        |
     |                   =====================                   |
     |               Approximate Normal Coordinate               |
     |                Rational Function Optimizer                |
      ----------------------------------------------------------- 

          ...................................................
          :                      SETUP                      :
          :.................................................:
          :   optimization level         verytight          :
          :   max. optcycles                   300          :
          :   ANC micro-cycles                  20          :
          :   degrees of freedom                39          :
          :.................................................:
          :   RF solver                   davidson          :
          :   write xtbopt.log                true          :
          :   linear?                        false          :
          :   energy convergence         0.1000000E-06 Eh   :
          :   grad. convergence          0.2000000E-03 Eh/α :
          :   maxmium RF displ.          1.0000000          :
          :   Hlow (freq-cutoff)         0.1000000E-01      :
          :   Hmax (freq-cutoff)         5.0000000          :
          :   S6 in model hess.         20.0000000          :
          ...................................................

generating ANC from exact Hessian ...
Using Lindh-Hessian (1995)
 Shifting diagonal of input Hessian by   7.264482951209980E-003
 Lowest  eigenvalues of input Hessian
    0.000000    0.000000    0.000000    0.000000    0.000000    0.000000
    0.010000    0.012950    0.013848    0.019691    0.024616    0.033981
    0.044323    0.048616    0.057749    0.059351    0.060900    0.063286
 Highest eigenvalues
    1.128389    1.177133    1.195072    1.249383    1.288858    1.416969
 

........................................................................
.............................. CYCLE    1 ..............................
........................................................................

 iter      E             dE          RMSdq      gap      omega  full diag
   1    -17.9323289 -0.179323E+02  0.341E-05   11.85       0.0  T
   2    -17.9323289 -0.718359E-11  0.139E-05   11.85    1852.8  T
   3    -17.9323289 -0.287770E-12  0.869E-06   11.85    2971.7  T
     SCC iter.                  ...        0 min,  0.001 sec
     gradient                   ...        0 min,  0.002 sec
 * total energy  :   -17.7253458 Eh     change       -0.4945377E-10 Eh
   gradient norm :     0.0279490 Eh/α   predicted     0.0000000E+00 (-100.00%)
   displ. norm   :     0.1121854 α      lambda       -0.1374815E-02
   maximum displ.:     0.0563460 α      in ANC's #10, #15, #1, ...

........................................................................
.............................. CYCLE    2 ..............................
........................................................................

 iter      E             dE          RMSdq      gap      omega  full diag
   1    -17.9382634 -0.179383E+02  0.120E-01   12.12       0.0  T
   2    -17.9382698 -0.637136E-05  0.692E-02   12.12       1.0  T
   3    -17.9382703 -0.482376E-06  0.113E-02   12.12       2.3  T
   4    -17.9382706 -0.318219E-06  0.311E-03   12.12       8.3  T
   5    -17.9382706 -0.165966E-07  0.172E-03   12.12      15.0  T
   6    -17.9382706 -0.431081E-08  0.599E-04   12.12      43.1  T
   7    -17.9382706 -0.676824E-09  0.184E-04   12.12     140.5  T
     SCC iter.                  ...        0 min,  0.001 sec
     gradient                   ...        0 min,  0.002 sec
 * total energy  :   -17.7262246 Eh     change       -0.8788167E-03 Eh
   gradient norm :     0.0127739 Eh/α   predicted    -0.6960570E-03 ( -20.80%)
   displ. norm   :     0.0892719 α      lambda       -0.3273698E-03
   maximum displ.:     0.0603982 α      in ANC's #1, #4, #2, ...

........................................................................
.............................. CYCLE    3 ..............................
........................................................................

 iter      E             dE          RMSdq      gap      omega  full diag
   1    -17.9408466 -0.179408E+02  0.541E-02   12.35       0.0  T
   2    -17.9408496 -0.305507E-05  0.312E-02   12.35       1.0  T
   3    -17.9408498 -0.196752E-06  0.863E-03   12.35       3.0  T
   4    -17.9408499 -0.119793E-06  0.201E-03   12.35      12.9  T
   5    -17.9408499 -0.873721E-08  0.993E-04   12.35      26.0  T
   6    -17.9408499 -0.142214E-08  0.435E-04   12.35      59.3  T
     SCC iter.                  ...        0 min,  0.001 sec
     gradient                   ...        0 min,  0.003 sec
 * total energy  :   -17.7264285 Eh     change       -0.2038647E-03 Eh
   gradient norm :     0.0036154 Eh/α   predicted    -0.1649880E-03 ( -19.07%)
   displ. norm   :     0.0825887 α      lambda       -0.8428341E-04
   maximum displ.:     0.0678141 α      in ANC's #1, #4, #2, ...

........................................................................
.............................. CYCLE    4 ..............................
........................................................................

 iter      E             dE          RMSdq      gap      omega  full diag
   1    -17.9408698 -0.179409E+02  0.346E-02   12.44       0.0  T
   2    -17.9408703 -0.406606E-06  0.206E-02   12.44       1.3  T
   3    -17.9408703 -0.243163E-07  0.305E-03   12.44       8.5  T
   4    -17.9408703 -0.325772E-07  0.880E-04   12.44      29.3  T
   5    -17.9408703 -0.139973E-08  0.369E-04   12.44      69.9  T
     SCC iter.                  ...        0 min,  0.001 sec
     gradient                   ...        0 min,  0.002 sec
 * total energy  :   -17.7264900 Eh     change       -0.6153543E-04 Eh
   gradient norm :     0.0021016 Eh/α   predicted    -0.4242808E-04 ( -31.05%)
   displ. norm   :     0.0886342 α      lambda       -0.5214279E-04
   maximum displ.:     0.0768842 α      in ANC's #1, #4, #2, ...

........................................................................
.............................. CYCLE    5 ..............................
........................................................................

 iter      E             dE          RMSdq      gap      omega  full diag
   1    -17.9403263 -0.179403E+02  0.359E-02   12.47       0.0  T
   2    -17.9403264 -0.108593E-06  0.215E-02   12.47       1.2  T
   3    -17.9403264 -0.260888E-07  0.145E-03   12.47      17.8  T
   4    -17.9403264 -0.651762E-08  0.731E-04   12.47      35.3  T
   5    -17.9403264 -0.453099E-09  0.228E-04   12.47     113.2  T
     SCC iter.                  ...        0 min,  0.001 sec
     gradient                   ...        0 min,  0.002 sec
 * total energy  :   -17.7265308 Eh     change       -0.4075846E-04 Eh
   gradient norm :     0.0024650 Eh/α   predicted    -0.2627461E-04 ( -35.54%)
   displ. norm   :     0.0721121 α      lambda       -0.3290034E-04
   maximum displ.:     0.0646591 α      in ANC's #1, #2, #4, ...

........................................................................
.............................. CYCLE    6 ..............................
........................................................................

 iter      E             dE          RMSdq      gap      omega  full diag
   1    -17.9399991 -0.179400E+02  0.291E-02   12.47       0.0  T
   2    -17.9399992 -0.530410E-07  0.175E-02   12.47       1.5  T
   3    -17.9399992 -0.186469E-07  0.927E-04   12.47      27.9  T
   4    -17.9399992 -0.915211E-09  0.531E-04   12.47      48.6  T
     SCC iter.                  ...        0 min,  0.001 sec
     gradient                   ...        0 min,  0.002 sec
 * total energy  :   -17.7265596 Eh     change       -0.2882353E-04 Eh
   gradient norm :     0.0020701 Eh/α   predicted    -0.1653752E-04 ( -42.62%)
   displ. norm   :     0.0633165 α      lambda       -0.2876566E-04
   maximum displ.:     0.0578160 α      in ANC's #1, #2, #4, ...

........................................................................
.............................. CYCLE    7 ..............................
........................................................................

 iter      E             dE          RMSdq      gap      omega  full diag
   1    -17.9399881 -0.179400E+02  0.264E-02   12.45       0.0  T
   2    -17.9399882 -0.533383E-07  0.160E-02   12.45       1.6  T
   3    -17.9399882 -0.149185E-07  0.101E-03   12.45      25.5  T
   4    -17.9399882 -0.357308E-08  0.545E-04   12.45      47.3  T
   5    -17.9399882 -0.280110E-09  0.176E-04   12.45     146.5  T
     SCC iter.                  ...        0 min,  0.001 sec
     gradient                   ...        0 min,  0.002 sec
 * total energy  :   -17.7265855 Eh     change       -0.2594333E-04 Eh
   gradient norm :     0.0014764 Eh/α   predicted    -0.1443811E-04 ( -44.35%)
   displ. norm   :     0.0990992 α      lambda       -0.2790730E-04
   maximum displ.:     0.0911264 α      in ANC's #1, #2, #6, ...

........................................................................
.............................. CYCLE    8 ..............................
........................................................................

 iter      E             dE          RMSdq      gap      omega  full diag
   1    -17.9402182 -0.179402E+02  0.428E-02   12.41       0.0  T
   2    -17.9402183 -0.119401E-06  0.259E-02   12.41       1.0  T
   3    -17.9402184 -0.370559E-07  0.158E-03   12.41      16.3  T
   4    -17.9402184 -0.898740E-08  0.852E-04   12.41      30.3  T
   5    -17.9402184 -0.576282E-09  0.208E-04   12.41     124.0  T
     SCC iter.                  ...        0 min,  0.001 sec
     gradient                   ...        0 min,  0.002 sec
 * total energy  :   -17.7266210 Eh     change       -0.3545512E-04 Eh
   gradient norm :     0.0014334 Eh/α   predicted    -0.1401528E-04 ( -60.47%)
   displ. norm   :     0.0868951 α      lambda       -0.2006692E-04
   maximum displ.:     0.0802239 α      in ANC's #1, #2, #6, ...

........................................................................
.............................. CYCLE    9 ..............................
........................................................................

 iter      E             dE          RMSdq      gap      omega  full diag
   1    -17.9404229 -0.179404E+02  0.374E-02   12.40       0.0  T
   2    -17.9404229 -0.636026E-07  0.225E-02   12.40       1.1  T
   3    -17.9404230 -0.250598E-07  0.108E-03   12.40      24.0  T
   4    -17.9404230 -0.181298E-08  0.606E-04   12.40      42.6  T
   5    -17.9404230 -0.232340E-09  0.167E-04   12.40     154.2  T
     SCC iter.                  ...        0 min,  0.001 sec
     gradient                   ...        0 min,  0.002 sec
 * total energy  :   -17.7266482 Eh     change       -0.2723903E-04 Eh
   gradient norm :     0.0012760 Eh/α   predicted    -0.1006618E-04 ( -63.05%)
   displ. norm   :     0.0838226 α      lambda       -0.1796961E-04
   maximum displ.:     0.0762974 α      in ANC's #1, #2, #4, ...

........................................................................
.............................. CYCLE   10 ..............................
........................................................................

 iter      E             dE          RMSdq      gap      omega  full diag
   1    -17.9405622 -0.179406E+02  0.353E-02   12.41       0.0  T
   2    -17.9405622 -0.446560E-07  0.213E-02   12.41       1.2  T
   3    -17.9405623 -0.197920E-07  0.893E-04   12.41      28.9  T
   4    -17.9405623 -0.406455E-09  0.463E-04   12.41      55.8  T
     SCC iter.                  ...        0 min,  0.001 sec
     gradient                   ...        0 min,  0.002 sec
 * total energy  :   -17.7266732 Eh     change       -0.2498307E-04 Eh
   gradient norm :     0.0009749 Eh/α   predicted    -0.9014204E-05 ( -63.92%)
   displ. norm   :     0.0943561 α      lambda       -0.1867177E-04
   maximum displ.:     0.0836812 α      in ANC's #1, #2, #4, ...

........................................................................
.............................. CYCLE   11 ..............................
........................................................................

 iter      E             dE          RMSdq      gap      omega  full diag
   1    -17.9405547 -0.179406E+02  0.387E-02   12.42       0.0  T
   2    -17.9405547 -0.404350E-07  0.233E-02   12.42       1.1  T
   3    -17.9405547 -0.212419E-07  0.935E-04   12.42      27.6  T
   4    -17.9405547 -0.543462E-09  0.490E-04   12.42      52.7  T
     SCC iter.                  ...        0 min,  0.001 sec
     gradient                   ...        0 min,  0.002 sec
 * total energy  :   -17.7266991 Eh     change       -0.2583168E-04 Eh
   gradient norm :     0.0006654 Eh/α   predicted    -0.9373059E-05 ( -63.71%)
   displ. norm   :     0.1091655 α      lambda       -0.1903308E-04
   maximum displ.:     0.0958621 α      in ANC's #1, #2, #4, ...

........................................................................
.............................. CYCLE   12 ..............................
........................................................................

 iter      E             dE          RMSdq      gap      omega  full diag
   1    -17.9405061 -0.179405E+02  0.437E-02   12.43       0.0  T
   2    -17.9405062 -0.462701E-07  0.263E-02   12.43       1.0  T
   3    -17.9405062 -0.253712E-07  0.102E-03   12.43      25.2  T
   4    -17.9405062 -0.602768E-09  0.539E-04   12.43      47.9  T
   5    -17.9405062 -0.241723E-09  0.891E-05   12.43     289.6  T
     SCC iter.                  ...        0 min,  0.001 sec
     gradient                   ...        0 min,  0.002 sec
 * total energy  :   -17.7267247 Eh     change       -0.2566230E-04 Eh
   gradient norm :     0.0004930 Eh/α   predicted    -0.9565453E-05 ( -62.73%)
   displ. norm   :     0.1148542 α      lambda       -0.1681400E-04
   maximum displ.:     0.1018480 α      in ANC's #1, #2, #4, ...

........................................................................
.............................. CYCLE   13 ..............................
........................................................................

 iter      E             dE          RMSdq      gap      omega  full diag
   1    -17.9404435 -0.179404E+02  0.455E-02   12.43       0.0  T
   2    -17.9404436 -0.475148E-07  0.273E-02   12.43       1.0  T
   3    -17.9404436 -0.245086E-07  0.102E-03   12.43      25.4  T
   4    -17.9404436 -0.664329E-09  0.560E-04   12.43      46.1  T
   5    -17.9404436 -0.232227E-09  0.911E-05   12.43     283.5  T
     SCC iter.                  ...        0 min,  0.001 sec
     gradient                   ...        0 min,  0.002 sec
 * total energy  :   -17.7267466 Eh     change       -0.2192559E-04 Eh
   gradient norm :     0.0005302 Eh/α   predicted    -0.8456122E-05 ( -61.43%)
   displ. norm   :     0.1039202 α      lambda       -0.1251354E-04
   maximum displ.:     0.0939331 α      in ANC's #1, #2, #4, ...

........................................................................
.............................. CYCLE   14 ..............................
........................................................................

 iter      E             dE          RMSdq      gap      omega  full diag
   1    -17.9404680 -0.179405E+02  0.407E-02   12.44       0.0  T
   2    -17.9404680 -0.319569E-07  0.244E-02   12.44       1.1  T
   3    -17.9404680 -0.178448E-07  0.853E-04   12.44      30.3  T
   4    -17.9404680 -0.306603E-09  0.405E-04   12.44      63.7  T
     SCC iter.                  ...        0 min,  0.001 sec
     gradient                   ...        0 min,  0.002 sec
 * total energy  :   -17.7267627 Eh     change       -0.1607694E-04 Eh
   gradient norm :     0.0005431 Eh/α   predicted    -0.6287445E-05 ( -60.89%)
   displ. norm   :     0.0940587 α      lambda       -0.9618872E-05
   maximum displ.:     0.0866859 α      in ANC's #1, #2, #4, ...

........................................................................
.............................. CYCLE   15 ..............................
........................................................................

 iter      E             dE          RMSdq      gap      omega  full diag
   1    -17.9405468 -0.179405E+02  0.365E-02   12.44       0.0  T
   2    -17.9405468 -0.246781E-07  0.219E-02   12.44       1.2  T
   3    -17.9405468 -0.129001E-07  0.749E-04   12.44      34.5  T
   4    -17.9405468 -0.416719E-09  0.411E-04   12.44      62.9  T
     SCC iter.                  ...        0 min,  0.001 sec
     gradient                   ...        0 min,  0.002 sec
 * total energy  :   -17.7267750 Eh     change       -0.1227816E-04 Eh
   gradient norm :     0.0004874 Eh/α   predicted    -0.4830381E-05 ( -60.66%)
   displ. norm   :     0.0806634 α      lambda       -0.6537713E-05
   maximum displ.:     0.0751060 α      in ANC's #1, #2, #3, ...

........................................................................
.............................. CYCLE   16 ..............................
........................................................................

 iter      E             dE          RMSdq      gap      omega  full diag
   1    -17.9405495 -0.179405E+02  0.312E-02   12.44       0.0  T
   2    -17.9405495 -0.166007E-07  0.187E-02   12.44       1.4  T
   3    -17.9405495 -0.940025E-08  0.634E-04   12.44      40.7  T
   4    -17.9405495 -0.219536E-09  0.308E-04   12.44      83.8  T
     SCC iter.                  ...        0 min,  0.001 sec
     gradient                   ...        0 min,  0.002 sec
 * total energy  :   -17.7267834 Eh     change       -0.8366283E-05 Eh
   gradient norm :     0.0003510 Eh/α   predicted    -0.3277263E-05 ( -60.83%)
   displ. norm   :     0.0701193 α      lambda       -0.4535550E-05
   maximum displ.:     0.0665914 α      in ANC's #1, #2, #3, ...

........................................................................
.............................. CYCLE   17 ..............................
........................................................................

 iter      E             dE          RMSdq      gap      omega  full diag
   1    -17.9407151 -0.179407E+02  0.262E-02   12.43       0.0  T
   2    -17.9407151 -0.167229E-07  0.157E-02   12.43       1.6  T
   3    -17.9407151 -0.662612E-08  0.565E-04   12.43      45.7  T
   4    -17.9407151 -0.497220E-09  0.329E-04   12.43      78.6  T
     SCC iter.                  ...        0 min,  0.001 sec
     gradient                   ...        0 min,  0.002 sec
 * total energy  :   -17.7267889 Eh     change       -0.5524020E-05 Eh
   gradient norm :     0.0002432 Eh/α   predicted    -0.2272604E-05 ( -58.86%)
   displ. norm   :     0.0529642 α      lambda       -0.2386008E-05
   maximum displ.:     0.0494903 α      in ANC's #1, #2, #3, ...

........................................................................
.............................. CYCLE   18 ..............................
........................................................................

 iter      E             dE          RMSdq      gap      omega  full diag
   1    -17.9405707 -0.179406E+02  0.210E-02   12.43       0.0  T
   2    -17.9405707 -0.114910E-07  0.125E-02   12.43       2.1  T
   3    -17.9405707 -0.468411E-08  0.460E-04   12.43      56.1  T
   4    -17.9405707 -0.134005E-09  0.266E-04   12.43      97.1  T
     SCC iter.                  ...        0 min,  0.001 sec
     gradient                   ...        0 min,  0.002 sec
 * total energy  :   -17.7267915 Eh     change       -0.2608928E-05 Eh
   gradient norm :     0.0003044 Eh/α   predicted    -0.1194272E-05 ( -54.22%)
   displ. norm   :     0.0519479 α      lambda       -0.1706693E-05
   maximum displ.:     0.0498383 α      in ANC's #1, #2, #3, ...

........................................................................
.............................. CYCLE   19 ..............................
........................................................................

 iter      E             dE          RMSdq      gap      omega  full diag
   1    -17.9406875 -0.179407E+02  0.194E-02   12.43       0.0  T
   2    -17.9406875 -0.106509E-07  0.116E-02   12.43       2.2  T
   3    -17.9406875 -0.397935E-08  0.411E-04   12.43      62.9  T
   4    -17.9406875 -0.142926E-09  0.238E-04   12.43     108.7  T
     SCC iter.                  ...        0 min,  0.001 sec
     gradient                   ...        0 min,  0.002 sec
 * total energy  :   -17.7267931 Eh     change       -0.1620162E-05 Eh
   gradient norm :     0.0001815 Eh/α   predicted    -0.8555875E-06 ( -47.19%)
   displ. norm   :     0.0247133 α      lambda       -0.3567548E-06
   maximum displ.:     0.0235684 α      in ANC's #1, #2, #3, ...

........................................................................
.............................. CYCLE   20 ..............................
........................................................................

 iter      E             dE          RMSdq      gap      omega  full diag
   1    -17.9407025 -0.179407E+02  0.936E-03   12.43       0.0  T
   2    -17.9407025 -0.285695E-08  0.560E-03   12.43       4.6  T
   3    -17.9407025 -0.973952E-09  0.248E-04   12.43     104.0  T
   4    -17.9407025 -0.163727E-09  0.142E-04   12.43     182.0  T
     SCC iter.                  ...        0 min,  0.001 sec
     gradient                   ...        0 min,  0.002 sec
 * total energy  :   -17.7267934 Eh     change       -0.2738631E-06 Eh
   gradient norm :     0.0001663 Eh/α   predicted    -0.1765706E-06 ( -35.53%)
   displ. norm   :     0.0085525 α      lambda       -0.7825821E-07
   maximum displ.:     0.0079862 α      in ANC's #1, #3, #2, ...
 * RMSD in coord.:     0.3762100 α      energy gain  -0.1447587E-02 Eh

generating ANC from exact Hessian ...
Using Lindh-Hessian (1995)
 Shifting diagonal of input Hessian by   7.103517631028414E-003
 Lowest  eigenvalues of input Hessian
    0.000000    0.000000    0.000000    0.000000    0.000000    0.000000
    0.010000    0.012929    0.013771    0.019983    0.024373    0.034606
    0.044310    0.050549    0.059119    0.060714    0.062664    0.064618
 Highest eigenvalues
    1.155629    1.199284    1.206564    1.261375    1.285036    1.489324
 

........................................................................
.............................. CYCLE   21 ..............................
........................................................................

 iter      E             dE          RMSdq      gap      omega  full diag
   1    -17.9406785 -0.179407E+02  0.383E-03   12.43       0.0  T
   2    -17.9406785 -0.657248E-09  0.229E-03   12.43      11.3  T
   3    -17.9406785 -0.176172E-09  0.115E-04   12.43     224.2  T
   4    -17.9406785 -0.414282E-10  0.599E-05   12.43     430.8  T
     SCC iter.                  ...        0 min,  0.001 sec
     gradient                   ...        0 min,  0.002 sec
 * total energy  :   -17.7267935 Eh     change       -0.6141857E-07 Eh
   gradient norm :     0.0000774 Eh/α   predicted     0.0000000E+00 (-100.00%)
   displ. norm   :     0.0012069 α      lambda       -0.2263781E-07
   maximum displ.:     0.0006363 α      in ANC's #2, #3, #5, ...

   *** GEOMETRY OPTIMIZATION CONVERGED AFTER 21 ITERATIONS ***

------------------------------------------------------------------------
 total energy gain   :        -0.0014476 Eh       -0.9084 kcal/mol
 total RMSD          :         0.3762100 a0        0.1991 Å
 total power (kW/mol):        -0.1809905 (step)  -35.6461 (real)
------------------------------------------------------------------------

 ANCopt (total)                0 d,  0 h,  0 min,  0.107 sec
 optimizer setup                ...        0 min,  0.000 sec (  0.328%)
 model hessian                  ...        0 min,  0.008 sec (  7.191%)
 ANC generation                 ...        0 min,  0.000 sec (  0.378%)
 coordinate transformation      ...        0 min,  0.000 sec (  0.068%)
 single point calculation       ...        0 min,  0.091 sec ( 84.922%)
 optimization log               ...        0 min,  0.005 sec (  4.813%)
 hessian update                 ...        0 min,  0.000 sec (  0.077%)
 rational function              ...        0 min,  0.002 sec (  1.602%)

================
 final structure:
================
$coord
        3.84309180560373       -0.90664768070692       -0.76821116017480      C
        2.03559776023445       -0.06941758453129        1.31326041715773      C
        0.03460686785588        1.80289629634099        0.39243724046045      C
       -2.02674867353944        0.55636341099681       -1.19569827884196      C
       -3.42672553294693       -1.11638357436468        0.35437386922698      O
        4.79475161922838        0.72067756221488       -1.58832414594378      H
        5.26634238058896       -2.17473029788821       -0.00202516721680      H
        2.84434309280834       -1.89784766928438       -2.26424722972269      H
        1.07499494759289       -1.71049544981705        2.11221739282060      H
        3.12389458122300        0.82181187397464        2.82260554183082      H
       -0.87860442757339        2.66947987272984        2.02614374200765      H
        0.92194627785868        3.28939777292528       -0.72690325227593      H
       -3.27781673777941        2.02621392828109       -1.96225356790861      H
       -1.18085175971273       -0.47534722386532       -2.78255047980680      H
       -4.71340770499852       -1.93633290021501       -0.64677806582379      H
$end
 
 Bond Distances (Angstroems)
 ---------------------------
C1-C2=1.5246         C1-H6=1.0879         C1-H7=1.0872         C1-H8=1.0868         C2-C1=1.5246         C2-C3=1.5298         
C2-H9=1.0915         C2-H10=1.0918        C3-C2=1.5298         C3-C4=1.5269         C3-H11=1.0914        C3-H12=1.0909        
C4-C3=1.5269         C4-O5=1.4161         C4-H13=1.0990        C4-H14=1.0971        O5-C4=1.4161         O5-H15=0.9657        
H6-C1=1.0879         H7-C1=1.0872         H8-C1=1.0868         H9-C2=1.0915         H10-C2=1.0918        H11-C3=1.0914        
H12-C3=1.0909        H13-C4=1.0990        H14-C4=1.0971        H15-O5=0.9657        
 C  H  Rav=1.0915 sigma=0.0040  Rmin=1.0868  Rmax=1.0990     9
 C  C  Rav=1.5271 sigma=0.0021  Rmin=1.5246  Rmax=1.5298     3
 O  H  Rav=0.9657 sigma=0.0000  Rmin=0.9657  Rmax=0.9657     1
 O  C  Rav=1.4161 sigma=0.0000  Rmin=1.4161  Rmax=1.4161     1
 
 selected bond angles (degree)
 --------------------
H6-C1-C2=110.40                H7-C1-C2=110.15                H7-C1-H6=108.46                H8-C1-C2=111.19                
H8-C1-H6=108.45                H8-C1-H7=108.10                C3-C2-C1=113.10                H9-C2-C1=109.93                
H9-C2-C3=108.44                H10-C2-C1=108.85               H10-C2-C3=108.56               H10-C2-H9=107.82               
C4-C3-C2=112.96                H11-C3-C2=109.04               H11-C3-C4=107.53               H12-C3-C2=110.00               
H12-C3-C4=108.67               H12-C3-H11=108.52              O5-C4-C3=108.96                H13-C4-C3=109.13               
H13-C4-O5=109.94               H14-C4-C3=110.17               H14-C4-O5=110.23               H14-C4-H13=108.39              
H15-O5-C4=109.39               
 
 selected dihedral angles (degree)
 ---------------------------------
C3-C2-C1-H6= 58.06            C3-C2-C1-H7=177.82            C3-C2-C1-H8=297.64            H9-C2-C1-H6=179.42            
H9-C2-C1-H7=299.18            H9-C2-C1-H8= 59.00            H10-C2-C1-H6=297.31           H10-C2-C1-H7= 57.07           
H10-C2-C1-H8=176.88           C4-C3-C2-C1= 74.38            C4-C3-C2-H9=312.19            C4-C3-C2-H10=195.30           
H11-C3-C2-C1=193.87           H11-C3-C2-H9= 71.67           H11-C3-C2-H10=314.79          H12-C3-C2-C1=312.77           
H12-C3-C2-H9=190.57           H12-C3-C2-H10= 73.69          O5-C4-C3-C2= 66.01            O5-C4-C3-H11=305.66           
O5-C4-C3-H12=188.37           H13-C4-C3-C2=186.08           H13-C4-C3-H11= 65.72          H13-C4-C3-H12=308.44          
H14-C4-C3-C2=304.97           H14-C4-C3-H11=184.61          H14-C4-C3-H12= 67.33          H15-O5-C4-C3=181.11           
H15-O5-C4-H13= 61.55          H15-O5-C4-H14=302.12          
           -------------------------------------------------
          |                Final Singlepoint                |
           -------------------------------------------------

          ...................................................
          :                      SETUP                      :
          :.................................................:
          :  # basis functions                  30          :
          :  # atomic orbitals                  30          :
          :  # shells                           20          :
          :  # electrons                        32          :
          :  max. iterations                   250          :
          :  Hamiltonian                  GFN2-xTB          :
          :  restarted?                      false          :
          :  GBSA solvation                   true          :
          :  PC potential                    false          :
          :  electronic temp.          300.0000000     K    :
          :  accuracy                    1.0000000          :
          :  -> integral cutoff          0.2500000E+02      :
          :  -> integral neglect         0.1000000E-07      :
          :  -> SCF convergence          0.1000000E-05 Eh   :
          :  -> wf. convergence          0.1000000E-03 e    :
          :  Broyden damping             0.4000000          :
          :  net charge                          0          :
          :  unpaired electrons                  0          :
          ...................................................

 iter      E             dE          RMSdq      gap      omega  full diag
   1    -17.9406785 -0.179407E+02  0.156E-05   12.43       0.0  T
   2    -17.9406785 -0.294875E-12  0.101E-05   12.43    2557.3  T
   3    -17.9406785 -0.145661E-12  0.355E-06   12.43    7267.4  T

   *** convergence criteria satisfied after 3 iterations ***

         #    Occupation            Energy/Eh            Energy/eV
      -------------------------------------------------------------
         1        2.0000           -0.6849839             -18.6394
       ...           ...                  ...                  ...
        10        2.0000           -0.4852018             -13.2030
        11        2.0000           -0.4668470             -12.7036
        12        2.0000           -0.4558686             -12.4048
        13        2.0000           -0.4360215             -11.8647
        14        2.0000           -0.4291558             -11.6779
        15        2.0000           -0.4213763             -11.4662
        16        2.0000           -0.4052618             -11.0277 (HOMO)
        17                          0.0515625               1.4031 (LUMO)
        18                          0.0957822               2.6064
        19                          0.1132610               3.0820
        20                          0.1275562               3.4710
        21                          0.1349892               3.6732
       ...                                ...                  ...
        30                          0.3053518               8.3090
      -------------------------------------------------------------
                  HL-Gap            0.4568244 Eh           12.4308 eV
             Fermi-level           -0.1768497 Eh           -4.8123 eV

 SCC (total)                   0 d,  0 h,  0 min,  0.004 sec
 SCC setup                      ...        0 min,  0.001 sec ( 17.198%)
 Dispersion                     ...        0 min,  0.000 sec (  0.810%)
 classical contributions        ...        0 min,  0.000 sec (  0.270%)
 integral evaluation            ...        0 min,  0.001 sec ( 17.333%)
 iterations                     ...        0 min,  0.001 sec ( 15.713%)
 molecular gradient             ...        0 min,  0.002 sec ( 46.202%)
 printout                       ...        0 min,  0.000 sec (  2.153%)

         :::::::::::::::::::::::::::::::::::::::::::::::::::::
         ::                     SUMMARY                     ::
         :::::::::::::::::::::::::::::::::::::::::::::::::::::
         :: total energy             -17.726793454069 Eh    ::
         :: total w/o Gsasa/hb       -17.721778778642 Eh    ::
         :: gradient norm              0.000077419907 Eh/a0 ::
         :: HOMO-LUMO gap             12.430823767590 eV    ::
         ::.................................................::
         :: SCC energy               -17.940665428169 Eh    ::
         :: -> isotropic ES            0.035910448439 Eh    ::
         :: -> anisotropic ES          0.004080564152 Eh    ::
         :: -> anisotropic XC          0.005869972263 Eh    ::
         :: -> dispersion             -0.007293631378 Eh    ::
         :: -> Gsolv                  -0.009628036059 Eh    ::
         ::    -> Gelec               -0.004613360632 Eh    ::
         ::    -> Gsasa                0.000344313495 Eh    ::
         ::    -> Ghb                 -0.006439748621 Eh    ::
         ::    -> Gshift               0.001080759698 Eh    ::
         :: repulsion energy           0.213871974099 Eh    ::
         :: add. restraining           0.000000000000 Eh    ::
         :: total charge              -0.000000000000 e     ::
         :::::::::::::::::::::::::::::::::::::::::::::::::::::

           ------------------------------------------------- 
          |                Numerical Hessian                |
           ------------------------------------------------- 
step length          :   0.00500
SCC accuracy         :   0.30000
Hessian scale factor :   1.00000
frozen atoms in %    :   0.00000    0
RMS gradient         :   0.00008
estimated CPU  time      0.01 min
estimated wall time      0.01 min

writing file <hessian>.

 projected vibrational frequencies (cm⁻¹)
eigval :       -0.00    -0.00    -0.00    -0.00    -0.00     0.00
eigval :       61.32   133.76   226.59   252.19   277.05   391.61
eigval :      467.67   787.03   848.91   887.95   977.76   997.03
eigval :     1027.93  1108.41  1126.29  1132.74  1192.08  1216.90
eigval :     1243.41  1283.06  1337.71  1353.22  1364.01  1410.09
eigval :     1460.62  1478.48  1488.69  1499.59  1505.16  2860.38
eigval :     2903.60  2969.15  2978.60  2989.61  2992.41  3025.31
eigval :     3031.93  3042.88  3518.59
           -------------------------------------------------
          |                Property Printout                |
           -------------------------------------------------

    * Orbital Energies and Occupations

         #    Occupation            Energy/Eh            Energy/eV
      -------------------------------------------------------------
         1        2.0000           -0.6849839             -18.6394
       ...           ...                  ...                  ...
         4        2.0000           -0.5815173             -15.8239
         5        2.0000           -0.5633860             -15.3305
         6        2.0000           -0.5524118             -15.0319
         7        2.0000           -0.5286013             -14.3840
         8        2.0000           -0.5073638             -13.8061
         9        2.0000           -0.4925343             -13.4025
        10        2.0000           -0.4852018             -13.2030
        11        2.0000           -0.4668470             -12.7036
        12        2.0000           -0.4558686             -12.4048
        13        2.0000           -0.4360214             -11.8647
        14        2.0000           -0.4291558             -11.6779
        15        2.0000           -0.4213763             -11.4662
        16        2.0000           -0.4052618             -11.0277 (HOMO)
        17                          0.0515625               1.4031 (LUMO)
        18                          0.0957822               2.6064
        19                          0.1132610               3.0820
        20                          0.1275562               3.4710
        21                          0.1349892               3.6732
        22                          0.1461974               3.9782
        23                          0.1638871               4.4596
        24                          0.1916084               5.2139
        25                          0.2100307               5.7152
        26                          0.2372686               6.4564
        27                          0.2459744               6.6933
       ...                                ...                  ...
        30                          0.3053518               8.3090
      -------------------------------------------------------------
                  HL-Gap            0.4568244 Eh           12.4308 eV
             Fermi-level           -0.1768496 Eh           -4.8123 eV

     #   Z          covCN         q      C6AA      α(0)
     1   6 C        3.751    -0.111    22.693     6.793
     2   6 C        3.800    -0.059    21.628     6.621
     3   6 C        3.801    -0.068    21.808     6.649
     4   6 C        3.673     0.085    19.393     6.311
     5   8 O        1.655    -0.522    23.377     6.527
     6   1 H        0.925     0.038     2.476     2.461
     7   1 H        0.925     0.039     2.466     2.456
     8   1 H        0.925     0.036     2.497     2.471
     9   1 H        0.924     0.043     2.406     2.426
    10   1 H        0.924     0.033     2.539     2.492
    11   1 H        0.924     0.045     2.380     2.412
    12   1 H        0.924     0.041     2.431     2.438
    13   1 H        0.923     0.017     2.774     2.604
    14   1 H        0.924     0.024     2.678     2.559
    15   1 H        0.805     0.358     0.570     1.185

 Mol. C6AA /au·bohr⁶  :       1464.024946
 Mol. C8AA /au·bohr⁸  :      29944.848973
 Mol. α(0) /au        :         56.405994


Wiberg/Mayer (AO) data.
largest (>0.10) Wiberg bond orders for each atom

 ---------------------------------------------------------------------------
     #   Z sym  total        # sym  WBO       # sym  WBO       # sym  WBO
 ---------------------------------------------------------------------------
     1   6 C    3.997 --     2 C    1.021     6 H    0.987     7 H    0.987
                             8 H    0.985
     2   6 C    3.997 --     1 C    1.021     3 C    1.008    10 H    0.979
                             9 H    0.977
     3   6 C    3.996 --     2 C    1.008     4 C    1.006    11 H    0.976
                            12 H    0.975
     4   6 C    3.955 --     3 C    1.006     5 O    0.990    13 H    0.972
                            14 H    0.970
     5   8 O    1.900 --     4 C    0.990    15 H    0.859
     6   1 H    0.999 --     1 C    0.987
     7   1 H    0.998 --     1 C    0.987
     8   1 H    0.999 --     1 C    0.985
     9   1 H    0.998 --     2 C    0.977
    10   1 H    0.999 --     2 C    0.979
    11   1 H    0.998 --     3 C    0.976
    12   1 H    0.998 --     3 C    0.975
    13   1 H    1.000 --     4 C    0.972
    14   1 H    0.999 --     4 C    0.970
    15   1 H    0.872 --     5 O    0.859
 ---------------------------------------------------------------------------

Topologies differ in total number of bonds
Writing topology from bond orders to xtbtopo.mol

molecular dipole:
                 x           y           z       tot (Debye)
 q only:       -0.066       0.027      -0.532
   full:       -0.160       0.034      -0.727       1.893
molecular quadrupole (traceless):
                xx          xy          yy          xz          yz          zz
 q only:        1.710       1.471      -0.476       3.079       0.931      -1.235
  q+dip:        1.837       1.423      -0.411       4.403       1.602      -1.426
   full:        2.008       1.663      -0.573       4.322       1.419      -1.436

           -------------------------------------------------
          |                Geometry Summary                 |
           -------------------------------------------------

      molecular mass/u    :       74.1217560
   center of mass at/Å    :       -0.0007592       0.0006791      -0.0033382
  moments of inertia/u·Å² :        0.5511705E+02   0.1836565E+03   0.1914540E+03
rotational constants/cm⁻¹ :        0.3058515E+00   0.9178892E-01   0.8805054E-01

 * 14 selected distances

     #   Z          #   Z                                           value/Å
     1   6 C        2   6 C                                       1.5245920
     2   6 C        3   6 C                                       1.5298110 (max)
     3   6 C        4   6 C                                       1.5268580
     4   6 C        5   8 O                                       1.4160551
     1   6 C        6   1 H                                       1.0878975
     1   6 C        7   1 H                                       1.0871620
     1   6 C        8   1 H                                       1.0868250
     2   6 C        9   1 H                                       1.0914692
     2   6 C       10   1 H                                       1.0917996
     3   6 C       11   1 H                                       1.0914297
     3   6 C       12   1 H                                       1.0909244
     4   6 C       13   1 H                                       1.0990132
     4   6 C       14   1 H                                       1.0970788
     5   8 O       15   1 H                                       0.9656830 (min)

 * 4 distinct bonds (by element types)

   Z      Z             #   av. dist./Å        max./Å        min./Å
   1 H    6 C           9     1.0915111     1.0990132     1.0868250
   6 C    6 C           3     1.5270870     1.5298110     1.5245920
   1 H    8 O           1     0.9656830     0.9656830     0.9656830
   6 C    8 O           1     1.4160551     1.4160551     1.4160551

           -------------------------------------------------
          |               Frequency Printout                |
           -------------------------------------------------
 projected vibrational frequencies (cm⁻¹)
eigval :       -0.00    -0.00    -0.00    -0.00    -0.00     0.00
eigval :       61.32   133.76   226.59   252.19   277.05   391.61
eigval :      467.67   787.03   848.91   887.95   977.76   997.03
eigval :     1027.93  1108.41  1126.29  1132.74  1192.08  1216.90
eigval :     1243.41  1283.06  1337.71  1353.22  1364.01  1410.09
eigval :     1460.62  1478.48  1488.69  1499.59  1505.16  2860.38
eigval :     2903.60  2969.15  2978.60  2989.61  2992.41  3025.31
eigval :     3031.93  3042.88  3518.59
 reduced masses (amu)
   1: 10.21   2: 11.11   3: 11.07   4: 10.79   5: 10.43   6: 10.43   7:  9.72   8:  6.59
   9:  3.60  10:  3.89  11:  7.42  12:  6.83  13:  8.46  14:  3.38  15:  6.36  16:  6.32
  17:  6.17  18:  5.41  19:  7.64  20:  4.93  21:  8.37  22:  7.32  23:  4.76  24:  2.74
  25:  3.39  26:  2.28  27:  3.81  28:  4.92  29:  4.59  30:  3.25  31:  1.96  32:  1.80
  33:  1.89  34:  1.60  35:  1.56  36:  1.93  37:  1.47  38:  1.87  39:  1.92  40:  1.52
  41:  1.61  42:  1.87  43:  1.94  44:  1.33  45:  1.88
 IR intensities (km·mol⁻¹)
   1:  1.98   2:  0.38   3:  0.06   4:  0.31   5:  0.42   6:  0.33   7:  1.78   8:  5.79
   9: 46.66  10:125.50  11: 54.55  12:  7.61  13:  7.96  14:  7.07  15:  8.00  16: 12.02
  17:  6.50  18:  1.63  19:100.17  20:  6.76  21: 50.08  22: 19.13  23: 55.13  24: 39.73
  25: 15.15  26:  7.68  27: 11.89  28:  4.75  29:  9.68  30:  0.92  31:  0.34  32:  3.98
  33:  0.26  34:  1.12  35:  1.40  36:127.66  37: 82.92  38: 57.22  39: 44.91  40: 83.80
  41: 74.39  42: 91.62  43: 84.39  44: 45.96  45: 71.86
 Raman intensities (Ä⁴*amu⁻¹)
   1:  0.00   2:  0.00   3:  0.00   4:  0.00   5:  0.00   6:  0.00   7:  0.00   8:  0.00
   9:  0.00  10:  0.00  11:  0.00  12:  0.00  13:  0.00  14:  0.00  15:  0.00  16:  0.00
  17:  0.00  18:  0.00  19:  0.00  20:  0.00  21:  0.00  22:  0.00  23:  0.00  24:  0.00
  25:  0.00  26:  0.00  27:  0.00  28:  0.00  29:  0.00  30:  0.00  31:  0.00  32:  0.00
  33:  0.00  34:  0.00  35:  0.00  36:  0.00  37:  0.00  38:  0.00  39:  0.00  40:  0.00
  41:  0.00  42:  0.00  43:  0.00  44:  0.00  45:  0.00
 output can be read by thermo (or use thermo option).
 writing <g98.out> molden fake output.
 recommended (thermochemical) frequency scaling factor: 1.0
           -------------------------------------------------
          |             Thermodynamic Functions             |
           -------------------------------------------------

Molecule has no symmetry elements
It seems to be the C1 point group
c1  symmetry found (for desy threshold:  0.10E+00) used in thermo

          ...................................................
          :                      SETUP                      :
          :.................................................:
          :  # frequencies                          39      :
          :  # imaginary freq.                       0      :
          :  linear?                             false      :
          :  only rotor calc.                    false      :
          :  symmetry                               c1      :
          :  rotational number                       1      :
          :  scaling factor                  1.0000000      :
          :  rotor cutoff                    0.0000000 cm⁻¹ :
          :  imag. cutoff                 -100.0000000 cm⁻¹ :
          :.................................................:

    mode    ω/cm⁻¹     T·S(HO)/kcal·mol⁻¹    T·S(FR)/kcal·mol⁻¹   T·S(vib)
   ------------------------------------------------------------------------
       1     61.32    -1.31608 (100.00%)    -0.99551 (  0.00%)    -1.31608
       2    133.76    -0.86205 (100.00%)    -0.76479 (  0.00%)    -0.86205
       3    226.59    -0.56820 (100.00%)    -0.60873 (  0.00%)    -0.56820
       4    252.19    -0.51140 (100.00%)    -0.57705 (  0.00%)    -0.51140
       5    277.05    -0.46267 (100.00%)    -0.54920 (  0.00%)    -0.46267
   ------------------------------------------------------------------------

   temp. (K)  partition function   enthalpy   heat capacity  entropy
                                   cal/mol     cal/K/mol   cal/K/mol   J/K/mol
 298.15  VIB   35.0                 2513.879     17.266     15.495
         ROT  0.106E+06              888.752      2.981     25.982
         INT  0.372E+07             3402.631     20.247     41.477
         TR   0.617E+27             1481.254      4.968     38.808
         TOT                        4883.8854    25.2150    80.2849   335.9119

       T/K    H(0)-H(T)+PV         H(T)/Eh          T*S/Eh         G(T)/Eh
   ------------------------------------------------------------------------
    298.15    0.778297E-02    0.141852E+00    0.381459E-01    0.103707E+00
   ------------------------------------------------------------------------

         :::::::::::::::::::::::::::::::::::::::::::::::::::::
         ::                  THERMODYNAMIC                  ::
         :::::::::::::::::::::::::::::::::::::::::::::::::::::
         :: total free energy         -17.623086953944 Eh   ::
         ::.................................................::
         :: total energy              -17.726793454214 Eh   ::
         :: zero point energy           0.134069463862 Eh   ::
         :: G(RRHO) w/o ZPVE           -0.030362963592 Eh   ::
         :: G(RRHO) contrib.            0.103706500270 Eh   ::
         :::::::::::::::::::::::::::::::::::::::::::::::::::::

optimized geometry written to: xtbopt.coord


           -------------------------------------------------
          | TOTAL ENERGY              -17.726793454214 Eh   |
          | TOTAL ENTHALPY            -17.584941023612 Eh   |
          | TOTAL FREE ENERGY         -17.623086953944 Eh   |
          | GRADIENT NORM               0.000077406336 Eh/α |
          | HOMO-LUMO GAP              12.430823703673 eV   |
           -------------------------------------------------

------------------------------------------------------------------------
 * finished run on 2025/04/06 at 22:38:51.187     
------------------------------------------------------------------------
 total:
 * wall-time:     0 d,  0 h,  0 min,  0.562 sec
 *  cpu-time:     0 d,  0 h,  0 min,  0.482 sec
 * ratio c/w:     0.858 speedup
 SCF:
 * wall-time:     0 d,  0 h,  0 min,  0.020 sec
 *  cpu-time:     0 d,  0 h,  0 min,  0.007 sec
 * ratio c/w:     0.354 speedup
 ANC optimizer:
 * wall-time:     0 d,  0 h,  0 min,  0.121 sec
 *  cpu-time:     0 d,  0 h,  0 min,  0.107 sec
 * ratio c/w:     0.885 speedup
 analytical hessian:
 * wall-time:     0 d,  0 h,  0 min,  0.367 sec
 *  cpu-time:     0 d,  0 h,  0 min,  0.359 sec
 * ratio c/w:     0.977 speedup

