! r2scan-3c def2/J RI DEFGRID2 scfconv6 printgap
%output
    printlevel normal
end
%cpcm
    smd true
    smdsolvent "water"
end
* xyz 0 1
C 0.7316610791 -1.4875010086 -0.0833424879
C 0.5339324578 -0.0704135314 0.4591150147
C 1.3069092876 0.952094787 -0.3766416812
O -0.8421476292 0.273939068 0.6237832047
C -1.6335594434 0.3182867998 -0.5468973115
H 0.1014092799 -2.1856338602 0.4623012297
H 0.4857192445 -1.5384028023 -1.1412206967
H 1.7700187041 -1.7776729884 0.0435456151
H 0.8976892684 -0.0319049523 1.4930977649
H 1.0515064801 0.8682092481 -1.4301627119
H 2.3719396893 0.7740574111 -0.2648535199
H 1.0802390762 1.9591455293 -0.0349121027
H -1.2713213032 1.0718138396 -1.2512795041
H -2.6302813492 0.5937650699 -0.2088479253
H -1.6777632744 -0.655434373 -1.0419554931
*
