15
 xtb: 6.7.1 (edcfbbe)
C            2.13521558519678       -0.30184695079946        0.60401705942306
C            1.39682666817195        0.50896241337371       -0.46063746167094
C           -0.01986649273070        0.00421175666920       -0.75502682632365
C           -0.95815859085156        0.12349155254598        0.43593059050437
O           -2.31196761964643       -0.24999956561756        0.10197061624710
H            1.66272901455466       -0.21176074708211        1.58708318911461
H            2.15678756925096       -1.36532404144306        0.33917124528635
H            3.17080788112489        0.03868591855980        0.70565472010609
H            1.34730560932252        1.56184929783012       -0.15376375145517
H            1.97248159223392        0.48512840952198       -1.39313829207570
H           -0.44588365637354        0.57819977733640       -1.58720708686454
H            0.02273426468199       -1.04714195562315       -1.07275736709201
H           -0.60596678341003       -0.48616854218431        1.27852054195005
H           -1.01245418179291        1.16459954984901        0.77308070882106
H           -2.29172887235226       -1.17883288452126       -0.16215291717387
