 Entering Gaussian System
 *********************************************
 Gaussian 98:
 frequency output generated by the xtb code
 *********************************************
                         Standard orientation:
 --------------------------------------------------------------------
  Center     Atomic     Atomic              Coordinates (Angstroms)
  Number     Number      Type              X           Y           Z
 --------------------------------------------------------------------
    1          6             0        1.606733   -0.761950   -0.528267
    2          6             0        1.321736    0.583372    0.129489
    3          6             0        0.011770    0.600333    0.919689
    4          6             0       -1.243131    0.516453    0.045114
    5          8             0       -1.497408   -0.762746   -0.497417
    6          1             0        0.801981   -1.031735   -1.206840
    7          1             0        2.535486   -0.717203   -1.092180
    8          1             0        1.700741   -1.541371    0.224856
    9          1             0        2.140724    0.829622    0.809572
   10          1             0        1.282936    1.360351   -0.637124
   11          1             0        0.008205   -0.225350    1.635016
   12          1             0       -0.045733    1.533068    1.483543
   13          1             0       -2.113943    0.845407    0.629819
   14          1             0       -1.142855    1.179909   -0.817528
   15          1             0       -1.629349   -1.388591    0.227861
 --------------------------------------------------------------------
     1 basis functions        1 primitive gaussians
     1 alpha electrons        1 beta electrons
 
 Harmonic frequencies (cm**-1), IR intensities (km*mol⁻¹),
 Raman scattering activities (A**4/amu), Raman depolarization ratios,
 reduced masses (AMU), force constants (mDyne/A) and normal coordinates:
                      1                      2                      3
                        a                      a                      a 
 Frequencies --    86.6708               143.0294               233.5393
 Red. masses --     7.6378                 9.5017                 3.1107
 Frc consts  --     0.0000                 0.0000                 0.0000
 IR Inten    --     4.5764                 0.2661                12.0799
 Raman Activ --     0.0000                 0.0000                 0.0000
 Depolar     --     0.0000                 0.0000                 0.0000
 Atom AN      X      Y      Z        X      Y      Z        X      Y      Z
   1   6     0.11  -0.20   0.25    -0.48  -0.07  -0.11    -0.24  -0.01   0.02
   2   6    -0.14   0.02  -0.30    -0.04  -0.06   0.06    -0.06   0.02   0.06
   3   6     0.04  -0.01   0.02    -0.03   0.27   0.07    -0.01  -0.02   0.12
   4   6    -0.17  -0.01   0.33     0.00  -0.04   0.08     0.15   0.02  -0.11
   5   8     0.14   0.23  -0.32     0.55  -0.08  -0.09     0.23  -0.02  -0.06
   6   1     0.03  -0.20   0.13    -0.11   0.12  -0.12    -0.33  -0.19   0.39
   7   1     0.01  -0.06   0.03    -0.08  -0.11   0.06    -0.34   0.11  -0.42
   8   1     0.12   0.05   0.17    -0.31  -0.07  -0.07     0.41   0.08   0.03
   9   1    -0.01   0.16  -0.18     0.01  -0.12   0.03     0.02   0.01  -0.03
  10   1    -0.16  -0.10  -0.19     0.06   0.01   0.04    -0.06   0.00   0.01
  11   1     0.07  -0.00   0.01    -0.01   0.15   0.10    -0.02  -0.03   0.01
  12   1     0.04  -0.00   0.01    -0.00   0.14  -0.07    -0.02  -0.02   0.06
  13   1    -0.03  -0.17   0.22    -0.03  -0.12   0.04     0.01   0.04  -0.10
  14   1    -0.18   0.14   0.19    -0.07   0.03   0.05     0.12  -0.02  -0.04
  15   1     0.14  -0.06  -0.16     0.25  -0.07  -0.04    -0.11   0.04  -0.01
                      4                      5                      6
                        a                      a                      a 
 Frequencies --   305.7573               345.6898               355.6016
 Red. masses --     4.7555                 7.8044                 5.9119
 Frc consts  --     0.0000                 0.0000                 0.0000
 IR Inten    --    68.7060                18.9556               124.9407
 Raman Activ --     0.0000                 0.0000                 0.0000
 Depolar     --     0.0000                 0.0000                 0.0000
 Atom AN      X      Y      Z        X      Y      Z        X      Y      Z
   1   6     0.24  -0.06  -0.14    -0.09   0.06   0.08     0.26  -0.09  -0.20
   2   6     0.10  -0.23   0.19     0.35   0.12   0.12    -0.15  -0.24   0.01
   3   6    -0.13   0.18  -0.14     0.21   0.20  -0.11    -0.15   0.17   0.05
   4   6    -0.22   0.06   0.02    -0.02  -0.28   0.15    -0.18   0.07   0.10
   5   8    -0.16   0.04   0.03    -0.31  -0.12  -0.27     0.32   0.01   0.07
   6   1    -0.00  -0.08   0.07    -0.12   0.07   0.11     0.13  -0.07  -0.10
   7   1    -0.03   0.14  -0.19    -0.08  -0.06  -0.07     0.09   0.12  -0.02
   8   1     0.31  -0.05  -0.10    -0.01   0.02   0.03     0.13  -0.07  -0.11
   9   1    -0.03  -0.16   0.16     0.08  -0.05   0.09    -0.05  -0.07   0.02
  10   1     0.16  -0.01   0.10     0.20   0.06   0.06    -0.02  -0.06   0.01
  11   1    -0.10   0.15   0.07     0.12   0.17   0.09    -0.08   0.13   0.11
  12   1    -0.00   0.13  -0.15    -0.01   0.14  -0.17     0.02   0.12  -0.10
  13   1    -0.04  -0.05   0.08     0.05  -0.16   0.16    -0.07  -0.03   0.02
  14   1    -0.16   0.04   0.01    -0.13  -0.01   0.08    -0.06   0.04   0.04
  15   1     0.53  -0.09   0.03    -0.38  -0.05  -0.14    -0.63   0.13  -0.01
                      7                      8                      9
                        a                      a                      a 
 Frequencies --   488.7048               812.8358               846.0372
 Red. masses --     7.1141                 2.9895                 8.1238
 Frc consts  --     0.0000                 0.0000                 0.0000
 IR Inten    --    24.4171                15.2367                 1.5403
 Raman Activ --     0.0000                 0.0000                 0.0000
 Depolar     --     0.0000                 0.0000                 0.0000
 Atom AN      X      Y      Z        X      Y      Z        X      Y      Z
   1   6    -0.06   0.01   0.09    -0.08   0.03  -0.05    -0.10   0.21   0.14
   2   6     0.23   0.09   0.01    -0.26   0.06  -0.22    -0.22  -0.15   0.09
   3   6    -0.05  -0.16  -0.40    -0.00   0.03  -0.05     0.03  -0.35  -0.42
   4   6    -0.33   0.18  -0.02     0.14  -0.09   0.13     0.29  -0.12  -0.02
   5   8     0.28   0.00   0.18    -0.01   0.06   0.00     0.07   0.22   0.13
   6   1    -0.08   0.03   0.10     0.13  -0.37  -0.04    -0.02   0.09   0.02
   7   1    -0.05  -0.10  -0.03     0.07   0.03   0.14    -0.03   0.13   0.04
   8   1    -0.03   0.03   0.06     0.06   0.26   0.24    -0.01   0.02  -0.01
   9   1    -0.02  -0.09   0.14    -0.12  -0.45   0.18    -0.12   0.05   0.06
  10   1     0.23   0.08   0.05     0.29   0.29   0.21    -0.13  -0.04   0.02
  11   1    -0.02  -0.24  -0.33     0.13  -0.01  -0.03    -0.07   0.12   0.13
  12   1     0.01  -0.20   0.14     0.01  -0.00   0.00    -0.01   0.08  -0.40
  13   1    -0.05  -0.08   0.13     0.02   0.04  -0.03     0.19  -0.07   0.20
  14   1    -0.27   0.09   0.01     0.14  -0.05   0.03    -0.07   0.08   0.06
  15   1    -0.12   0.08   0.08     0.00  -0.04  -0.04    -0.01   0.09   0.06
                     10                     11                     12
                        a                      a                      a 
 Frequencies --   887.6361               951.6931               987.6779
 Red. masses --     5.6364                 4.4386                 8.2079
 Frc consts  --     0.0000                 0.0000                 0.0000
 IR Inten    --     7.9805                38.8672                10.8007
 Raman Activ --     0.0000                 0.0000                 0.0000
 Depolar     --     0.0000                 0.0000                 0.0000
 Atom AN      X      Y      Z        X      Y      Z        X      Y      Z
   1   6     0.14   0.03  -0.09     0.02   0.08  -0.15    -0.17   0.31   0.22
   2   6     0.23   0.09  -0.12     0.08  -0.02   0.01    -0.00  -0.28  -0.07
   3   6    -0.18  -0.34   0.03     0.09  -0.13   0.24     0.34  -0.11  -0.02
   4   6    -0.29  -0.07   0.13    -0.01   0.23  -0.27    -0.33   0.26   0.06
   5   8     0.12   0.17   0.06    -0.06  -0.20  -0.06     0.01  -0.23  -0.11
   6   1    -0.10   0.07   0.11     0.02  -0.19   0.03     0.03   0.05  -0.01
   7   1    -0.00  -0.34  -0.11     0.05  -0.20   0.03    -0.02   0.28   0.12
   8   1    -0.12   0.12   0.11    -0.06   0.26   0.23     0.04   0.05   0.01
   9   1    -0.01   0.05   0.04     0.16  -0.08  -0.13     0.05  -0.11  -0.06
  10   1     0.00   0.10   0.05    -0.22   0.16   0.19     0.01  -0.09  -0.03
  11   1     0.02   0.14   0.27    -0.23   0.07   0.18     0.11   0.03   0.07
  12   1    -0.03   0.09  -0.28     0.10   0.06  -0.07     0.36   0.03  -0.08
  13   1    -0.17   0.19  -0.22     0.05  -0.19   0.15    -0.14   0.17  -0.14
  14   1     0.27  -0.10   0.01    -0.27   0.21   0.02     0.09  -0.05  -0.05
  15   1     0.03  -0.03  -0.04     0.01   0.17   0.18     0.01  -0.07  -0.04
                     13                     14                     15
                        a                      a                      a 
 Frequencies --  1049.0880              1064.1277              1125.1051
 Red. masses --     7.7685                 3.0064                 8.2370
 Frc consts  --     0.0000                 0.0000                 0.0000
 IR Inten    --    44.0762                81.0199                13.6313
 Raman Activ --     0.0000                 0.0000                 0.0000
 Depolar     --     0.0000                 0.0000                 0.0000
 Atom AN      X      Y      Z        X      Y      Z        X      Y      Z
   1   6     0.22   0.04  -0.02    -0.00  -0.14   0.08     0.14   0.35   0.13
   2   6    -0.23  -0.06  -0.05    -0.05   0.17  -0.10    -0.02  -0.38  -0.29
   3   6    -0.08   0.07  -0.11     0.00  -0.15   0.10    -0.09   0.15   0.23
   4   6     0.27   0.36   0.26    -0.04   0.13  -0.08     0.03  -0.30  -0.19
   5   8    -0.08  -0.36  -0.13    -0.04  -0.17  -0.11    -0.02   0.20   0.05
   6   1    -0.14   0.22   0.14     0.01   0.06  -0.03    -0.11   0.25   0.14
   7   1    -0.03  -0.30  -0.16    -0.03   0.10  -0.02    -0.03  -0.13  -0.09
   8   1    -0.13   0.00   0.01     0.05  -0.18  -0.14    -0.10   0.10   0.06
   9   1    -0.27   0.07   0.21    -0.12  -0.00   0.12    -0.05  -0.16   0.01
  10   1     0.02   0.02   0.02     0.22  -0.01  -0.08     0.19  -0.14  -0.12
  11   1    -0.11  -0.01  -0.06     0.39   0.06   0.13     0.02  -0.05  -0.04
  12   1     0.21   0.00   0.02    -0.15   0.03  -0.09     0.08  -0.02   0.15
  13   1     0.05   0.05   0.04    -0.09  -0.15  -0.05    -0.04  -0.19  -0.04
  14   1     0.08   0.07   0.06     0.14   0.32   0.23    -0.07   0.03   0.02
  15   1    -0.01  -0.11  -0.05     0.06   0.38   0.35     0.02   0.15   0.11
                     16                     17                     18
                        a                      a                      a 
 Frequencies --  1130.9961              1196.1911              1241.0721
 Red. masses --     7.5209                 5.7065                 2.9730
 Frc consts  --     0.0000                 0.0000                 0.0000
 IR Inten    --    21.1010                15.6426                10.5985
 Raman Activ --     0.0000                 0.0000                 0.0000
 Depolar     --     0.0000                 0.0000                 0.0000
 Atom AN      X      Y      Z        X      Y      Z        X      Y      Z
   1   6     0.14  -0.16  -0.06     0.02  -0.13   0.22    -0.05  -0.14   0.09
   2   6    -0.36   0.10   0.18     0.00   0.23  -0.36     0.08   0.16  -0.08
   3   6     0.43   0.05   0.04    -0.04  -0.21   0.28    -0.03   0.06  -0.10
   4   6    -0.23  -0.16  -0.25     0.05   0.12  -0.16     0.02  -0.26   0.12
   5   8     0.03   0.16   0.04     0.02   0.02   0.09    -0.03   0.07  -0.06
   6   1    -0.06   0.06   0.05    -0.00   0.18  -0.02     0.03   0.02  -0.06
   7   1    -0.01  -0.18  -0.10    -0.06   0.15  -0.04    -0.02   0.11   0.01
   8   1    -0.06  -0.07  -0.03     0.05  -0.24  -0.18     0.06  -0.12  -0.09
   9   1    -0.20   0.08   0.17    -0.05  -0.15   0.06    -0.03   0.05   0.03
  10   1    -0.14   0.14   0.17     0.21   0.16   0.01    -0.10   0.19   0.14
  11   1     0.31   0.01   0.00    -0.21   0.05   0.19    -0.45  -0.02  -0.07
  12   1     0.24   0.01   0.03     0.07   0.04  -0.07     0.54   0.01   0.04
  13   1    -0.01   0.01  -0.01     0.11   0.01   0.13    -0.16  -0.15  -0.17
  14   1    -0.16  -0.12  -0.14    -0.27  -0.10  -0.17     0.16   0.01   0.11
  15   1     0.01   0.02  -0.00    -0.05  -0.23  -0.20     0.04   0.24   0.19
                     19                     20                     21
                        a                      a                      a 
 Frequencies --  1267.5941              1304.3393              1337.7489
 Red. masses --     2.6966                 2.9893                 3.5271
 Frc consts  --     0.0000                 0.0000                 0.0000
 IR Inten    --     2.5285                60.1440                21.9345
 Raman Activ --     0.0000                 0.0000                 0.0000
 Depolar     --     0.0000                 0.0000                 0.0000
 Atom AN      X      Y      Z        X      Y      Z        X      Y      Z
   1   6     0.18  -0.03   0.22    -0.00   0.03  -0.01    -0.05  -0.02   0.00
   2   6    -0.13  -0.05  -0.08     0.00   0.02  -0.03     0.12  -0.17  -0.17
   3   6     0.05   0.09  -0.14    -0.02  -0.00   0.06     0.29   0.00   0.02
   4   6    -0.03   0.01   0.10    -0.08  -0.08   0.21     0.11   0.14   0.19
   5   8     0.01  -0.04  -0.04     0.06  -0.05  -0.28    -0.03   0.04  -0.04
   6   1    -0.06   0.25   0.07     0.01  -0.02  -0.00    -0.02   0.04  -0.01
   7   1    -0.05  -0.02  -0.10    -0.00  -0.02  -0.01     0.00   0.11   0.04
   8   1    -0.04  -0.17  -0.11    -0.01   0.00  -0.00     0.01   0.04   0.04
   9   1     0.32  -0.38  -0.31    -0.03   0.00   0.03    -0.24   0.15   0.22
  10   1    -0.28   0.29   0.30     0.09  -0.05  -0.07    -0.14   0.10   0.11
  11   1     0.05  -0.02  -0.09    -0.10   0.01   0.03    -0.15  -0.01  -0.01
  12   1    -0.29  -0.01  -0.01    -0.05  -0.01   0.03    -0.44  -0.01  -0.02
  13   1     0.01   0.08  -0.00     0.28   0.41   0.26    -0.30  -0.24  -0.29
  14   1     0.09   0.01   0.04    -0.13  -0.39  -0.24    -0.21  -0.22  -0.18
  15   1     0.02   0.06   0.05     0.08   0.42   0.32     0.01   0.09   0.06
                     22                     23                     24
                        a                      a                      a 
 Frequencies --  1347.9090              1352.8296              1413.6284
 Red. masses --     4.2392                 4.7109                 3.2203
 Frc consts  --     0.0000                 0.0000                 0.0000
 IR Inten    --    19.9102                13.4545                 2.5956
 Raman Activ --     0.0000                 0.0000                 0.0000
 Depolar     --     0.0000                 0.0000                 0.0000
 Atom AN      X      Y      Z        X      Y      Z        X      Y      Z
   1   6    -0.01   0.03   0.02    -0.10  -0.08   0.03    -0.11   0.36   0.20
   2   6     0.07   0.03   0.08     0.33  -0.25  -0.23     0.08  -0.06  -0.07
   3   6    -0.40  -0.08  -0.05    -0.25   0.11   0.05     0.03   0.03   0.03
   4   6     0.26   0.14   0.14    -0.03  -0.05  -0.11    -0.02  -0.00  -0.02
   5   8    -0.03   0.04  -0.04     0.02  -0.03   0.01     0.00  -0.01   0.01
   6   1     0.02  -0.04  -0.01    -0.01   0.08  -0.04     0.27  -0.42  -0.14
   7   1     0.00  -0.04   0.00     0.01   0.18   0.08    -0.08  -0.46  -0.13
   8   1     0.02  -0.04  -0.04     0.06   0.05   0.06     0.11  -0.32  -0.36
   9   1     0.15  -0.07  -0.12    -0.21   0.24   0.19    -0.09   0.01   0.10
  10   1    -0.09   0.01   0.03    -0.31   0.26   0.28    -0.13   0.03   0.04
  11   1     0.46   0.01   0.02     0.30   0.00  -0.01    -0.00  -0.03  -0.04
  12   1     0.31   0.03  -0.05     0.06  -0.01   0.09    -0.06   0.01  -0.01
  13   1    -0.16  -0.23  -0.15     0.20   0.19   0.18     0.01   0.02   0.01
  14   1    -0.30  -0.27  -0.25     0.04   0.11   0.07     0.02   0.03   0.02
  15   1    -0.00   0.07   0.04    -0.00  -0.04  -0.03    -0.00  -0.02  -0.02
                     25                     26                     27
                        a                      a                      a 
 Frequencies --  1465.8229              1471.8250              1491.7980
 Red. masses --     1.9325                 1.8252                 1.8870
 Frc consts  --     0.0000                 0.0000                 0.0000
 IR Inten    --     0.2211                 1.4627                 0.7608
 Raman Activ --     0.0000                 0.0000                 0.0000
 Depolar     --     0.0000                 0.0000                 0.0000
 Atom AN      X      Y      Z        X      Y      Z        X      Y      Z
   1   6     0.02   0.03   0.02     0.00   0.01  -0.00     0.01   0.04   0.01
   2   6     0.01   0.00  -0.02    -0.04  -0.09  -0.01    -0.15  -0.21   0.02
   3   6     0.00  -0.02  -0.28    -0.01   0.01   0.07    -0.00  -0.02  -0.04
   4   6    -0.03   0.05  -0.03    -0.15   0.18  -0.06     0.06  -0.05   0.04
   5   8    -0.00   0.02   0.01    -0.01   0.04   0.01     0.00  -0.01  -0.01
   6   1     0.01  -0.06   0.02    -0.01  -0.04   0.03     0.01  -0.12   0.04
   7   1    -0.02   0.02  -0.04     0.01   0.01   0.02    -0.01   0.01  -0.02
   8   1    -0.07  -0.03  -0.02    -0.03  -0.03  -0.02    -0.09  -0.06  -0.06
   9   1    -0.01  -0.05   0.02     0.03   0.20  -0.11     0.12   0.51  -0.34
  10   1    -0.05  -0.02  -0.02     0.17   0.11   0.11     0.49   0.28   0.27
  11   1    -0.01   0.43   0.48     0.01  -0.11  -0.12    -0.01   0.06   0.08
  12   1    -0.02  -0.34   0.54    -0.01   0.09  -0.13    -0.01  -0.05   0.07
  13   1     0.01  -0.17   0.10     0.08  -0.48   0.38    -0.04   0.16  -0.14
  14   1     0.14  -0.09  -0.06     0.49  -0.31  -0.19    -0.19   0.09   0.06
  15   1    -0.01  -0.00  -0.01     0.00   0.01   0.01    -0.00  -0.00  -0.00
                     28                     29                     30
                        a                      a                      a 
 Frequencies --  1501.0762              1506.0067              2865.3845
 Red. masses --     1.5233                 1.6153                 1.7463
 Frc consts  --     0.0000                 0.0000                 0.0000
 IR Inten    --     0.9648                 1.8067               126.5234
 Raman Activ --     0.0000                 0.0000                 0.0000
 Depolar     --     0.0000                 0.0000                 0.0000
 Atom AN      X      Y      Z        X      Y      Z        X      Y      Z
   1   6     0.12  -0.07   0.16    -0.17  -0.09   0.10    -0.00  -0.00   0.00
   2   6     0.04  -0.00   0.03    -0.08  -0.04   0.04    -0.00  -0.00  -0.01
   3   6    -0.01   0.00   0.02     0.02  -0.00  -0.03    -0.01  -0.01  -0.00
   4   6    -0.00   0.01  -0.00    -0.00   0.02   0.01    -0.20   0.04   0.15
   5   8    -0.00  -0.00   0.00    -0.00  -0.00  -0.00    -0.00   0.02   0.01
   6   1     0.30  -0.12  -0.29     0.24   0.42  -0.46     0.00  -0.00  -0.00
   7   1    -0.35   0.25  -0.56    -0.08  -0.30  -0.14     0.00  -0.00  -0.00
   8   1    -0.45   0.12   0.20     0.52   0.23   0.18     0.00   0.00  -0.00
   9   1    -0.01   0.01   0.03     0.03   0.07  -0.07     0.01   0.00   0.01
  10   1    -0.02  -0.03  -0.02     0.10   0.02   0.03     0.00  -0.00   0.00
  11   1     0.02  -0.03  -0.04     0.00   0.04   0.04     0.00  -0.01   0.01
  12   1     0.01   0.03  -0.04    -0.01  -0.03   0.04    -0.00   0.04   0.02
  13   1    -0.00  -0.00   0.00    -0.01  -0.03   0.01     0.76  -0.27  -0.52
  14   1     0.00  -0.00  -0.00     0.01  -0.02  -0.02    -0.03   0.06  -0.05
  15   1    -0.00  -0.00  -0.00    -0.01   0.01   0.00     0.01  -0.00  -0.00
                     31                     32                     33
                        a                      a                      a 
 Frequencies --  2956.4755              2965.3095              2972.9433
 Red. masses --     1.9199                 1.8173                 1.6664
 Frc consts  --     0.0000                 0.0000                 0.0000
 IR Inten    --    67.8478                 8.6332                32.6544
 Raman Activ --     0.0000                 0.0000                 0.0000
 Depolar     --     0.0000                 0.0000                 0.0000
 Atom AN      X      Y      Z        X      Y      Z        X      Y      Z
   1   6     0.01  -0.01   0.01     0.00   0.00  -0.00    -0.01  -0.00   0.00
   2   6    -0.17   0.05  -0.23     0.04   0.02   0.02     0.05   0.09  -0.03
   3   6    -0.01  -0.02   0.03     0.01  -0.23   0.06     0.01  -0.11   0.00
   4   6     0.00  -0.00   0.00     0.01   0.07  -0.10    -0.01  -0.12   0.14
   5   8    -0.00  -0.00  -0.00     0.00   0.01   0.00    -0.00  -0.01  -0.00
   6   1    -0.04  -0.02  -0.03     0.00   0.00   0.00     0.01   0.00   0.01
   7   1    -0.01  -0.00   0.01    -0.00   0.00   0.00     0.02   0.00  -0.01
   8   1    -0.00   0.04  -0.03     0.00  -0.01   0.01    -0.00   0.01  -0.01
   9   1     0.60   0.18   0.50    -0.15  -0.04  -0.13    -0.22  -0.05  -0.19
  10   1    -0.00  -0.35   0.33     0.01  -0.07   0.08     0.03  -0.30   0.31
  11   1     0.00   0.14  -0.12    -0.00   0.53  -0.46     0.00   0.15  -0.14
  12   1     0.00  -0.06  -0.02    -0.02   0.31   0.21    -0.01   0.24   0.15
  13   1    -0.01   0.00   0.01     0.03  -0.00  -0.04    -0.06   0.00   0.06
  14   1     0.00  -0.00   0.00    -0.05  -0.30   0.39     0.08   0.44  -0.58
  15   1     0.00   0.00   0.00     0.00   0.00  -0.00    -0.00  -0.01   0.01
                     34                     35                     36
                        a                      a                      a 
 Frequencies --  2977.4769              2983.9471              3023.9756
 Red. masses --     1.6378                 1.5558                 1.9223
 Frc consts  --     0.0000                 0.0000                 0.0000
 IR Inten    --   166.2764                85.3383                99.5521
 Raman Activ --     0.0000                 0.0000                 0.0000
 Depolar     --     0.0000                 0.0000                 0.0000
 Atom AN      X      Y      Z        X      Y      Z        X      Y      Z
   1   6    -0.01  -0.01   0.01     0.01   0.00  -0.00    -0.09  -0.16   0.22
   2   6     0.05   0.14  -0.08    -0.05  -0.06  -0.01    -0.00  -0.02   0.02
   3   6     0.00   0.09  -0.10     0.01  -0.12  -0.17     0.00  -0.01   0.00
   4   6     0.00   0.06  -0.08     0.01  -0.01  -0.01     0.00  -0.00   0.00
   5   8     0.00   0.00   0.00    -0.00  -0.00  -0.00    -0.00   0.00  -0.00
   6   1     0.01   0.00   0.01    -0.02  -0.01  -0.02    -0.03  -0.03   0.02
   7   1     0.05   0.00  -0.03    -0.04  -0.00   0.02     0.43   0.01  -0.23
   8   1    -0.01   0.04  -0.04     0.00  -0.01   0.01    -0.08   0.58  -0.57
   9   1    -0.21  -0.04  -0.20     0.20   0.05   0.17     0.00  -0.00   0.00
  10   1     0.04  -0.46   0.48    -0.02   0.15  -0.16    -0.00   0.06  -0.06
  11   1     0.00  -0.38   0.31     0.00  -0.29   0.21     0.00   0.02  -0.02
  12   1    -0.00   0.07   0.02    -0.04   0.73   0.41    -0.00   0.02   0.01
  13   1     0.02   0.00  -0.03    -0.03   0.01   0.02    -0.00   0.00   0.00
  14   1    -0.04  -0.24   0.31     0.00   0.00  -0.00    -0.00   0.00  -0.00
  15   1    -0.00   0.00  -0.01    -0.00  -0.00   0.00     0.00  -0.00   0.00
                     37                     38                     39
                        a                      a                      a 
 Frequencies --  3031.8483              3051.9628              3499.4238
 Red. masses --     1.6018                 1.6210                 1.8746
 Frc consts  --     0.0000                 0.0000                 0.0000
 IR Inten    --    66.0362                30.6703                59.4560
 Raman Activ --     0.0000                 0.0000                 0.0000
 Depolar     --     0.0000                 0.0000                 0.0000
 Atom AN      X      Y      Z        X      Y      Z        X      Y      Z
   1   6     0.22  -0.07   0.00     0.16   0.07   0.15    -0.00   0.00  -0.00
   2   6     0.02   0.00   0.01     0.01   0.00   0.01    -0.00   0.00  -0.00
   3   6    -0.00   0.00   0.00     0.00   0.00   0.00    -0.00   0.00   0.00
   4   6    -0.00   0.00   0.00    -0.00  -0.00   0.00     0.00   0.01  -0.00
   5   8     0.00   0.00   0.00     0.00  -0.00  -0.00     0.03   0.15  -0.18
   6   1    -0.08  -0.04  -0.09    -0.72  -0.22  -0.59     0.00   0.00  -0.00
   7   1    -0.70  -0.06   0.44     0.12   0.01  -0.04    -0.00  -0.00   0.00
   8   1    -0.01   0.35  -0.35     0.03  -0.06   0.08     0.00  -0.00   0.00
   9   1    -0.04  -0.01  -0.04    -0.04  -0.01  -0.03    -0.00  -0.00  -0.00
  10   1     0.00  -0.01   0.01     0.00   0.01  -0.00    -0.00  -0.00   0.00
  11   1     0.00   0.00  -0.00     0.00  -0.00   0.00     0.00   0.00   0.00
  12   1     0.00  -0.02  -0.01     0.00  -0.01  -0.00    -0.00  -0.00  -0.00
  13   1     0.00  -0.00  -0.00     0.00   0.00  -0.00     0.00  -0.00   0.00
  14   1    -0.00  -0.00   0.00    -0.00   0.00  -0.00    -0.00  -0.00   0.01
  15   1    -0.00  -0.00  -0.00    -0.00  -0.00   0.00    -0.14  -0.63   0.72
