      -----------------------------------------------------------      
     |                   =====================                   |     
     |                           x T B                           |     
     |                   =====================                   |     
     |                         S. Grimme                         |     
     |          Mulliken Center for Theoretical Chemistry        |     
     |                    University of Bonn                     |     
      -----------------------------------------------------------      

   * xtb version 6.7.1 (edcfbbe) compiled by 'albert@albert-system' on 2024-07-22

   xtb is free software: you can redistribute it and/or modify it under
   the terms of the GNU Lesser General Public License as published by
   the Free Software Foundation, either version 3 of the License, or
   (at your option) any later version.
   
   xtb is distributed in the hope that it will be useful,
   but WITHOUT ANY WARRANTY; without even the implied warranty of
   MERCHANTABILITY or FITNESS FOR A PARTICULAR PURPOSE.  See the
   GNU Lesser General Public License for more details.
   
   Cite this work as:
   * C. Bannwarth, E. Caldeweyher, S. Ehlert, A. Hansen, P. Pracht,
     J. Seibert, S. Spicher, S. Grimme, WIREs Comput. Mol. Sci., 2020, 11,
     e01493. DOI: 10.1002/wcms.1493
   
   for GFN2-xTB:
   * C. Bannwarth, S. Ehlert and S. Grimme., J. Chem. Theory Comput., 2019,
     15, 1652-1671. DOI: 10.1021/acs.jctc.8b01176
   for GFN1-xTB:
   * S. Grimme, C. Bannwarth, P. Shushkov, J. Chem. Theory Comput., 2017,
     13, 1989-2009. DOI: 10.1021/acs.jctc.7b00118
   for GFN0-xTB:
   * P. Pracht, E. Caldeweyher, S. Ehlert, S. Grimme, ChemRxiv, 2019, preprint.
     DOI: 10.26434/chemrxiv.8326202.v1
   for GFN-FF:
   * S. Spicher and S. Grimme, Angew. Chem. Int. Ed., 2020, 59, 15665-15673.
     DOI: 10.1002/anie.202004239
   
   for ALPB and GBSA implicit solvation:
   * S. Ehlert, M. Stahn, S. Spicher, S. Grimme, J. Chem. Theory Comput.,
     2021, 17, 4250-4261. DOI: 10.1021/acs.jctc.1c00471
   
   for ddCOSMO and CPCM-X implicit solvation:
   * M. Stahn, S. Ehlert, S. Grimme, J. Phys. Chem. A,
     2023, XX, XXXX-XXXX. DOI: 10.1021/acs.jpca.3c04382
   
   for DFT-D4:
   * E. Caldeweyher, C. Bannwarth and S. Grimme, J. Chem. Phys., 2017,
     147, 034112. DOI: 10.1063/1.4993215
   * E. Caldeweyher, S. Ehlert, A. Hansen, H. Neugebauer, S. Spicher,
     C. Bannwarth and S. Grimme, J. Chem. Phys., 2019, 150, 154122.
     DOI: 10.1063/1.5090222
   * E. Caldeweyher, J.-M. Mewes, S. Ehlert and S. Grimme, Phys. Chem. Chem. Phys.
     2020, 22, 8499-8512. DOI: 10.1039/D0CP00502A
   
   for sTDA-xTB:
   * S. Grimme and C. Bannwarth, J. Chem. Phys., 2016, 145, 054103.
     DOI: 10.1063/1.4959605
   
   in the mass-spec context:
   * V. Asgeirsson, C. Bauer and S. Grimme, Chem. Sci., 2017, 8, 4879.
     DOI: 10.1039/c7sc00601b
   * J. Koopman and S. Grimme, ACS Omega 2019, 4, 12, 15120-15133.
     DOI: 10.1021/acsomega.9b02011
   
   for metadynamics refer to:
   * S. Grimme, J. Chem. Theory Comput., 2019, 155, 2847-2862
     DOI: 10.1021/acs.jctc.9b00143
   
   for SPH calculations refer to:
   * S. Spicher and S. Grimme, J. Chem. Theory Comput., 2021, 17, 1701-1714
     DOI: 10.1021/acs.jctc.0c01306
   
   for ONIOM refer to:
   * C. Plett, A. Katbashev, S. Ehlert, S. Grimme, M. Bursch,
     Phys. Chem. Chem. Phys., 2023, 25, 17860-17868. DOI: 10.1039/D3CP02178E
   
   for DIPRO refer to:
   * J. Kohn, N. Gildemeister, S. Grimme, D. Fazzi, A. Hansen,
     J. Chem. Phys., 2023, just accepted.
   
   for PTB refer to:
   * S. Grimme, M. Mueller, A. Hansen, J. Chem. Phys., 2023, 158, 124111.
     DOI: 10.1063/5.0137838
   
   with help from (in alphabetical order)
   P. Atkinson, C. Bannwarth, F. Bohle, G. Brandenburg, E. Caldeweyher
   M. Checinski, S. Dohm, S. Ehlert, S. Ehrlich, I. Gerasimov, C. Hölzer
   A. Katbashev, J. Kohn, J. Koopman, C. Lavigne, S. Lehtola, F. März, M. Müller,
   F. Musil, H. Neugebauer, J. Pisarek, C. Plett, P. Pracht, F. Pultar,
   J. Seibert, P. Shushkov, S. Spicher, M. Stahn, M. Steiner, T. Strunk,
   J. Stückrath, T. Rose, and J. Unsleber
   
 * started run on 2025/04/06 at 22:34:25.826     
   ID    Z sym.   atoms
    1    6 C      1-4
    2    8 O      5
    3    1 H      6-15

           -------------------------------------------------
          |                Calculation Setup                |
           -------------------------------------------------

          program call               : /srv/scratch/z5358697/.xtb/bin/xtb xtb_rrho.coord --gfn2 --bhess vtight --chrg 0 --enso --norestart -I rrho-xcontrol-inp --parallel 1 --alpb water
          hostname                   : k159
          coordinate file            : xtb_rrho.coord
          omp threads                :                     1


           -------------------------------------------------
          |                 G F N 2 - x T B                 |
           -------------------------------------------------

        Reference                      10.1021/acs.jctc.8b01176
      * Hamiltonian:
        H0-scaling (s, p, d)           1.850000    2.230000    2.230000
        zeta-weighting                 0.500000
      * Dispersion:
        s8                             2.700000
        a1                             0.520000
        a2                             5.000000
        s9                             5.000000
      * Repulsion:
        kExp                           1.500000    1.000000
        rExp                           1.000000
      * Coulomb:
        alpha                          2.000000
        third order                    shell-resolved
        anisotropic                    true
        a3                             3.000000
        a5                             4.000000
        cn-shift                       1.200000
        cn-exp                         4.000000
        max-rad                        5.000000

      * Solvation model:               ALPB
        Solvent                        water
        Parameter file                 internal GFN2-xTB/ALPB
        Dielectric constant                8.0200E+01
        Reference state                gsolv [1 M gas/solution]
        Free energy shift                  1.0808E-03 Eh       6.7819E-01 kcal/mol
        Temperature                        2.9815E+02 K
        Density                            1.0000E+00 kg/L
        Solvent mass                       1.8000E+01 g/mol
        Interaction kernel             P16
        Born radius scaling (c1)           1.4744E+00
        Born radii integrator          GBOBC
        Born offset                        0.0000E+00 a0       0.0000E+00 AA
        H-bond correction              true
        Ion screening                  false
        Surface tension                    1.0000E-05 Eh       1.5569E+01 dyn/cm
        Grid points                               974 per atom

          ...................................................
          :                      SETUP                      :
          :.................................................:
          :  # basis functions                  30          :
          :  # atomic orbitals                  30          :
          :  # shells                           20          :
          :  # electrons                        32          :
          :  max. iterations                   250          :
          :  Hamiltonian                  GFN2-xTB          :
          :  restarted?                      false          :
          :  GBSA solvation                   true          :
          :  PC potential                    false          :
          :  electronic temp.          300.0000000     K    :
          :  accuracy                    1.0000000          :
          :  -> integral cutoff          0.2500000E+02      :
          :  -> integral neglect         0.1000000E-07      :
          :  -> SCF convergence          0.1000000E-05 Eh   :
          :  -> wf. convergence          0.1000000E-03 e    :
          :  Broyden damping             0.4000000          :
          :  net charge                          0          :
          :  unpaired electrons                  0          :
          ...................................................

 iter      E             dE          RMSdq      gap      omega  full diag
   1    -17.9055399 -0.179055E+02  0.331E+00   12.11       0.0  T
   2    -17.9313861 -0.258462E-01  0.173E+00   11.90       1.0  T
   3    -17.9321109 -0.724795E-03  0.615E-01   11.90       1.0  T
   4    -17.9322443 -0.133359E-03  0.115E-01   11.87       1.0  T
   5    -17.9322580 -0.136667E-04  0.625E-02   11.88       1.0  T
   6    -17.9322604 -0.246862E-05  0.126E-02   11.88       2.1  T
   7    -17.9322607 -0.277086E-06  0.584E-03   11.88       4.4  T
   8    -17.9322608 -0.616748E-07  0.220E-03   11.88      11.7  T
   9    -17.9322608 -0.607439E-08  0.547E-04   11.88      47.2  T
  10    -17.9322608 -0.991456E-09  0.196E-04   11.88     132.0  T

   *** convergence criteria satisfied after 10 iterations ***

         #    Occupation            Energy/Eh            Energy/eV
      -------------------------------------------------------------
         1        2.0000           -0.6824049             -18.5692
       ...           ...                  ...                  ...
        10        2.0000           -0.4804497             -13.0737
        11        2.0000           -0.4735087             -12.8848
        12        2.0000           -0.4481794             -12.1956
        13        2.0000           -0.4412993             -12.0084
        14        2.0000           -0.4334959             -11.7960
        15        2.0000           -0.4254636             -11.5775
        16        2.0000           -0.4045698             -11.0089 (HOMO)
        17                          0.0321651               0.8753 (LUMO)
        18                          0.0778604               2.1187
        19                          0.0948304               2.5805
        20                          0.1207658               3.2862
        21                          0.1402328               3.8159
       ...                                ...                  ...
        30                          0.2922846               7.9535
      -------------------------------------------------------------
                  HL-Gap            0.4367349 Eh           11.8842 eV
             Fermi-level           -0.1862024 Eh           -5.0668 eV

 SCC (total)                   0 d,  0 h,  0 min,  0.042 sec
 SCC setup                      ...        0 min,  0.001 sec (  1.651%)
 Dispersion                     ...        0 min,  0.000 sec (  0.137%)
 classical contributions        ...        0 min,  0.000 sec (  0.031%)
 integral evaluation            ...        0 min,  0.001 sec (  2.416%)
 iterations                     ...        0 min,  0.039 sec ( 91.147%)
 molecular gradient             ...        0 min,  0.002 sec (  4.365%)
 printout                       ...        0 min,  0.000 sec (  0.227%)

         :::::::::::::::::::::::::::::::::::::::::::::::::::::
         ::                     SUMMARY                     ::
         :::::::::::::::::::::::::::::::::::::::::::::::::::::
         :: total energy             -17.726368625110 Eh    ::
         :: total w/o Gsasa/hb       -17.722981262237 Eh    ::
         :: gradient norm              0.027728227442 Eh/a0 ::
         :: HOMO-LUMO gap             11.884160610055 eV    ::
         ::.................................................::
         :: SCC energy               -17.932247160423 Eh    ::
         :: -> isotropic ES            0.035594569417 Eh    ::
         :: -> anisotropic ES          0.004061917105 Eh    ::
         :: -> anisotropic XC          0.006607270765 Eh    ::
         :: -> dispersion             -0.007361009938 Eh    ::
         :: -> Gsolv                  -0.008137096332 Eh    ::
         ::    -> Gelec               -0.004749733458 Eh    ::
         ::    -> Gsasa                0.000449966340 Eh    ::
         ::    -> Ghb                 -0.004918088912 Eh    ::
         ::    -> Gshift               0.001080759698 Eh    ::
         :: repulsion energy           0.205878535313 Eh    ::
         :: add. restraining           0.000000000000 Eh    ::
         :: total charge               0.000000000000 e     ::
         :::::::::::::::::::::::::::::::::::::::::::::::::::::

metadynamics with 1 initial structures loaded
           -------------------------------------------------
          |           Optimal kpush determination           |
           -------------------------------------------------
      ----------------------------------------------------------- 
     |                   =====================                   |
     |                        A N C O P T                        |
     |                   =====================                   |
     |               Approximate Normal Coordinate               |
     |                Rational Function Optimizer                |
      ----------------------------------------------------------- 
target rmsd / Å         0.100000
unbiased initial rmsd   0.108578
 
iter. min.        max.        rmsd       kpush
      ----------------------------------------------------------- 
     |                   =====================                   |
     |                        A N C O P T                        |
     |                   =====================                   |
     |               Approximate Normal Coordinate               |
     |                Rational Function Optimizer                |
      ----------------------------------------------------------- 
 1    0.000000    0.681818    0.011530   -0.340909
      ----------------------------------------------------------- 
     |                   =====================                   |
     |                        A N C O P T                        |
     |                   =====================                   |
     |               Approximate Normal Coordinate               |
     |                Rational Function Optimizer                |
      ----------------------------------------------------------- 
 2    0.000000    0.340909    0.016134   -0.170455
      ----------------------------------------------------------- 
     |                   =====================                   |
     |                        A N C O P T                        |
     |                   =====================                   |
     |               Approximate Normal Coordinate               |
     |                Rational Function Optimizer                |
      ----------------------------------------------------------- 
 3    0.000000    0.170455    0.023558   -0.085227
      ----------------------------------------------------------- 
     |                   =====================                   |
     |                        A N C O P T                        |
     |                   =====================                   |
     |               Approximate Normal Coordinate               |
     |                Rational Function Optimizer                |
      ----------------------------------------------------------- 
 4    0.000000    0.085227    0.034659   -0.042614
      ----------------------------------------------------------- 
     |                   =====================                   |
     |                        A N C O P T                        |
     |                   =====================                   |
     |               Approximate Normal Coordinate               |
     |                Rational Function Optimizer                |
      ----------------------------------------------------------- 
 5    0.000000    0.042614    0.049173   -0.021307
      ----------------------------------------------------------- 
     |                   =====================                   |
     |                        A N C O P T                        |
     |                   =====================                   |
     |               Approximate Normal Coordinate               |
     |                Rational Function Optimizer                |
      ----------------------------------------------------------- 
 6    0.000000    0.021307    0.065178   -0.010653
      ----------------------------------------------------------- 
     |                   =====================                   |
     |                        A N C O P T                        |
     |                   =====================                   |
     |               Approximate Normal Coordinate               |
     |                Rational Function Optimizer                |
      ----------------------------------------------------------- 
 7    0.000000    0.010653    0.079940   -0.005327
      ----------------------------------------------------------- 
     |                   =====================                   |
     |                        A N C O P T                        |
     |                   =====================                   |
     |               Approximate Normal Coordinate               |
     |                Rational Function Optimizer                |
      ----------------------------------------------------------- 
 8    0.000000    0.005327    0.091169   -0.002663
      ----------------------------------------------------------- 
     |                   =====================                   |
     |                        A N C O P T                        |
     |                   =====================                   |
     |               Approximate Normal Coordinate               |
     |                Rational Function Optimizer                |
      ----------------------------------------------------------- 
 9    0.000000    0.002663    0.098613   -0.001332
      ----------------------------------------------------------- 
     |                   =====================                   |
     |                        A N C O P T                        |
     |                   =====================                   |
     |               Approximate Normal Coordinate               |
     |                Rational Function Optimizer                |
      ----------------------------------------------------------- 
10    0.000000    0.001332    0.103287   -0.000666
final kpush: -0.000666
           -------------------------------------------------
          |            Biased Numerical Hessian             |
           -------------------------------------------------
kpush                :  -0.00067
alpha                :   1.00000
step length          :   0.00500
SCC accuracy         :   0.30000
Hessian scale factor :   1.00000
frozen atoms in %    :   0.00000    0
RMS gradient         :   0.00003
estimated CPU  time      0.01 min
estimated wall time      0.01 min

writing file <hessian>.

 projected vibrational frequencies (cm⁻¹)
eigval :       -0.00    -0.00    -0.00    -0.00     0.00     0.00
eigval :       86.67   143.03   233.54   305.76   345.69   355.60
eigval :      488.70   812.84   846.04   887.64   951.69   987.68
eigval :     1049.09  1064.13  1125.11  1131.00  1196.19  1241.07
eigval :     1267.59  1304.34  1337.75  1347.91  1352.83  1413.63
eigval :     1465.82  1471.83  1491.80  1501.08  1506.01  2865.38
eigval :     2956.48  2965.31  2972.94  2977.48  2983.95  3023.98
eigval :     3031.85  3051.96  3499.42
           -------------------------------------------------
          |                Property Printout                |
           -------------------------------------------------

    * Orbital Energies and Occupations

         #    Occupation            Energy/Eh            Energy/eV
      -------------------------------------------------------------
         1        2.0000           -0.6862691             -18.6743
       ...           ...                  ...                  ...
         4        2.0000           -0.5883420             -16.0096
         5        2.0000           -0.5636179             -15.3368
         6        2.0000           -0.5433030             -14.7840
         7        2.0000           -0.5270001             -14.3404
         8        2.0000           -0.5205144             -14.1639
         9        2.0000           -0.4903623             -13.3434
        10        2.0000           -0.4790399             -13.0353
        11        2.0000           -0.4731846             -12.8760
        12        2.0000           -0.4476474             -12.1811
        13        2.0000           -0.4421694             -12.0320
        14        2.0000           -0.4329204             -11.7804
        15        2.0000           -0.4259379             -11.5904
        16        2.0000           -0.4011007             -10.9145 (HOMO)
        17                          0.0579572               1.5771 (LUMO)
        18                          0.0835077               2.2724
        19                          0.1054020               2.8681
        20                          0.1301272               3.5409
        21                          0.1443731               3.9286
        22                          0.1526892               4.1549
        23                          0.1735608               4.7228
        24                          0.1918053               5.2193
        25                          0.1973823               5.3710
        26                          0.2290970               6.2340
        27                          0.2486974               6.7674
       ...                                ...                  ...
        30                          0.3050455               8.3007
      -------------------------------------------------------------
                  HL-Gap            0.4590579 Eh           12.4916 eV
             Fermi-level           -0.1715718 Eh           -4.6687 eV

     #   Z          covCN         q      C6AA      α(0)
     1   6 C        3.751    -0.111    22.690     6.793
     2   6 C        3.800    -0.057    21.599     6.617
     3   6 C        3.800    -0.077    21.969     6.674
     4   6 C        3.673     0.080    19.479     6.325
     5   8 O        1.654    -0.513    23.171     6.498
     6   1 H        0.925     0.049     2.332     2.388
     7   1 H        0.925     0.032     2.562     2.503
     8   1 H        0.925     0.035     2.512     2.478
     9   1 H        0.924     0.033     2.540     2.492
    10   1 H        0.924     0.032     2.558     2.501
    11   1 H        0.924     0.046     2.373     2.409
    12   1 H        0.924     0.040     2.449     2.447
    13   1 H        0.923     0.018     2.759     2.598
    14   1 H        0.924     0.044     2.399     2.422
    15   1 H        0.805     0.349     0.591     1.207

 Mol. C6AA /au·bohr⁶  :       1461.352766
 Mol. C8AA /au·bohr⁸  :      29910.810744
 Mol. α(0) /au        :         56.352832


Wiberg/Mayer (AO) data.
largest (>0.10) Wiberg bond orders for each atom

 ---------------------------------------------------------------------------
     #   Z sym  total        # sym  WBO       # sym  WBO       # sym  WBO
 ---------------------------------------------------------------------------
     1   6 C    3.996 --     2 C    1.021     8 H    0.988     7 H    0.987
                             6 H    0.985
     2   6 C    3.998 --     1 C    1.021     3 C    1.008     9 H    0.978
                            10 H    0.978
     3   6 C    3.996 --     2 C    1.008     4 C    0.998    12 H    0.976
                            11 H    0.974
     4   6 C    3.953 --     3 C    0.998     5 O    0.994    14 H    0.972
                            13 H    0.972
     5   8 O    1.919 --     4 C    0.994    15 H    0.864
     6   1 H    0.998 --     1 C    0.985
     7   1 H    0.999 --     1 C    0.987
     8   1 H    0.999 --     1 C    0.988
     9   1 H    0.999 --     2 C    0.978
    10   1 H    0.999 --     2 C    0.978
    11   1 H    0.998 --     3 C    0.974
    12   1 H    0.998 --     3 C    0.976
    13   1 H    1.000 --     4 C    0.972
    14   1 H    0.998 --     4 C    0.972
    15   1 H    0.878 --     5 O    0.864
 ---------------------------------------------------------------------------

Topologies differ in total number of bonds
Writing topology from bond orders to xtbtopo.mol

molecular dipole:
                 x           y           z       tot (Debye)
 q only:        0.090       0.028       0.661
   full:        0.063       0.052       0.837       2.137
molecular quadrupole (traceless):
                xx          xy          yy          xz          yz          zz
 q only:       -0.868       0.396       1.778      -2.721      -1.525      -0.910
  q+dip:       -0.726       0.257       1.319      -3.575      -3.155      -0.593
   full:       -0.917       0.366       1.767      -3.607      -2.715      -0.850

           -------------------------------------------------
          |                Geometry Summary                 |
           -------------------------------------------------

      molecular mass/u    :       74.1217560
   center of mass at/Å    :       -0.0001057      -0.0011345       0.0014433
  moments of inertia/u·Å² :        0.6838650E+02   0.1431136E+03   0.1879098E+03
rotational constants/cm⁻¹ :        0.2465053E+00   0.1177919E+00   0.8971132E-01

 * 14 selected distances

     #   Z          #   Z                                           value/Å
     1   6 C        2   6 C                                       1.5243886
     2   6 C        3   6 C                                       1.5299388
     3   6 C        4   6 C                                       1.5318925 (max)
     4   6 C        5   8 O                                       1.4125672
     1   6 C        6   1 H                                       1.0866784
     1   6 C        7   1 H                                       1.0874659
     1   6 C        8   1 H                                       1.0879012
     2   6 C        9   1 H                                       1.0926544
     2   6 C       10   1 H                                       1.0921986
     3   6 C       11   1 H                                       1.0924547
     3   6 C       12   1 H                                       1.0914358
     4   6 C       13   1 H                                       1.0992745
     4   6 C       14   1 H                                       1.0928768
     5   8 O       15   1 H                                       0.9670159 (min)

 * 4 distinct bonds (by element types)

   Z      Z             #   av. dist./Å        max./Å        min./Å
   1 H    6 C           9     1.0914378     1.0992745     1.0866784
   6 C    6 C           3     1.5287400     1.5318925     1.5243886
   1 H    8 O           1     0.9670159     0.9670159     0.9670159
   6 C    8 O           1     1.4125672     1.4125672     1.4125672

           -------------------------------------------------
          |               Frequency Printout                |
           -------------------------------------------------
 projected vibrational frequencies (cm⁻¹)
eigval :       -0.00    -0.00    -0.00    -0.00     0.00     0.00
eigval :       86.67   143.03   233.54   305.76   345.69   355.60
eigval :      488.70   812.84   846.04   887.64   951.69   987.68
eigval :     1049.09  1064.13  1125.11  1131.00  1196.19  1241.07
eigval :     1267.59  1304.34  1337.75  1347.91  1352.83  1413.63
eigval :     1465.82  1471.83  1491.80  1501.08  1506.01  2865.38
eigval :     2956.48  2965.31  2972.94  2977.48  2983.95  3023.98
eigval :     3031.85  3051.96  3499.42
 reduced masses (amu)
   1: 12.40   2:  9.75   3: 10.60   4:  9.64   5: 11.24   6: 10.77   7:  7.64   8:  9.50
   9:  3.11  10:  4.76  11:  7.80  12:  5.91  13:  7.11  14:  2.99  15:  8.12  16:  5.64
  17:  4.44  18:  8.21  19:  7.77  20:  3.01  21:  8.24  22:  7.52  23:  5.71  24:  2.97
  25:  2.70  26:  2.99  27:  3.53  28:  4.24  29:  4.71  30:  3.22  31:  1.93  32:  1.83
  33:  1.89  34:  1.52  35:  1.62  36:  1.75  37:  1.92  38:  1.82  39:  1.67  40:  1.64
  41:  1.56  42:  1.92  43:  1.60  44:  1.62  45:  1.87
 IR intensities (km·mol⁻¹)
   1:  1.42   2:  0.50   3:  0.55   4:  1.35   5:  0.22   6:  0.02   7:  4.58   8:  0.27
   9: 12.08  10: 68.71  11: 18.96  12:124.94  13: 24.42  14: 15.24  15:  1.54  16:  7.98
  17: 38.87  18: 10.80  19: 44.08  20: 81.02  21: 13.63  22: 21.10  23: 15.64  24: 10.60
  25:  2.53  26: 60.14  27: 21.93  28: 19.91  29: 13.45  30:  2.60  31:  0.22  32:  1.46
  33:  0.76  34:  0.96  35:  1.81  36:126.52  37: 67.85  38:  8.63  39: 32.65  40:166.28
  41: 85.34  42: 99.55  43: 66.04  44: 30.67  45: 59.46
 Raman intensities (Ä⁴*amu⁻¹)
   1:  0.00   2:  0.00   3:  0.00   4:  0.00   5:  0.00   6:  0.00   7:  0.00   8:  0.00
   9:  0.00  10:  0.00  11:  0.00  12:  0.00  13:  0.00  14:  0.00  15:  0.00  16:  0.00
  17:  0.00  18:  0.00  19:  0.00  20:  0.00  21:  0.00  22:  0.00  23:  0.00  24:  0.00
  25:  0.00  26:  0.00  27:  0.00  28:  0.00  29:  0.00  30:  0.00  31:  0.00  32:  0.00
  33:  0.00  34:  0.00  35:  0.00  36:  0.00  37:  0.00  38:  0.00  39:  0.00  40:  0.00
  41:  0.00  42:  0.00  43:  0.00  44:  0.00  45:  0.00
 output can be read by thermo (or use thermo option).
 writing <g98.out> molden fake output.
 recommended (thermochemical) frequency scaling factor: 1.0
           -------------------------------------------------
          |             Thermodynamic Functions             |
           -------------------------------------------------

Molecule has no symmetry elements
It seems to be the C1 point group
c1  symmetry found (for desy threshold:  0.10E+00) used in thermo

          ...................................................
          :                      SETUP                      :
          :.................................................:
          :  # frequencies                          39      :
          :  # imaginary freq.                       0      :
          :  linear?                             false      :
          :  only rotor calc.                    false      :
          :  symmetry                               c1      :
          :  rotational number                       1      :
          :  scaling factor                  1.0000000      :
          :  rotor cutoff                    0.0000000 cm⁻¹ :
          :  imag. cutoff                 -100.0000000 cm⁻¹ :
          :.................................................:

    mode    ω/cm⁻¹     T·S(HO)/kcal·mol⁻¹    T·S(FR)/kcal·mol⁻¹   T·S(vib)
   ------------------------------------------------------------------------
       1     86.67    -1.11324 (100.00%)    -0.89316 (  0.00%)    -1.11324
       2    143.03    -0.82377 (100.00%)    -0.74493 (  0.00%)    -0.82377
       3    233.54    -0.55205 (100.00%)    -0.59978 (  0.00%)    -0.55205
   ------------------------------------------------------------------------

   temp. (K)  partition function   enthalpy   heat capacity  entropy
                                   cal/mol     cal/K/mol   cal/K/mol   J/K/mol
 298.15  VIB   20.8                 2380.172     17.019     14.018
         ROT  0.104E+06              888.752      2.981     25.930
         INT  0.216E+07             3268.924     20.000     39.949
         TR   0.617E+27             1481.254      4.968     38.808
         TOT                        4750.1780    24.9682    78.7565   329.5172

       T/K    H(0)-H(T)+PV         H(T)/Eh          T*S/Eh         G(T)/Eh
   ------------------------------------------------------------------------
    298.15    0.756989E-02    0.142075E+00    0.374198E-01    0.104655E+00
   ------------------------------------------------------------------------

         :::::::::::::::::::::::::::::::::::::::::::::::::::::
         ::                  THERMODYNAMIC                  ::
         :::::::::::::::::::::::::::::::::::::::::::::::::::::
         :: total free energy         -17.624035789346 Eh   ::
         ::.................................................::
         :: total energy              -17.728690710411 Eh   ::
         :: zero point energy           0.134504790456 Eh   ::
         :: G(RRHO) w/o ZPVE           -0.029849869392 Eh   ::
         :: G(RRHO) contrib.            0.104654921064 Eh   ::
         :::::::::::::::::::::::::::::::::::::::::::::::::::::

optimized geometry written to: xtbopt.coord


           -------------------------------------------------
          | TOTAL ENERGY              -17.728690710411 Eh   |
          | TOTAL ENTHALPY            -17.586616029540 Eh   |
          | TOTAL FREE ENERGY         -17.624035789346 Eh   |
          | GRADIENT NORM               0.000028258804 Eh/α |
          | HOMO-LUMO GAP              12.491601150880 eV   |
           -------------------------------------------------

------------------------------------------------------------------------
 * finished run on 2025/04/06 at 22:34:27.069     
------------------------------------------------------------------------
 total:
 * wall-time:     0 d,  0 h,  0 min,  1.242 sec
 *  cpu-time:     0 d,  0 h,  0 min,  1.076 sec
 * ratio c/w:     0.866 speedup
 SCF:
 * wall-time:     0 d,  0 h,  0 min,  0.043 sec
 *  cpu-time:     0 d,  0 h,  0 min,  0.007 sec
 * ratio c/w:     0.171 speedup
 analytical hessian:
 * wall-time:     0 d,  0 h,  0 min,  0.358 sec
 *  cpu-time:     0 d,  0 h,  0 min,  0.352 sec
 * ratio c/w:     0.984 speedup

