! wb97x-v def2-tzvp def2/J RIJCOSX DEFGRID2 scfconv7 GCP(DFT/TZ) printgap
%output
    printlevel normal
end
* xyz 0 1
C 3.2401984682677263 -0.04626556940589913 1.0061541150683433
C 1.9214439569018176 -0.08655737713328782 0.3163982690806129
C 1.3437831757152683 1.0274112926959096 -0.19096877970146553
C 0.035400981411230915 1.0158157027175412 -0.8243995411526878
O -0.40318903001041423 2.0218262931131257 -1.4057795199453014
C -0.7839380870975529 -0.2514038718061329 -0.7034950128143199
H -1.5187959469978394 -0.2487088919232749 -1.5181243628830288
C 0.16266324185862022 -1.4489033178336417 -0.8564715771263856
C 1.2618914033005288 -1.4263399158181407 0.2011608492795076
C -1.57310728868123 -0.24266570125897519 0.6384465222686759
C -2.5395170438573302 0.9409221540769138 0.7061498421252153
C -2.3397426549763183 -1.552671085485519 0.8275057376982841
H 3.6217617393430044 0.9716003588733335 1.1108890078451465
H 3.9711248566521546 -0.6495505990321732 0.45352421304409063
H 3.1559637947968735 -0.5042470126260923 1.9997041644456808
H 1.8548948323022296 1.9863572866038932 -0.13959963964190172
H -0.3931193124348423 -2.3892327846326102 -0.8165802345815145
H 0.6281854080545344 -1.3967728612182244 -1.8486192702651554
H 0.8604275244356597 -1.6896030571347804 1.1917792886291023
H 2.0272467829433056 -2.18138776516079 -0.013820451520959212
H -0.8512921100007783 -0.1421741135165651 1.460229802156752
H -3.2585574287891377 0.9012443214608545 -0.1209504889498871
H -2.022677778252635 1.9035261999764024 0.6589775784806179
H -3.1042680150993194 0.9124126031555562 1.6436021252996715
H -2.959275821216135 -1.495724115362974 1.7287229791267886
H -1.6745061780852843 -2.413284896434244 0.9386742006676118
H -3.0033403315117293 -1.7403948245713057 -0.02551413184303038
*
