! wb97x-v def2-tzvp def2/J RIJCOSX DEFGRID2 scfconv7 GCP(DFT/TZ) printgap
%output
    printlevel normal
end
%cpcm
    smd true
    smdsolvent "water"
end
* xyz 0 1
C 1.5492950345822831 0.529266778836958 0.11138428887705362
C 0.6246401127273944 -0.6065980332012092 -0.28850084803181525
O -0.666096357685261 -0.5492707878615524 0.3425709856095953
C -1.4646653977863353 0.5371196126683392 -0.12926363450738104
H 2.544960281916024 0.3460351998444141 -0.30593975454567107
H 1.2032451843099914 1.4955671037238676 -0.26597317894721384
H 1.6414427698222944 0.5876106455099388 1.2008503469658955
H 1.0504204822461234 -1.5661411161927057 0.021577610963515233
H 0.4906198487147075 -0.629318371968933 -1.381114097023137
H -1.064864958374825 1.5097900109818958 0.18532037554514683
H -2.461243039455484 0.41220654784006877 0.30150844523267145
H -1.5420529117225252 0.5205504140151989 -1.2261598654677008
*
