! wb97x-v def2-tzvp def2/J RIJCOSX DEFGRID2 scfconv7 GCP(DFT/TZ) printgap
%output
    printlevel normal
end
* xyz 0 1
C -2.8667809861661233 -0.6645421692071775 0.3419839636319893
C -1.9838428005164035 0.4120802095145179 -0.28050743309034576
C -0.4935334041609212 0.20915532451104404 -0.12588198989933405
C 0.07449582410256074 -1.045338197931081 0.1157803129590657
C 1.4569238468117962 -1.1975113717462342 0.22184106559522476
C 2.298796116873135 -0.09709701681827902 0.09073256245243479
C 1.7454241406461244 1.1605117712766155 -0.14620719642105398
C 0.3661055290945806 1.3084340954079323 -0.2509489140493406
H -3.9204149331488516 -0.3849138540737037 0.2469983314785243
H -2.646383482534318 -0.7927059427441566 1.4072673923893884
H -2.7399794520474603 -1.6341681514599593 -0.1489876456615634
H -2.24028310527951 1.3893355306566304 0.14487501760198832
H -2.2126810653197655 0.48847726937528646 -1.3526058431292147
H -0.5615240691953647 -1.9178301315349404 0.22395966809509762
H 1.8746392604166688 -2.182153581193491 0.41039639192259086
H 3.3744900411988343 -0.21557804196878122 0.1759856802792832
H 2.390019195733134 2.0290304020743815 -0.2444001628698427
H -0.05668707021506467 2.293839709655131 -0.4314177820867798
*
