15
 xtb: 6.7.1 (edcfbbe)
C           -2.47316391464531        0.37570619219788        0.35083232833658
C           -1.94845223342595       -0.90664650807358        0.49696920683219
C           -0.64226735489445       -1.18080721721085        0.09853111485743
C            0.11034734927679       -0.15139343461800       -0.44320479744327
C           -0.38375366412930        1.13391503460307       -0.59668466251910
C           -1.69164008488315        1.39269387924110       -0.19356646945103
O            1.41511409430518       -0.43735732546998       -0.90611309078736
C            2.42572724719672       -0.26782647571557       -0.02095370041939
O            2.29687357174960        0.10389144983985        1.12095411291548
H           -3.49218026013850        0.58251172268759        0.66066894771405
H           -2.55535433488195       -1.69987490177423        0.92107068526785
H           -0.21211030284928       -2.17120985226632        0.20262776768440
H            0.24394395771978        1.90927808239255       -1.02284252879983
H           -2.09808538062893        2.39226901891242       -0.30775485921648
H            3.37714727467014       -0.52015607105424       -0.50631986074210
