! r2scan-3c def2/J RI DEFGRID2 scfconv6 printgap
%output
    printlevel normal
end
%cpcm
    smd true
    smdsolvent "water"
end
* xyz 0 1
C -1.5893325703 -0.1301193806 0.4961961059
C -0.6606391468 0.5104281936 -0.5283580065
C 0.6675319468 -0.2350882305 -0.6327992249
O 1.3825241404 -0.0772173068 0.5786150847
H -1.0963284118 -0.1689089535 1.4642573009
H -2.5050789673 0.4467815833 0.5926259633
H -1.8457047004 -1.1437313763 0.1963621999
H -0.4501627317 1.5405317021 -0.2368039648
H -1.1323354494 0.5170967106 -1.5118068728
H 0.4768419078 -1.2996230297 -0.8247768442
H 1.2525307575 0.1729675384 -1.4689580501
H 2.2114673714 -0.5698810526 0.5282874972
*
