! pbe def2-sv(p) def2/J RI DEFGRID1 loosescf d4 GCP(DFT/SV(P)) printgap
%output
    printlevel normal
end
* xyz 0 1
C -2.4210845432 -0.6961178803 -0.0087503559
C -0.9978239543 -0.2640566892 0.3554253219
H -0.9807007813 0.0631602703 1.4055854699
C -0.5073425852 0.8796743408 -0.5327190437
H -0.3847714126 0.5084494592 -1.5603999822
C 0.8685025568 1.3466639948 -0.0301480292
H 0.6875705693 2.0042239693 0.8353534046
C 1.7196551951 0.1490884841 0.4578706943
H 2.7378467098 0.2535574129 0.0582293903
C 1.1856631851 -1.1807589746 -0.0918290849
H 1.7300016494 -2.0004678691 0.4045326052
O -0.1616457564 -1.4122053644 0.219260098
O 1.4125318811 -1.1946418229 -1.4670018417
O 1.7260311823 0.0337101393 1.858133714
O 1.4677872934 2.0608126768 -1.0818115254
O -1.4460815051 1.9226901227 -0.4890440381
O -2.9202934887 -1.6691369102 0.8713159817
H -2.4252775715 -1.0693341241 -1.0412091211
H -3.0822402398 0.1680591617 0.0651239614
H 1.1586719035 -2.0556665037 -1.8336226595
H 2.2542680369 0.7441396355 2.2515040183
H 2.3012318579 2.459419776 -0.7934983179
H -1.142942449 2.6328542743 -1.0746217836
H -2.2805738656 -2.3950860637 0.912416724
*
