! r2scan-3c def2/J RI DEFGRID2 scfconv6 printgap
%output
    printlevel normal
end
%cpcm
    smd true
    smdsolvent "water"
end
* xyz 0 1
C -2.5512067959 -0.6566511751 -0.361225668
C -1.1708516217 -0.3115749144 0.2120635899
H -1.2254244347 -0.2622035739 1.3112398702
C -0.697443668 1.0573715712 -0.3007527184
H -0.7023954949 1.0496928508 -1.4018412196
C 0.7400993393 1.3243873908 0.1663241324
H 0.7486829899 1.4201955928 1.2640594015
C 1.6429420952 0.1506497583 -0.220221724
H 1.6954998297 0.0866402716 -1.3184337411
C 1.0310750057 -1.1575047805 0.3237387033
H 1.0304462953 -1.1093407816 1.4281553925
O -0.2694309661 -1.3324968564 -0.1707342457
O 1.7918127817 -2.2567716729 -0.0382470379
O 2.9190856031 0.3793459327 0.3224865663
O 1.1601566362 2.5294091396 -0.424875567
O -1.5789834274 2.0333293954 0.1863913218
O -3.1628620981 -1.7505532764 0.2672016814
H -2.4298652722 -0.9442579673 -1.4070196629
H -3.1745789785 0.2421710615 -0.2964622109
H 1.4303751652 -2.6303428702 -0.8574016511
H 3.447162376 -0.4289729088 0.2372058008
H 2.0951394006 2.667669719 -0.2134178206
H -1.2239984159 2.9053545044 -0.0467198614
H -3.3581271167 -1.5292469297 1.1889052351
*
