 Entering Gaussian System
 *********************************************
 Gaussian 98:
 frequency output generated by the xtb code
 *********************************************
                         Standard orientation:
 --------------------------------------------------------------------
  Center     Atomic     Atomic              Coordinates (Angstroms)
  Number     Number      Type              X           Y           Z
 --------------------------------------------------------------------
    1          6             0        2.022136   -0.674500   -0.010995
    2          6             0        1.094871    0.431881   -0.500579
    3          6             0        0.037566    0.821654    0.534802
    4          6             0       -1.097250   -0.199938    0.633510
    5          8             0       -1.829982   -0.334685   -0.566798
    6          1             0        1.466027   -1.585992    0.192761
    7          1             0        2.772464   -0.897491   -0.765538
    8          1             0        2.530860   -0.369581    0.901092
    9          1             0        1.692654    1.312240   -0.744580
   10          1             0        0.589508    0.105288   -1.411798
   11          1             0        0.499575    0.919784    1.518096
   12          1             0       -0.389930    1.790662    0.265925
   13          1             0       -0.700292   -1.195701    0.840000
   14          1             0       -1.771495    0.076507    1.456176
   15          1             0       -2.221990    0.520561   -0.791475
 --------------------------------------------------------------------
     1 basis functions        1 primitive gaussians
     1 alpha electrons        1 beta electrons
 
 Harmonic frequencies (cm**-1), IR intensities (km*mol⁻¹),
 Raman scattering activities (A**4/amu), Raman depolarization ratios,
 reduced masses (AMU), force constants (mDyne/A) and normal coordinates:
                      1                      2                      3
                        a                      a                      a 
 Frequencies --    67.1018               135.9995               229.0591
 Red. masses --     9.0281                 7.0222                 3.6761
 Frc consts  --     0.0000                 0.0000                 0.0000
 IR Inten    --     2.1712                 1.2616                 6.0343
 Raman Activ --     0.0000                 0.0000                 0.0000
 Depolar     --     0.0000                 0.0000                 0.0000
 Atom AN      X      Y      Z        X      Y      Z        X      Y      Z
   1   6    -0.39  -0.23  -0.19     0.02   0.07  -0.13    -0.27  -0.07   0.10
   2   6     0.03   0.24   0.08    -0.28  -0.13  -0.02     0.06   0.17   0.04
   3   6    -0.02   0.21   0.04     0.03  -0.06   0.28    -0.02   0.12  -0.04
   4   6     0.04   0.15   0.10    -0.18   0.15   0.12     0.24  -0.18  -0.11
   5   8     0.36  -0.35  -0.01     0.40  -0.04  -0.20     0.04   0.01  -0.01
   6   1    -0.19  -0.06  -0.26     0.03   0.07   0.24    -0.21   0.15   0.41
   7   1    -0.05   0.01  -0.02    -0.17  -0.12  -0.17    -0.34  -0.37  -0.12
   8   1    -0.18  -0.24   0.04     0.22   0.16  -0.20     0.24   0.10  -0.19
   9   1     0.09   0.04   0.15    -0.13  -0.04  -0.13     0.07   0.02   0.06
  10   1     0.02   0.21  -0.03    -0.17  -0.12   0.07     0.03   0.10  -0.01
  11   1    -0.01   0.08   0.01     0.05  -0.12   0.07    -0.02   0.08  -0.01
  12   1    -0.02   0.05  -0.01     0.06   0.03   0.16    -0.06   0.00  -0.04
  13   1     0.02   0.07   0.15    -0.12   0.04   0.15     0.15  -0.04  -0.15
  14   1    -0.05   0.10  -0.04    -0.14   0.14  -0.07     0.10  -0.18   0.03
  15   1     0.07  -0.12  -0.10     0.17  -0.01  -0.16    -0.13  -0.02   0.14
                      4                      5                      6
                        a                      a                      a 
 Frequencies --   266.1087               336.8360               398.0031
 Red. masses --     8.4839                 2.6317                 6.6095
 Frc consts  --     0.0000                 0.0000                 0.0000
 IR Inten    --     8.4411               197.0448                 2.1213
 Raman Activ --     0.0000                 0.0000                 0.0000
 Depolar     --     0.0000                 0.0000                 0.0000
 Atom AN      X      Y      Z        X      Y      Z        X      Y      Z
   1   6     0.28  -0.06  -0.15    -0.12   0.06   0.06     0.24  -0.17  -0.18
   2   6     0.34   0.15   0.19     0.02   0.09  -0.09    -0.08  -0.17   0.31
   3   6     0.01  -0.07  -0.03    -0.03  -0.10  -0.09    -0.35   0.22  -0.08
   4   6    -0.27   0.18  -0.03     0.08  -0.16   0.04    -0.01  -0.08   0.10
   5   8    -0.38  -0.25   0.05    -0.12   0.03   0.16     0.15   0.16  -0.00
   6   1     0.03   0.05   0.09    -0.07   0.05   0.05     0.16  -0.11  -0.06
   7   1    -0.08  -0.12  -0.17    -0.03  -0.05   0.04    -0.02   0.07  -0.18
   8   1     0.27  -0.02  -0.15    -0.04   0.04   0.01     0.18  -0.10  -0.10
   9   1     0.12   0.07   0.21     0.01   0.04   0.02    -0.03  -0.05   0.07
  10   1     0.17   0.16  -0.03     0.05   0.04  -0.06    -0.02  -0.05   0.08
  11   1    -0.06  -0.06   0.03     0.01   0.00  -0.04    -0.19   0.37  -0.01
  12   1     0.06   0.00  -0.01    -0.06  -0.05  -0.01    -0.18  -0.05  -0.32
  13   1    -0.15   0.05   0.12    -0.00  -0.06  -0.02     0.08  -0.00  -0.03
  14   1    -0.07   0.20  -0.05     0.04  -0.04   0.03    -0.03  -0.12   0.04
  15   1     0.00  -0.06  -0.14     0.77   0.26  -0.40     0.13   0.08  -0.01
                      7                      8                      9
                        a                      a                      a 
 Frequencies --   494.6912               786.7383               851.6766
 Red. masses --     8.6025                 3.3748                 6.4676
 Frc consts  --     0.0000                 0.0000                 0.0000
 IR Inten    --    35.3857                 7.4943                 4.7779
 Raman Activ --     0.0000                 0.0000                 0.0000
 Depolar     --     0.0000                 0.0000                 0.0000
 Atom AN      X      Y      Z        X      Y      Z        X      Y      Z
   1   6    -0.03   0.08   0.01     0.01   0.09  -0.02    -0.24   0.14  -0.03
   2   6     0.13   0.08  -0.19     0.22   0.19   0.07    -0.20  -0.13   0.26
   3   6    -0.12  -0.37  -0.24     0.19  -0.02   0.14     0.29  -0.24   0.00
   4   6    -0.23  -0.16   0.33    -0.00  -0.17   0.02     0.32   0.02  -0.18
   5   8     0.33   0.25   0.02    -0.12  -0.01  -0.10    -0.11  -0.01  -0.03
   6   1    -0.07   0.07   0.05    -0.28   0.16  -0.15     0.14  -0.07   0.06
   7   1     0.01  -0.07   0.05    -0.04  -0.12  -0.00    -0.07   0.21  -0.06
   8   1    -0.03   0.06   0.01     0.03  -0.24   0.07    -0.05   0.18  -0.06
   9   1     0.03   0.09   0.14    -0.13   0.05  -0.42     0.03  -0.05   0.20
  10   1     0.16   0.12  -0.16    -0.16  -0.29   0.25    -0.10   0.16   0.03
  11   1     0.01   0.06  -0.10    -0.07   0.25   0.07    -0.03   0.20   0.02
  12   1    -0.13  -0.17  -0.15    -0.11  -0.13  -0.17    -0.02  -0.17  -0.25
  13   1    -0.22  -0.08   0.20    -0.19  -0.10   0.11    -0.16  -0.05   0.13
  14   1    -0.08   0.13   0.02    -0.01   0.12  -0.06     0.12   0.31  -0.12
  15   1    -0.11   0.03   0.19    -0.01   0.02   0.02    -0.02   0.01   0.02
                     10                     11                     12
                        a                      a                      a 
 Frequencies --   890.3593               971.4440               984.0965
 Red. masses --     6.4553                 5.7370                 6.0735
 Frc consts  --     0.0000                 0.0000                 0.0000
 IR Inten    --    11.4892                53.9722                 2.8885
 Raman Activ --     0.0000                 0.0000                 0.0000
 Depolar     --     0.0000                 0.0000                 0.0000
 Atom AN      X      Y      Z        X      Y      Z        X      Y      Z
   1   6    -0.04   0.11   0.13    -0.01  -0.13   0.17     0.22  -0.25  -0.09
   2   6    -0.08   0.03   0.23    -0.05   0.11  -0.06    -0.06   0.14  -0.11
   3   6    -0.20  -0.21  -0.35     0.01   0.32  -0.10    -0.28   0.02   0.10
   4   6     0.14   0.13  -0.23     0.11  -0.33   0.15     0.18  -0.01  -0.34
   5   8     0.16   0.05   0.22    -0.16  -0.01  -0.23     0.08   0.03   0.20
   6   1    -0.10   0.04  -0.15     0.19  -0.16   0.00     0.02  -0.01   0.12
   7   1    -0.20   0.12  -0.18    -0.09   0.19  -0.12     0.22  -0.24   0.19
   8   1     0.19  -0.29   0.02     0.14  -0.07  -0.03    -0.13   0.13   0.02
   9   1    -0.15   0.06  -0.04     0.14  -0.09  -0.07    -0.02   0.03  -0.07
  10   1     0.12  -0.24   0.07     0.05  -0.02  -0.03    -0.18   0.12   0.03
  11   1    -0.06  -0.33  -0.06     0.20  -0.08  -0.10    -0.28  -0.09   0.13
  12   1     0.02   0.04   0.14    -0.11   0.11   0.26    -0.17  -0.01   0.11
  13   1     0.03   0.05   0.04    -0.12  -0.08   0.32    -0.10  -0.00   0.18
  14   1     0.12   0.15  -0.02    -0.05   0.20  -0.13     0.05   0.27  -0.16
  15   1     0.01   0.00   0.06     0.09   0.13   0.25     0.05   0.05   0.16
                     13                     14                     15
                        a                      a                      a 
 Frequencies --  1042.0518              1071.0487              1123.6655
 Red. masses --     7.5411                 4.3093                 7.6235
 Frc consts  --     0.0000                 0.0000                 0.0000
 IR Inten    --    32.1983                82.5559                25.2646
 Raman Activ --     0.0000                 0.0000                 0.0000
 Depolar     --     0.0000                 0.0000                 0.0000
 Atom AN      X      Y      Z        X      Y      Z        X      Y      Z
   1   6     0.26  -0.09   0.07     0.02  -0.22   0.21    -0.16  -0.05  -0.06
   2   6    -0.30   0.02  -0.07    -0.08   0.27  -0.17     0.27   0.10   0.03
   3   6    -0.09  -0.11   0.08     0.06  -0.06   0.07    -0.23  -0.21  -0.07
   4   6     0.38   0.19   0.23    -0.08   0.06  -0.10     0.26   0.18   0.40
   5   8    -0.19  -0.01  -0.28     0.12   0.06   0.18    -0.12   0.02  -0.27
   6   1    -0.15   0.09  -0.04     0.20  -0.18   0.03     0.14  -0.10   0.06
   7   1     0.05  -0.21   0.06    -0.06   0.16  -0.09     0.01   0.10  -0.00
   8   1     0.05  -0.18   0.08     0.14  -0.08  -0.02    -0.06   0.17  -0.06
   9   1    -0.28   0.20   0.21     0.07  -0.01  -0.12     0.13  -0.09  -0.22
  10   1     0.10   0.02  -0.12    -0.05   0.03  -0.02    -0.10  -0.07   0.13
  11   1     0.22   0.10  -0.11     0.12   0.13  -0.05    -0.28  -0.18   0.10
  12   1    -0.16  -0.08   0.05    -0.32  -0.14   0.09    -0.10  -0.05   0.07
  13   1     0.06   0.04   0.04    -0.26  -0.14  -0.28     0.15   0.07   0.02
  14   1     0.07   0.06   0.02     0.12   0.02   0.09     0.14   0.03   0.15
  15   1    -0.07  -0.03  -0.12    -0.18  -0.19  -0.38    -0.08  -0.04  -0.16
                     16                     17                     18
                        a                      a                      a 
 Frequencies --  1136.9778              1166.0959              1233.9359
 Red. masses --     7.5704                 5.3211                 3.7344
 Frc consts  --     0.0000                 0.0000                 0.0000
 IR Inten    --     4.1160                14.8980                 3.9656
 Raman Activ --     0.0000                 0.0000                 0.0000
 Depolar     --     0.0000                 0.0000                 0.0000
 Atom AN      X      Y      Z        X      Y      Z        X      Y      Z
   1   6    -0.13   0.22  -0.02    -0.02  -0.12   0.27    -0.16  -0.15  -0.19
   2   6     0.25  -0.34  -0.26    -0.03   0.20  -0.33     0.15   0.16   0.23
   3   6    -0.24   0.06   0.41     0.05  -0.26   0.19    -0.04  -0.13   0.01
   4   6     0.17   0.07  -0.14    -0.05   0.18  -0.08    -0.05   0.14  -0.13
   5   8    -0.02   0.02   0.07    -0.04  -0.07  -0.02    -0.01  -0.04   0.05
   6   1    -0.07   0.06  -0.09     0.14  -0.14  -0.04     0.13  -0.10   0.14
   7   1    -0.10   0.09  -0.09    -0.12   0.14  -0.11     0.10   0.02   0.08
   8   1     0.03  -0.03  -0.02     0.18  -0.14  -0.00    -0.14   0.24  -0.07
   9   1     0.15  -0.11   0.06    -0.06   0.09  -0.06    -0.17   0.13  -0.09
  10   1     0.36  -0.18  -0.19    -0.06   0.08  -0.07     0.20  -0.30   0.09
  11   1    -0.05   0.11   0.09    -0.16   0.11   0.11     0.42   0.13  -0.22
  12   1    -0.25  -0.07   0.10     0.10  -0.10  -0.22    -0.20  -0.09   0.10
  13   1    -0.06  -0.00   0.05     0.31   0.20   0.11     0.13   0.10   0.02
  14   1    -0.06   0.05  -0.12    -0.18  -0.13  -0.10    -0.18  -0.10  -0.13
  15   1    -0.04  -0.02  -0.03     0.14   0.13   0.27     0.06   0.05   0.14
                     19                     20                     21
                        a                      a                      a 
 Frequencies --  1276.7715              1295.0787              1331.0888
 Red. masses --     2.5293                 3.1688                 3.4585
 Frc consts  --     0.0000                 0.0000                 0.0000
 IR Inten    --     4.0540                58.8232                44.0803
 Raman Activ --     0.0000                 0.0000                 0.0000
 Depolar     --     0.0000                 0.0000                 0.0000
 Atom AN      X      Y      Z        X      Y      Z        X      Y      Z
   1   6    -0.13  -0.18  -0.01     0.01   0.02   0.02    -0.01  -0.03   0.04
   2   6     0.03   0.09  -0.09     0.02   0.01   0.02     0.13  -0.13  -0.01
   3   6     0.03   0.15   0.07    -0.03  -0.03  -0.07     0.12   0.08  -0.19
   4   6     0.07  -0.18   0.05     0.17  -0.20  -0.00     0.21   0.23   0.16
   5   8     0.00   0.06   0.01    -0.04   0.24   0.18    -0.01  -0.09   0.03
   6   1     0.14  -0.13   0.08    -0.01   0.01  -0.02    -0.04   0.01  -0.02
   7   1     0.02   0.08   0.00    -0.01  -0.01  -0.00    -0.04   0.08  -0.05
   8   1    -0.02   0.12  -0.06     0.02  -0.01   0.01    -0.01   0.05  -0.01
   9   1    -0.42   0.34   0.06     0.03  -0.02  -0.02    -0.20   0.14   0.07
  10   1     0.33  -0.25  -0.10    -0.13   0.08   0.05    -0.15   0.11   0.05
  11   1    -0.24  -0.03   0.15     0.06  -0.06  -0.04    -0.17  -0.11   0.06
  12   1     0.35   0.14  -0.15     0.08   0.02  -0.04    -0.18  -0.03   0.12
  13   1    -0.15  -0.11   0.02     0.19   0.07   0.32    -0.37  -0.18  -0.28
  14   1     0.05   0.07   0.01    -0.44  -0.15  -0.36    -0.41  -0.26  -0.24
  15   1    -0.08  -0.07  -0.15    -0.24  -0.18  -0.46     0.07   0.06   0.17
                     22                     23                     24
                        a                      a                      a 
 Frequencies --  1343.5649              1353.7881              1411.9238
 Red. masses --     4.1707                 4.9760                 3.2440
 Frc consts  --     0.0000                 0.0000                 0.0000
 IR Inten    --    13.9098                 1.9848                 1.1004
 Raman Activ --     0.0000                 0.0000                 0.0000
 Depolar     --     0.0000                 0.0000                 0.0000
 Atom AN      X      Y      Z        X      Y      Z        X      Y      Z
   1   6     0.02   0.02  -0.03     0.06   0.02  -0.12     0.27  -0.31   0.12
   2   6    -0.10   0.19   0.02    -0.40   0.22   0.10    -0.09   0.07   0.04
   3   6    -0.36  -0.13   0.13     0.32  -0.01  -0.11    -0.00  -0.04   0.01
   4   6     0.24   0.11   0.06    -0.00   0.05   0.08     0.01   0.01  -0.02
   5   8    -0.00  -0.06   0.01    -0.01   0.00   0.01    -0.00   0.00  -0.01
   6   1     0.03  -0.01   0.03     0.04   0.00   0.07    -0.43   0.23  -0.11
   7   1     0.05  -0.04   0.05     0.08  -0.14   0.08    -0.18   0.34  -0.30
   8   1     0.03  -0.06   0.01    -0.04  -0.07   0.03    -0.26   0.44   0.01
   9   1     0.27  -0.20  -0.15     0.28  -0.22  -0.02     0.07  -0.07  -0.10
  10   1     0.05  -0.05  -0.00     0.39  -0.28  -0.12     0.11  -0.01  -0.06
  11   1     0.22   0.01  -0.12    -0.31  -0.08   0.17    -0.01   0.04   0.00
  12   1     0.46   0.12  -0.25    -0.16  -0.10   0.01     0.05   0.01  -0.01
  13   1    -0.32  -0.17  -0.20     0.02   0.01  -0.01    -0.01   0.01   0.06
  14   1    -0.12  -0.04  -0.11    -0.17  -0.12  -0.08     0.01  -0.05   0.03
  15   1     0.03   0.02   0.08    -0.00   0.00   0.01    -0.00  -0.00  -0.01
                     25                     26                     27
                        a                      a                      a 
 Frequencies --  1469.9877              1474.9278              1485.7542
 Red. masses --     1.9079                 1.8434                 1.8975
 Frc consts  --     0.0000                 0.0000                 0.0000
 IR Inten    --     0.2364                 4.0657                 0.2271
 Raman Activ --     0.0000                 0.0000                 0.0000
 Depolar     --     0.0000                 0.0000                 0.0000
 Atom AN      X      Y      Z        X      Y      Z        X      Y      Z
   1   6    -0.04  -0.03   0.01    -0.02  -0.01  -0.02    -0.03   0.03  -0.04
   2   6     0.00  -0.01   0.03     0.00   0.06  -0.11    -0.01  -0.12   0.21
   3   6     0.02   0.22   0.14    -0.01  -0.08  -0.07     0.00  -0.07  -0.04
   4   6     0.01   0.07  -0.08     0.06   0.13  -0.16     0.03   0.06  -0.07
   5   8    -0.01  -0.00  -0.03    -0.01   0.00  -0.03    -0.00   0.00  -0.02
   6   1    -0.04   0.01  -0.03    -0.02   0.02   0.05     0.06  -0.01   0.12
   7   1     0.08   0.05   0.07     0.07   0.06   0.05     0.03   0.02   0.03
   8   1     0.11   0.03  -0.07     0.06  -0.04  -0.03     0.01  -0.13   0.04
   9   1    -0.04   0.01  -0.07     0.11   0.01   0.29    -0.19  -0.03  -0.55
  10   1     0.03   0.06  -0.03    -0.15  -0.22   0.16     0.25   0.46  -0.30
  11   1     0.18  -0.57  -0.02    -0.06   0.22  -0.00    -0.06   0.17   0.01
  12   1    -0.22  -0.23  -0.51     0.09   0.09   0.19     0.05   0.06   0.16
  13   1    -0.13   0.00   0.24    -0.29  -0.02   0.46    -0.12  -0.00   0.21
  14   1     0.08  -0.23   0.15     0.12  -0.47   0.26     0.05  -0.21   0.11
  15   1     0.01   0.01  -0.00    -0.01  -0.00  -0.01    -0.01  -0.00  -0.01
                     28                     29                     30
                        a                      a                      a 
 Frequencies --  1500.0213              1505.0228              2869.2699
 Red. masses --     1.5988                 1.5507                 1.7443
 Frc consts  --     0.0000                 0.0000                 0.0000
 IR Inten    --     1.0163                 0.8411               128.4318
 Raman Activ --     0.0000                 0.0000                 0.0000
 Depolar     --     0.0000                 0.0000                 0.0000
 Atom AN      X      Y      Z        X      Y      Z        X      Y      Z
   1   6    -0.15  -0.08   0.12    -0.06  -0.13  -0.15     0.00  -0.00  -0.00
   2   6    -0.06  -0.01   0.06    -0.00  -0.03  -0.05    -0.00  -0.00  -0.00
   3   6     0.02  -0.04  -0.04     0.00   0.00   0.01    -0.01  -0.00   0.00
   4   6    -0.01  -0.01   0.02    -0.01  -0.04   0.04    -0.17   0.09   0.17
   5   8     0.00  -0.00   0.01    -0.00   0.00   0.01     0.00   0.00   0.02
   6   1    -0.19   0.01  -0.44    -0.25   0.26   0.50     0.00  -0.00   0.00
   7   1     0.30   0.01   0.31     0.32   0.54   0.15    -0.00   0.00   0.00
   8   1     0.51   0.29  -0.38     0.18  -0.28  -0.02     0.00   0.00   0.00
   9   1     0.01  -0.04  -0.05     0.02  -0.01   0.04     0.00   0.01  -0.00
  10   1     0.05   0.03  -0.04    -0.03   0.00   0.00     0.00   0.00  -0.00
  11   1    -0.04   0.10   0.01    -0.01  -0.00   0.01     0.01   0.00   0.03
  12   1     0.03   0.04   0.10    -0.01  -0.00  -0.00    -0.01   0.02  -0.01
  13   1     0.03  -0.00  -0.06     0.09   0.02  -0.09     0.00  -0.07   0.05
  14   1    -0.02   0.04  -0.03    -0.02   0.11  -0.06     0.60  -0.25  -0.71
  15   1     0.00  -0.00   0.00    -0.00  -0.00  -0.00     0.00  -0.00  -0.00
                     31                     32                     33
                        a                      a                      a 
 Frequencies --  2961.3781              2969.0889              2985.4230
 Red. masses --     1.8105                 1.9534                 1.4902
 Frc consts  --     0.0000                 0.0000                 0.0000
 IR Inten    --    41.6596                58.6158                31.8831
 Raman Activ --     0.0000                 0.0000                 0.0000
 Depolar     --     0.0000                 0.0000                 0.0000
 Atom AN      X      Y      Z        X      Y      Z        X      Y      Z
   1   6     0.00   0.00   0.01     0.02   0.01   0.00    -0.01   0.01   0.02
   2   6    -0.06  -0.07   0.01    -0.17  -0.20  -0.08    -0.01   0.05  -0.19
   3   6    -0.11   0.20  -0.11     0.05  -0.06   0.07     0.01   0.05   0.04
   4   6     0.01  -0.03   0.01    -0.01   0.02  -0.00     0.01  -0.04   0.01
   5   8     0.00  -0.00   0.00    -0.00   0.00  -0.00     0.00   0.00   0.00
   6   1    -0.01  -0.02   0.00    -0.03  -0.05   0.01     0.01   0.01   0.00
   7   1     0.00   0.00  -0.00    -0.01   0.01   0.02     0.05  -0.01  -0.05
   8   1    -0.01  -0.01  -0.02    -0.03  -0.01  -0.05    -0.03  -0.02  -0.05
   9   1     0.19   0.28  -0.07     0.39   0.57  -0.17    -0.30  -0.43   0.09
  10   1     0.01   0.00   0.04     0.23   0.14   0.45     0.35   0.24   0.60
  11   1     0.07   0.04   0.17    -0.10  -0.03  -0.21    -0.10  -0.01  -0.21
  12   1     0.33  -0.76   0.22    -0.09   0.22  -0.06     0.08  -0.17   0.06
  13   1    -0.06   0.15  -0.03     0.04  -0.10   0.02    -0.06   0.15  -0.03
  14   1     0.02  -0.01  -0.02    -0.01   0.01   0.01     0.02  -0.01  -0.02
  15   1     0.00  -0.00   0.00    -0.00   0.00   0.00     0.00  -0.00   0.00
                     34                     35                     36
                        a                      a                      a 
 Frequencies --  2986.1851              2989.6665              3024.6384
 Red. masses --     1.6849                 1.6656                 1.8719
 Frc consts  --     0.0000                 0.0000                 0.0000
 IR Inten    --    91.3779                88.4555                89.8383
 Raman Activ --     0.0000                 0.0000                 0.0000
 Depolar     --     0.0000                 0.0000                 0.0000
 Atom AN      X      Y      Z        X      Y      Z        X      Y      Z
   1   6    -0.01  -0.01   0.00    -0.00   0.00   0.02    -0.09  -0.12  -0.23
   2   6     0.01   0.02  -0.01    -0.04  -0.02  -0.08    -0.02  -0.01  -0.03
   3   6    -0.01   0.07   0.02    -0.08  -0.06  -0.20    -0.00   0.00  -0.01
   4   6    -0.08   0.22  -0.05    -0.01   0.04  -0.02     0.00  -0.00  -0.00
   5   8    -0.00  -0.00  -0.01    -0.00  -0.00  -0.00    -0.00  -0.00   0.00
   6   1     0.02   0.04  -0.01     0.01   0.01   0.00     0.07   0.11  -0.06
   7   1     0.01  -0.00  -0.01     0.02  -0.01  -0.02    -0.17   0.02   0.12
   8   1    -0.00  -0.00   0.00    -0.03  -0.02  -0.05     0.43   0.27   0.77
   9   1    -0.06  -0.09   0.02    -0.03  -0.03  -0.00     0.01   0.01  -0.01
  10   1     0.01   0.01   0.01     0.15   0.10   0.26     0.05   0.04   0.09
  11   1    -0.06  -0.00  -0.13     0.38   0.06   0.79     0.01   0.00   0.03
  12   1     0.10  -0.22   0.07    -0.08   0.15  -0.07     0.00  -0.01   0.00
  13   1     0.35  -0.83   0.16     0.06  -0.15   0.03    -0.00   0.00  -0.00
  14   1    -0.05   0.05   0.05    -0.03   0.02   0.03    -0.00   0.00   0.00
  15   1    -0.01   0.01  -0.00    -0.00   0.00  -0.00     0.00   0.00   0.00
                     37                     38                     39
                        a                      a                      a 
 Frequencies --  3031.9250              3042.5525              3496.3679
 Red. masses --     1.9319                 1.3377                 1.8749
 Frc consts  --     0.0000                 0.0000                 0.0000
 IR Inten    --    83.8769                47.8211                58.2701
 Raman Activ --     0.0000                 0.0000                 0.0000
 Depolar     --     0.0000                 0.0000                 0.0000
 Atom AN      X      Y      Z        X      Y      Z        X      Y      Z
   1   6     0.23   0.10  -0.15    -0.03   0.17   0.01     0.00   0.00  -0.00
   2   6     0.01   0.02  -0.01     0.00   0.01   0.00     0.00   0.00   0.00
   3   6    -0.00   0.00  -0.00    -0.00   0.00  -0.00     0.00  -0.00  -0.00
   4   6    -0.00   0.00  -0.00    -0.00   0.01  -0.00    -0.00   0.01  -0.01
   5   8     0.00  -0.00  -0.00    -0.00  -0.00  -0.00    -0.10   0.21  -0.05
   6   1    -0.30  -0.50   0.09    -0.41  -0.61   0.14    -0.00  -0.00   0.00
   7   1    -0.50   0.17   0.53     0.40  -0.09  -0.41     0.00  -0.00  -0.00
   8   1    -0.00  -0.01  -0.09     0.12   0.10   0.22     0.00  -0.00   0.00
   9   1    -0.05  -0.07   0.02    -0.01  -0.01   0.00     0.00  -0.00   0.00
  10   1     0.01   0.01   0.02    -0.01  -0.01  -0.02    -0.00   0.00  -0.00
  11   1     0.01   0.00   0.02     0.00   0.00   0.01     0.00   0.00   0.00
  12   1     0.01  -0.02   0.00    -0.00   0.00   0.00    -0.00  -0.00  -0.00
  13   1     0.01  -0.02   0.00     0.01  -0.03   0.00     0.00  -0.01  -0.00
  14   1    -0.00   0.00   0.00    -0.00   0.00   0.00    -0.00  -0.00   0.00
  15   1    -0.00   0.00  -0.00    -0.00   0.00  -0.00     0.40  -0.86   0.23
