      -----------------------------------------------------------      
     |                   =====================                   |     
     |                           x T B                           |     
     |                   =====================                   |     
     |                         S. Grimme                         |     
     |          Mulliken Center for Theoretical Chemistry        |     
     |                    University of Bonn                     |     
      -----------------------------------------------------------      

   * xtb version 6.7.1 (edcfbbe) compiled by 'albert@albert-system' on 2024-07-22

   xtb is free software: you can redistribute it and/or modify it under
   the terms of the GNU Lesser General Public License as published by
   the Free Software Foundation, either version 3 of the License, or
   (at your option) any later version.
   
   xtb is distributed in the hope that it will be useful,
   but WITHOUT ANY WARRANTY; without even the implied warranty of
   MERCHANTABILITY or FITNESS FOR A PARTICULAR PURPOSE.  See the
   GNU Lesser General Public License for more details.
   
   Cite this work as:
   * C. Bannwarth, E. Caldeweyher, S. Ehlert, A. Hansen, P. Pracht,
     J. Seibert, S. Spicher, S. Grimme, WIREs Comput. Mol. Sci., 2020, 11,
     e01493. DOI: 10.1002/wcms.1493
   
   for GFN2-xTB:
   * C. Bannwarth, S. Ehlert and S. Grimme., J. Chem. Theory Comput., 2019,
     15, 1652-1671. DOI: 10.1021/acs.jctc.8b01176
   for GFN1-xTB:
   * S. Grimme, C. Bannwarth, P. Shushkov, J. Chem. Theory Comput., 2017,
     13, 1989-2009. DOI: 10.1021/acs.jctc.7b00118
   for GFN0-xTB:
   * P. Pracht, E. Caldeweyher, S. Ehlert, S. Grimme, ChemRxiv, 2019, preprint.
     DOI: 10.26434/chemrxiv.8326202.v1
   for GFN-FF:
   * S. Spicher and S. Grimme, Angew. Chem. Int. Ed., 2020, 59, 15665-15673.
     DOI: 10.1002/anie.202004239
   
   for ALPB and GBSA implicit solvation:
   * S. Ehlert, M. Stahn, S. Spicher, S. Grimme, J. Chem. Theory Comput.,
     2021, 17, 4250-4261. DOI: 10.1021/acs.jctc.1c00471
   
   for ddCOSMO and CPCM-X implicit solvation:
   * M. Stahn, S. Ehlert, S. Grimme, J. Phys. Chem. A,
     2023, XX, XXXX-XXXX. DOI: 10.1021/acs.jpca.3c04382
   
   for DFT-D4:
   * E. Caldeweyher, C. Bannwarth and S. Grimme, J. Chem. Phys., 2017,
     147, 034112. DOI: 10.1063/1.4993215
   * E. Caldeweyher, S. Ehlert, A. Hansen, H. Neugebauer, S. Spicher,
     C. Bannwarth and S. Grimme, J. Chem. Phys., 2019, 150, 154122.
     DOI: 10.1063/1.5090222
   * E. Caldeweyher, J.-M. Mewes, S. Ehlert and S. Grimme, Phys. Chem. Chem. Phys.
     2020, 22, 8499-8512. DOI: 10.1039/D0CP00502A
   
   for sTDA-xTB:
   * S. Grimme and C. Bannwarth, J. Chem. Phys., 2016, 145, 054103.
     DOI: 10.1063/1.4959605
   
   in the mass-spec context:
   * V. Asgeirsson, C. Bauer and S. Grimme, Chem. Sci., 2017, 8, 4879.
     DOI: 10.1039/c7sc00601b
   * J. Koopman and S. Grimme, ACS Omega 2019, 4, 12, 15120-15133.
     DOI: 10.1021/acsomega.9b02011
   
   for metadynamics refer to:
   * S. Grimme, J. Chem. Theory Comput., 2019, 155, 2847-2862
     DOI: 10.1021/acs.jctc.9b00143
   
   for SPH calculations refer to:
   * S. Spicher and S. Grimme, J. Chem. Theory Comput., 2021, 17, 1701-1714
     DOI: 10.1021/acs.jctc.0c01306
   
   for ONIOM refer to:
   * C. Plett, A. Katbashev, S. Ehlert, S. Grimme, M. Bursch,
     Phys. Chem. Chem. Phys., 2023, 25, 17860-17868. DOI: 10.1039/D3CP02178E
   
   for DIPRO refer to:
   * J. Kohn, N. Gildemeister, S. Grimme, D. Fazzi, A. Hansen,
     J. Chem. Phys., 2023, just accepted.
   
   for PTB refer to:
   * S. Grimme, M. Mueller, A. Hansen, J. Chem. Phys., 2023, 158, 124111.
     DOI: 10.1063/5.0137838
   
   with help from (in alphabetical order)
   P. Atkinson, C. Bannwarth, F. Bohle, G. Brandenburg, E. Caldeweyher
   M. Checinski, S. Dohm, S. Ehlert, S. Ehrlich, I. Gerasimov, C. Hölzer
   A. Katbashev, J. Kohn, J. Koopman, C. Lavigne, S. Lehtola, F. März, M. Müller,
   F. Musil, H. Neugebauer, J. Pisarek, C. Plett, P. Pracht, F. Pultar,
   J. Seibert, P. Shushkov, S. Spicher, M. Stahn, M. Steiner, T. Strunk,
   J. Stückrath, T. Rose, and J. Unsleber
   
 * started run on 2025/04/06 at 22:38:50.624     
   ID    Z sym.   atoms
    1    6 C      1-4
    2    8 O      5
    3    1 H      6-15

           -------------------------------------------------
          |                Calculation Setup                |
           -------------------------------------------------

          program call               : /srv/scratch/z5358697/.xtb/bin/xtb xtb_rrho.coord --gfn2 --ohess vtight --chrg 0 --enso --norestart -I rrho-xcontrol-inp --parallel 1 --alpb water
          hostname                   : k159
          coordinate file            : xtb_rrho.coord
          omp threads                :                     1


           -------------------------------------------------
          |                 G F N 2 - x T B                 |
           -------------------------------------------------

        Reference                      10.1021/acs.jctc.8b01176
      * Hamiltonian:
        H0-scaling (s, p, d)           1.850000    2.230000    2.230000
        zeta-weighting                 0.500000
      * Dispersion:
        s8                             2.700000
        a1                             0.520000
        a2                             5.000000
        s9                             5.000000
      * Repulsion:
        kExp                           1.500000    1.000000
        rExp                           1.000000
      * Coulomb:
        alpha                          2.000000
        third order                    shell-resolved
        anisotropic                    true
        a3                             3.000000
        a5                             4.000000
        cn-shift                       1.200000
        cn-exp                         4.000000
        max-rad                        5.000000

      * Solvation model:               ALPB
        Solvent                        water
        Parameter file                 internal GFN2-xTB/ALPB
        Dielectric constant                8.0200E+01
        Reference state                gsolv [1 M gas/solution]
        Free energy shift                  1.0808E-03 Eh       6.7819E-01 kcal/mol
        Temperature                        2.9815E+02 K
        Density                            1.0000E+00 kg/L
        Solvent mass                       1.8000E+01 g/mol
        Interaction kernel             P16
        Born radius scaling (c1)           1.4744E+00
        Born radii integrator          GBOBC
        Born offset                        0.0000E+00 a0       0.0000E+00 AA
        H-bond correction              true
        Ion screening                  false
        Surface tension                    1.0000E-05 Eh       1.5569E+01 dyn/cm
        Grid points                               974 per atom

          ...................................................
          :                      SETUP                      :
          :.................................................:
          :  # basis functions                  30          :
          :  # atomic orbitals                  30          :
          :  # shells                           20          :
          :  # electrons                        32          :
          :  max. iterations                   250          :
          :  Hamiltonian                  GFN2-xTB          :
          :  restarted?                      false          :
          :  GBSA solvation                   true          :
          :  PC potential                    false          :
          :  electronic temp.          300.0000000     K    :
          :  accuracy                    1.0000000          :
          :  -> integral cutoff          0.2500000E+02      :
          :  -> integral neglect         0.1000000E-07      :
          :  -> SCF convergence          0.1000000E-05 Eh   :
          :  -> wf. convergence          0.1000000E-03 e    :
          :  Broyden damping             0.4000000          :
          :  net charge                          0          :
          :  unpaired electrons                  0          :
          ...................................................

 iter      E             dE          RMSdq      gap      omega  full diag
   1    -17.9068045 -0.179068E+02  0.323E+00   12.18       0.0  T
   2    -17.9330218 -0.262173E-01  0.165E+00   11.97       1.0  T
   3    -17.9337573 -0.735515E-03  0.611E-01   11.97       1.0  T
   4    -17.9338922 -0.134866E-03  0.113E-01   11.95       1.0  T
   5    -17.9339058 -0.136305E-04  0.611E-02   11.96       1.0  T
   6    -17.9339082 -0.239762E-05  0.122E-02   11.96       2.1  T
   7    -17.9339084 -0.255762E-06  0.560E-03   11.96       4.6  T
   8    -17.9339085 -0.565965E-07  0.211E-03   11.96      12.3  T
   9    -17.9339085 -0.544645E-08  0.614E-04   11.96      42.1  T
  10    -17.9339085 -0.110416E-08  0.168E-04   11.96     153.3  T

   *** convergence criteria satisfied after 10 iterations ***

         #    Occupation            Energy/Eh            Energy/eV
      -------------------------------------------------------------
         1        2.0000           -0.6829097             -18.5829
       ...           ...                  ...                  ...
        10        2.0000           -0.4826389             -13.1333
        11        2.0000           -0.4688996             -12.7594
        12        2.0000           -0.4549047             -12.3786
        13        2.0000           -0.4385175             -11.9327
        14        2.0000           -0.4312272             -11.7343
        15        2.0000           -0.4230483             -11.5117
        16        2.0000           -0.4087962             -11.1239 (HOMO)
        17                          0.0308251               0.8388 (LUMO)
        18                          0.0878027               2.3892
        19                          0.0975733               2.6551
        20                          0.1250777               3.4035
        21                          0.1348208               3.6687
       ...                                ...                  ...
        30                          0.2881879               7.8420
      -------------------------------------------------------------
                  HL-Gap            0.4396213 Eh           11.9627 eV
             Fermi-level           -0.1889856 Eh           -5.1426 eV

 SCC (total)                   0 d,  0 h,  0 min,  0.008 sec
 SCC setup                      ...        0 min,  0.001 sec (  9.090%)
 Dispersion                     ...        0 min,  0.000 sec (  0.759%)
 classical contributions        ...        0 min,  0.000 sec (  0.222%)
 integral evaluation            ...        0 min,  0.001 sec (  9.378%)
 iterations                     ...        0 min,  0.004 sec ( 54.814%)
 molecular gradient             ...        0 min,  0.002 sec ( 24.283%)
 printout                       ...        0 min,  0.000 sec (  1.324%)

         :::::::::::::::::::::::::::::::::::::::::::::::::::::
         ::                     SUMMARY                     ::
         :::::::::::::::::::::::::::::::::::::::::::::::::::::
         :: total energy             -17.727087852394 Eh    ::
         :: total w/o Gsasa/hb       -17.723661662504 Eh    ::
         :: gradient norm              0.027763090357 Eh/a0 ::
         :: HOMO-LUMO gap             11.962704200684 eV    ::
         ::.................................................::
         :: SCC energy               -17.933895165708 Eh    ::
         :: -> isotropic ES            0.035922873781 Eh    ::
         :: -> anisotropic ES          0.003878885511 Eh    ::
         :: -> anisotropic XC          0.006626225194 Eh    ::
         :: -> dispersion             -0.007346809010 Eh    ::
         :: -> Gsolv                  -0.008224667195 Eh    ::
         ::    -> Gelec               -0.004798477304 Eh    ::
         ::    -> Gsasa                0.000625526575 Eh    ::
         ::    -> Ghb                 -0.005132476163 Eh    ::
         ::    -> Gshift               0.001080759698 Eh    ::
         :: repulsion energy           0.206807313313 Eh    ::
         :: add. restraining           0.000000000000 Eh    ::
         :: total charge               0.000000000000 e     ::
         :::::::::::::::::::::::::::::::::::::::::::::::::::::

      ----------------------------------------------------------- 
     |                   =====================                   |
     |                        A N C O P T                        |
     |                   =====================                   |
     |               Approximate Normal Coordinate               |
     |                Rational Function Optimizer                |
      ----------------------------------------------------------- 
      ----------------------------------------------------------- 
     |                   =====================                   |
     |                        A N C O P T                        |
     |                   =====================                   |
     |               Approximate Normal Coordinate               |
     |                Rational Function Optimizer                |
      ----------------------------------------------------------- 

          ...................................................
          :                      SETUP                      :
          :.................................................:
          :   optimization level         verytight          :
          :   max. optcycles                   300          :
          :   ANC micro-cycles                  20          :
          :   degrees of freedom                39          :
          :.................................................:
          :   RF solver                   davidson          :
          :   write xtbopt.log                true          :
          :   linear?                        false          :
          :   energy convergence         0.1000000E-06 Eh   :
          :   grad. convergence          0.2000000E-03 Eh/α :
          :   maxmium RF displ.          1.0000000          :
          :   Hlow (freq-cutoff)         0.1000000E-01      :
          :   Hmax (freq-cutoff)         5.0000000          :
          :   S6 in model hess.         20.0000000          :
          ...................................................

generating ANC from exact Hessian ...
Using Lindh-Hessian (1995)
 Shifting diagonal of input Hessian by   7.225319070389173E-003
 Lowest  eigenvalues of input Hessian
    0.000000    0.000000    0.000000    0.000000    0.000000    0.000000
    0.010000    0.012416    0.013791    0.018566    0.024108    0.029314
    0.047021    0.051878    0.057505    0.059329    0.061340    0.064237
 Highest eigenvalues
    1.126761    1.146171    1.209712    1.262071    1.284681    1.406976
 

........................................................................
.............................. CYCLE    1 ..............................
........................................................................

 iter      E             dE          RMSdq      gap      omega  full diag
   1    -17.9339085 -0.179339E+02  0.397E-05   11.96       0.0  T
   2    -17.9339085 -0.770584E-11  0.172E-05   11.96    1504.4  T
   3    -17.9339085 -0.358824E-12  0.104E-05   11.96    2472.1  T
     SCC iter.                  ...        0 min,  0.001 sec
     gradient                   ...        0 min,  0.002 sec
 * total energy  :   -17.7270879 Eh     change       -0.5354295E-10 Eh
   gradient norm :     0.0277636 Eh/α   predicted     0.0000000E+00 (-100.00%)
   displ. norm   :     0.1055190 α      lambda       -0.1283390E-02
   maximum displ.:     0.0570153 α      in ANC's #10, #1, #15, ...

........................................................................
.............................. CYCLE    2 ..............................
........................................................................

 iter      E             dE          RMSdq      gap      omega  full diag
   1    -17.9400174 -0.179400E+02  0.111E-01   12.31       0.0  T
   2    -17.9400251 -0.767762E-05  0.649E-02   12.31       1.0  T
   3    -17.9400256 -0.519208E-06  0.122E-02   12.31       2.1  T
   4    -17.9400260 -0.350975E-06  0.311E-03   12.31       8.3  T
   5    -17.9400260 -0.205615E-07  0.166E-03   12.31      15.6  T
   6    -17.9400260 -0.436330E-08  0.679E-04   12.31      38.0  T
   7    -17.9400260 -0.877513E-09  0.188E-04   12.31     137.5  T
     SCC iter.                  ...        0 min,  0.001 sec
     gradient                   ...        0 min,  0.002 sec
 * total energy  :   -17.7279256 Eh     change       -0.8377035E-03 Eh
   gradient norm :     0.0133962 Eh/α   predicted    -0.6488409E-03 ( -22.55%)
   displ. norm   :     0.0822763 α      lambda       -0.3364055E-03
   maximum displ.:     0.0580539 α      in ANC's #1, #6, #3, ...

........................................................................
.............................. CYCLE    3 ..............................
........................................................................

 iter      E             dE          RMSdq      gap      omega  full diag
   1    -17.9427874 -0.179428E+02  0.496E-02   12.56       0.0  T
   2    -17.9427920 -0.456072E-05  0.291E-02   12.56       1.0  T
   3    -17.9427923 -0.317577E-06  0.110E-02   12.56       2.3  T
   4    -17.9427925 -0.150302E-06  0.233E-03   12.56      11.1  T
   5    -17.9427925 -0.125692E-07  0.126E-03   12.56      20.4  T
   6    -17.9427925 -0.290406E-08  0.556E-04   12.56      46.5  T
   7    -17.9427925 -0.583825E-09  0.151E-04   12.56     170.9  T
     SCC iter.                  ...        0 min,  0.001 sec
     gradient                   ...        0 min,  0.002 sec
 * total energy  :   -17.7281320 Eh     change       -0.2064519E-03 Eh
   gradient norm :     0.0035357 Eh/α   predicted    -0.1693430E-03 ( -17.97%)
   displ. norm   :     0.0762444 α      lambda       -0.7927631E-04
   maximum displ.:     0.0656205 α      in ANC's #1, #6, #2, ...

........................................................................
.............................. CYCLE    4 ..............................
........................................................................

 iter      E             dE          RMSdq      gap      omega  full diag
   1    -17.9427398 -0.179427E+02  0.302E-02   12.65       0.0  T
   2    -17.9427403 -0.549514E-06  0.179E-02   12.65       1.4  T
   3    -17.9427404 -0.360417E-07  0.386E-03   12.65       6.7  T
   4    -17.9427404 -0.414396E-07  0.101E-03   12.65      25.6  T
   5    -17.9427404 -0.198052E-08  0.503E-04   12.65      51.3  T
   6    -17.9427404 -0.448829E-09  0.209E-04   12.65     123.5  T
     SCC iter.                  ...        0 min,  0.001 sec
     gradient                   ...        0 min,  0.002 sec
 * total energy  :   -17.7281911 Eh     change       -0.5907332E-04 Eh
   gradient norm :     0.0020880 Eh/α   predicted    -0.3986786E-04 ( -32.51%)
   displ. norm   :     0.0905450 α      lambda       -0.5593617E-04
   maximum displ.:     0.0801431 α      in ANC's #1, #6, #2, ...

........................................................................
.............................. CYCLE    5 ..............................
........................................................................

 iter      E             dE          RMSdq      gap      omega  full diag
   1    -17.9420889 -0.179421E+02  0.322E-02   12.68       0.0  T
   2    -17.9420890 -0.111188E-06  0.191E-02   12.68       1.3  T
   3    -17.9420890 -0.263293E-07  0.155E-03   12.68      16.7  T
   4    -17.9420890 -0.960220E-08  0.767E-04   12.68      33.6  T
   5    -17.9420890 -0.849543E-09  0.256E-04   12.68     100.9  T
     SCC iter.                  ...        0 min,  0.001 sec
     gradient                   ...        0 min,  0.002 sec
 * total energy  :   -17.7282349 Eh     change       -0.4384581E-04 Eh
   gradient norm :     0.0027318 Eh/α   predicted    -0.2819872E-04 ( -35.69%)
   displ. norm   :     0.0769826 α      lambda       -0.3636092E-04
   maximum displ.:     0.0689454 α      in ANC's #1, #2, #6, ...

........................................................................
.............................. CYCLE    6 ..............................
........................................................................

 iter      E             dE          RMSdq      gap      omega  full diag
   1    -17.9417003 -0.179417E+02  0.249E-02   12.67       0.0  T
   2    -17.9417003 -0.425246E-07  0.148E-02   12.67       1.7  T
   3    -17.9417003 -0.125116E-07  0.780E-04   12.67      33.1  T
   4    -17.9417003 -0.138784E-08  0.459E-04   12.67      56.2  T
     SCC iter.                  ...        0 min,  0.001 sec
     gradient                   ...        0 min,  0.002 sec
 * total energy  :   -17.7282667 Eh     change       -0.3180652E-04 Eh
   gradient norm :     0.0024311 Eh/α   predicted    -0.1828866E-04 ( -42.50%)
   displ. norm   :     0.0696978 α      lambda       -0.3232450E-04
   maximum displ.:     0.0626685 α      in ANC's #1, #2, #6, ...

........................................................................
.............................. CYCLE    7 ..............................
........................................................................

 iter      E             dE          RMSdq      gap      omega  full diag
   1    -17.9416948 -0.179417E+02  0.227E-02   12.65       0.0  T
   2    -17.9416948 -0.709311E-07  0.135E-02   12.65       1.9  T
   3    -17.9416948 -0.539779E-08  0.113E-03   12.64      22.8  T
   4    -17.9416948 -0.727991E-08  0.429E-04   12.64      60.2  T
   5    -17.9416948 -0.176609E-09  0.172E-04   12.64     150.2  T
     SCC iter.                  ...        0 min,  0.001 sec
     gradient                   ...        0 min,  0.002 sec
 * total energy  :   -17.7282956 Eh     change       -0.2884392E-04 Eh
   gradient norm :     0.0016030 Eh/α   predicted    -0.1624086E-04 ( -43.69%)
   displ. norm   :     0.1075752 α      lambda       -0.2996449E-04
   maximum displ.:     0.0973697 α      in ANC's #1, #2, #6, ...

........................................................................
.............................. CYCLE    8 ..............................
........................................................................

 iter      E             dE          RMSdq      gap      omega  full diag
   1    -17.9420009 -0.179420E+02  0.359E-02   12.61       0.0  T
   2    -17.9420010 -0.147490E-06  0.214E-02   12.61       1.2  T
   3    -17.9420010 -0.142056E-07  0.170E-03   12.61      15.2  T
   4    -17.9420010 -0.170555E-07  0.677E-04   12.61      38.1  T
   5    -17.9420010 -0.465057E-09  0.195E-04   12.61     132.5  T
     SCC iter.                  ...        0 min,  0.001 sec
     gradient                   ...        0 min,  0.002 sec
 * total energy  :   -17.7283329 Eh     change       -0.3733993E-04 Eh
   gradient norm :     0.0012675 Eh/α   predicted    -0.1505921E-04 ( -59.67%)
   displ. norm   :     0.0873700 α      lambda       -0.1992394E-04
   maximum displ.:     0.0798536 α      in ANC's #1, #2, #3, ...

........................................................................
.............................. CYCLE    9 ..............................
........................................................................

 iter      E             dE          RMSdq      gap      omega  full diag
   1    -17.9422600 -0.179423E+02  0.289E-02   12.60       0.0  T
   2    -17.9422600 -0.451637E-07  0.173E-02   12.60       1.5  T
   3    -17.9422600 -0.164376E-07  0.929E-04   12.60      27.8  T
   4    -17.9422600 -0.288196E-08  0.553E-04   12.60      46.7  T
     SCC iter.                  ...        0 min,  0.001 sec
     gradient                   ...        0 min,  0.002 sec
 * total energy  :   -17.7283606 Eh     change       -0.2768408E-04 Eh
   gradient norm :     0.0013613 Eh/α   predicted    -0.9996868E-05 ( -63.89%)
   displ. norm   :     0.0861587 α      lambda       -0.2023272E-04
   maximum displ.:     0.0774500 α      in ANC's #1, #2, #3, ...

........................................................................
.............................. CYCLE   10 ..............................
........................................................................

 iter      E             dE          RMSdq      gap      omega  full diag
   1    -17.9424194 -0.179424E+02  0.295E-02   12.61       0.0  T
   2    -17.9424194 -0.412116E-07  0.177E-02   12.61       1.5  T
   3    -17.9424194 -0.223838E-07  0.930E-04   12.60      27.8  T
   4    -17.9424194 -0.115974E-08  0.565E-04   12.60      45.7  T
     SCC iter.                  ...        0 min,  0.001 sec
     gradient                   ...        0 min,  0.002 sec
 * total energy  :   -17.7283894 Eh     change       -0.2883730E-04 Eh
   gradient norm :     0.0012095 Eh/α   predicted    -0.1014940E-04 ( -64.80%)
   displ. norm   :     0.1064336 α      lambda       -0.2441614E-04
   maximum displ.:     0.0938226 α      in ANC's #1, #3, #2, ...

........................................................................
.............................. CYCLE   11 ..............................
........................................................................

 iter      E             dE          RMSdq      gap      omega  full diag
   1    -17.9423544 -0.179424E+02  0.379E-02   12.62       0.0  T
   2    -17.9423545 -0.622556E-07  0.228E-02   12.62       1.1  T
   3    -17.9423545 -0.418882E-07  0.126E-03   12.62      20.6  T
   4    -17.9423545 -0.190341E-08  0.740E-04   12.62      34.9  T
   5    -17.9423545 -0.106712E-08  0.166E-04   12.62     155.5  T
     SCC iter.                  ...        0 min,  0.001 sec
     gradient                   ...        0 min,  0.002 sec
 * total energy  :   -17.7284233 Eh     change       -0.3387566E-04 Eh
   gradient norm :     0.0008425 Eh/α   predicted    -0.1226917E-04 ( -63.78%)
   displ. norm   :     0.1236889 α      lambda       -0.2493404E-04
   maximum displ.:     0.1099597 α      in ANC's #1, #3, #2, ...

........................................................................
.............................. CYCLE   12 ..............................
........................................................................

 iter      E             dE          RMSdq      gap      omega  full diag
   1    -17.9422417 -0.179422E+02  0.447E-02   12.64       0.0  T
   2    -17.9422418 -0.784535E-07  0.269E-02   12.63       1.0  T
   3    -17.9422418 -0.554424E-07  0.144E-03   12.63      18.0  T
   4    -17.9422418 -0.230396E-08  0.748E-04   12.63      34.5  T
   5    -17.9422418 -0.115903E-08  0.181E-04   12.63     142.7  T
     SCC iter.                  ...        0 min,  0.001 sec
     gradient                   ...        0 min,  0.002 sec
 * total energy  :   -17.7284565 Eh     change       -0.3313950E-04 Eh
   gradient norm :     0.0005766 Eh/α   predicted    -0.1255060E-04 ( -62.13%)
   displ. norm   :     0.1194320 α      lambda       -0.1980669E-04
   maximum displ.:     0.1084793 α      in ANC's #1, #3, #2, ...

........................................................................
.............................. CYCLE   13 ..............................
........................................................................

 iter      E             dE          RMSdq      gap      omega  full diag
   1    -17.9421607 -0.179422E+02  0.440E-02   12.65       0.0  T
   2    -17.9421608 -0.777260E-07  0.264E-02   12.65       1.0  T
   3    -17.9421609 -0.542627E-07  0.143E-03   12.65      18.1  T
   4    -17.9421609 -0.238273E-08  0.820E-04   12.65      31.5  T
   5    -17.9421609 -0.135399E-08  0.176E-04   12.65     146.4  T
     SCC iter.                  ...        0 min,  0.001 sec
     gradient                   ...        0 min,  0.002 sec
 * total energy  :   -17.7284822 Eh     change       -0.2578291E-04 Eh
   gradient norm :     0.0007126 Eh/α   predicted    -0.9967796E-05 ( -61.34%)
   displ. norm   :     0.1031100 α      lambda       -0.1437779E-04
   maximum displ.:     0.0954659 α      in ANC's #1, #3, #2, ...

........................................................................
.............................. CYCLE   14 ..............................
........................................................................

 iter      E             dE          RMSdq      gap      omega  full diag
   1    -17.9421752 -0.179422E+02  0.369E-02   12.66       0.0  T
   2    -17.9421752 -0.483074E-07  0.222E-02   12.66       1.2  T
   3    -17.9421753 -0.341844E-07  0.111E-03   12.66      23.2  T
   4    -17.9421753 -0.151699E-08  0.462E-04   12.66      55.9  T
   5    -17.9421753 -0.442508E-09  0.121E-04   12.66     213.9  T
     SCC iter.                  ...        0 min,  0.001 sec
     gradient                   ...        0 min,  0.002 sec
 * total energy  :   -17.7285011 Eh     change       -0.1884128E-04 Eh
   gradient norm :     0.0007972 Eh/α   predicted    -0.7223679E-05 ( -61.66%)
   displ. norm   :     0.0963660 α      lambda       -0.1212716E-04
   maximum displ.:     0.0907760 α      in ANC's #1, #3, #2, ...

........................................................................
.............................. CYCLE   15 ..............................
........................................................................

 iter      E             dE          RMSdq      gap      omega  full diag
   1    -17.9422999 -0.179423E+02  0.344E-02   12.66       0.0  T
   2    -17.9422999 -0.462983E-07  0.206E-02   12.66       1.3  T
   3    -17.9423000 -0.298460E-07  0.107E-03   12.66      24.2  T
   4    -17.9423000 -0.160582E-08  0.655E-04   12.66      39.4  T
   5    -17.9423000 -0.838103E-09  0.155E-04   12.66     166.1  T
     SCC iter.                  ...        0 min,  0.001 sec
     gradient                   ...        0 min,  0.002 sec
 * total energy  :   -17.7285172 Eh     change       -0.1616730E-04 Eh
   gradient norm :     0.0006876 Eh/α   predicted    -0.6087088E-05 ( -62.35%)
   displ. norm   :     0.0951212 α      lambda       -0.1014492E-04
   maximum displ.:     0.0895866 α      in ANC's #1, #3, #2, ...

........................................................................
.............................. CYCLE   16 ..............................
........................................................................

 iter      E             dE          RMSdq      gap      omega  full diag
   1    -17.9422510 -0.179423E+02  0.334E-02   12.66       0.0  T
   2    -17.9422510 -0.405249E-07  0.200E-02   12.66       1.3  T
   3    -17.9422511 -0.257909E-07  0.988E-04   12.66      26.1  T
   4    -17.9422511 -0.145533E-08  0.623E-04   12.66      41.5  T
     SCC iter.                  ...        0 min,  0.001 sec
     gradient                   ...        0 min,  0.002 sec
 * total energy  :   -17.7285305 Eh     change       -0.1329318E-04 Eh
   gradient norm :     0.0005979 Eh/α   predicted    -0.5093216E-05 ( -61.69%)
   displ. norm   :     0.1118968 α      lambda       -0.1000238E-04
   maximum displ.:     0.1071871 α      in ANC's #1, #3, #2, ...

........................................................................
.............................. CYCLE   17 ..............................
........................................................................

 iter      E             dE          RMSdq      gap      omega  full diag
   1    -17.9424805 -0.179425E+02  0.376E-02   12.66       0.0  T
   2    -17.9424806 -0.678153E-07  0.225E-02   12.66       1.1  T
   3    -17.9424806 -0.341191E-07  0.118E-03   12.66      21.8  T
   4    -17.9424806 -0.289622E-08  0.746E-04   12.66      34.6  T
   5    -17.9424806 -0.957183E-09  0.241E-04   12.66     107.2  T
     SCC iter.                  ...        0 min,  0.001 sec
     gradient                   ...        0 min,  0.002 sec
 * total energy  :   -17.7285419 Eh     change       -0.1140228E-04 Eh
   gradient norm :     0.0004916 Eh/α   predicted    -0.5027370E-05 ( -55.91%)
   displ. norm   :     0.0930292 α      lambda       -0.5341380E-05
   maximum displ.:     0.0871396 α      in ANC's #1, #3, #2, ...

........................................................................
.............................. CYCLE   18 ..............................
........................................................................

 iter      E             dE          RMSdq      gap      omega  full diag
   1    -17.9422207 -0.179422E+02  0.335E-02   12.66       0.0  T
   2    -17.9422208 -0.596451E-07  0.200E-02   12.66       1.3  T
   3    -17.9422208 -0.255222E-07  0.102E-03   12.66      25.2  T
   4    -17.9422208 -0.163550E-08  0.641E-04   12.66      40.3  T
   5    -17.9422208 -0.602906E-09  0.193E-04   12.66     134.0  T
     SCC iter.                  ...        0 min,  0.001 sec
     gradient                   ...        0 min,  0.002 sec
 * total energy  :   -17.7285465 Eh     change       -0.4518707E-05 Eh
   gradient norm :     0.0007025 Eh/α   predicted    -0.2680993E-05 ( -40.67%)
   displ. norm   :     0.0525711 α      lambda       -0.1928125E-05
   maximum displ.:     0.0505803 α      in ANC's #1, #3, #26, ...

........................................................................
.............................. CYCLE   19 ..............................
........................................................................

 iter      E             dE          RMSdq      gap      omega  full diag
   1    -17.9424269 -0.179424E+02  0.180E-02   12.66       0.0  T
   2    -17.9424269 -0.223694E-07  0.108E-02   12.66       2.4  T
   3    -17.9424269 -0.876936E-08  0.582E-04   12.66      44.4  T
   4    -17.9424269 -0.468759E-09  0.359E-04   12.66      71.9  T
     SCC iter.                  ...        0 min,  0.001 sec
     gradient                   ...        0 min,  0.002 sec
 * total energy  :   -17.7285479 Eh     change       -0.1418777E-05 Eh
   gradient norm :     0.0002279 Eh/α   predicted    -0.9661100E-06 ( -31.91%)
   displ. norm   :     0.0066804 α      lambda       -0.2006012E-06
   maximum displ.:     0.0058138 α      in ANC's #1, #3, #2, ...

........................................................................
.............................. CYCLE   20 ..............................
........................................................................

 iter      E             dE          RMSdq      gap      omega  full diag
   1    -17.9425021 -0.179425E+02  0.298E-03   12.66       0.0  T
   2    -17.9425021 -0.227631E-08  0.175E-03   12.66      14.7  T
   3    -17.9425021 -0.221629E-09  0.243E-04   12.66     106.3  T
   4    -17.9425021 -0.188603E-09  0.811E-05   12.66     318.4  T
     SCC iter.                  ...        0 min,  0.001 sec
     gradient                   ...        0 min,  0.002 sec
 * total energy  :   -17.7285479 Eh     change       -0.6519721E-07 Eh
   gradient norm :     0.0001948 Eh/α   predicted    -0.1010561E-06 (  55.00%)
   displ. norm   :     0.0013794 α      lambda       -0.6847412E-07
   maximum displ.:     0.0007576 α      in ANC's #3, #1, #7, ...

   *** GEOMETRY OPTIMIZATION CONVERGED AFTER 20 ITERATIONS ***

------------------------------------------------------------------------
 total energy gain   :        -0.0014601 Eh       -0.9162 kcal/mol
 total RMSD          :         0.4048994 a0        0.2143 Å
 total power (kW/mol):        -0.1916734 (step)  -40.4866 (real)
------------------------------------------------------------------------

 ANCopt (total)                0 d,  0 h,  0 min,  0.095 sec
 optimizer setup                ...        0 min,  0.000 sec (  0.285%)
 model hessian                  ...        0 min,  0.004 sec (  4.435%)
 ANC generation                 ...        0 min,  0.000 sec (  0.231%)
 coordinate transformation      ...        0 min,  0.000 sec (  0.074%)
 single point calculation       ...        0 min,  0.082 sec ( 86.868%)
 optimization log               ...        0 min,  0.005 sec (  5.629%)
 hessian update                 ...        0 min,  0.000 sec (  0.085%)
 rational function              ...        0 min,  0.002 sec (  1.715%)

================
 final structure:
================
$coord
        3.82128914855905       -1.27460102719535       -0.02076631450599      C
        2.06900589134757        0.81614904703216       -0.94594787288261      C
        0.07097756846360        1.55269942801844        1.01063268982476      C
       -2.07350481656418       -0.37784023616052        1.19715211584513      C
       -3.45815821153635       -0.63247896152877       -1.07110563429196      O
        2.77040322328138       -2.99707560821013        0.36427082052632      H
        5.23921176918432       -1.69598238109543       -1.44664161887637      H
        4.78263013616735       -0.69838422880614        1.70283280986651      H
        3.19864344576673        2.47979367805550       -1.40703676635354      H
        1.11401759219965        0.19897560204835       -2.66790628475654      H
        0.94404057062652        1.73813904332077        2.86879264826246      H
       -0.73688093359981        3.38385585182729        0.50252786975447      H
       -1.32335378647021       -2.25955733361246        1.58736151801908      H
       -3.34764978349507        0.14455544871256        2.75176289822528      H
       -4.19895278200335        0.98369772089996       -1.49568362348737      H
$end
 
 Bond Distances (Angstroems)
 ---------------------------
C1-C2=1.5243         C1-H6=1.0870         C1-H7=1.0872         C1-H8=1.0880         C2-C1=1.5243         C2-C3=1.5303         
C2-H9=1.0917         C2-H10=1.0920        C3-C2=1.5303         C3-C4=1.5301         C3-H11=1.0908        C3-H12=1.0927        
C4-C3=1.5301         C4-O5=1.4127         C4-H13=1.0917        C4-H14=1.0990        O5-C4=1.4127         O5-H15=0.9673        
H6-C1=1.0870         H7-C1=1.0872         H8-C1=1.0880         H9-C2=1.0917         H10-C2=1.0920        H11-C3=1.0908        
H12-C3=1.0927        H13-C4=1.0917        H14-C4=1.0990        H15-O5=0.9673        
 C  H  Rav=1.0911 sigma=0.0035  Rmin=1.0870  Rmax=1.0990     9
 C  C  Rav=1.5282 sigma=0.0028  Rmin=1.5243  Rmax=1.5303     3
 O  H  Rav=0.9673 sigma=0.0000  Rmin=0.9673  Rmax=0.9673     1
 O  C  Rav=1.4127 sigma=0.0000  Rmin=1.4127  Rmax=1.4127     1
 
 selected bond angles (degree)
 --------------------
H6-C1-C2=110.95                H7-C1-C2=110.23                H7-C1-H6=108.13                H8-C1-C2=110.50                
H8-C1-H6=108.49                H8-C1-H7=108.46                C3-C2-C1=112.82                H9-C2-C1=108.90                
H9-C2-C3=108.91                H10-C2-C1=109.42               H10-C2-C3=108.72               H10-C2-H9=107.94               
C4-C3-C2=112.71                H11-C3-C2=109.89               H11-C3-C4=108.42               H12-C3-C2=109.25               
H12-C3-C4=108.53               H12-C3-H11=107.92              O5-C4-C3=113.18                H13-C4-C3=110.58               
H13-C4-O5=105.21               H14-C4-C3=109.59               H14-C4-O5=109.99               H14-C4-H13=108.12              
H15-O5-C4=108.86               
 
 selected dihedral angles (degree)
 ---------------------------------
C3-C2-C1-H6= 61.90            C3-C2-C1-H7=181.65            C3-C2-C1-H8=301.52            H9-C2-C1-H6=182.95            
H9-C2-C1-H7=302.70            H9-C2-C1-H8= 62.57            H10-C2-C1-H6=300.73           H10-C2-C1-H7= 60.48           
H10-C2-C1-H8=180.35           C4-C3-C2-C1=283.87            C4-C3-C2-H9=162.83            C4-C3-C2-H10= 45.44           
H11-C3-C2-C1= 44.92           H11-C3-C2-H9=283.87           H11-C3-C2-H10=166.48          H12-C3-C2-C1=163.14           
H12-C3-C2-H9= 42.09           H12-C3-C2-H10=284.71          O5-C4-C3-C2=297.59            O5-C4-C3-H11=175.71           
O5-C4-C3-H12= 58.73           H13-C4-C3-C2= 55.33           H13-C4-C3-H11=293.46          H13-C4-C3-H12=176.47          
H14-C4-C3-C2=174.42           H14-C4-C3-H11= 52.55          H14-C4-C3-H12=295.56          H15-O5-C4-C3=299.77           
H15-O5-C4-H13=178.93          H15-O5-C4-H14= 62.72          
           -------------------------------------------------
          |                Final Singlepoint                |
           -------------------------------------------------

          ...................................................
          :                      SETUP                      :
          :.................................................:
          :  # basis functions                  30          :
          :  # atomic orbitals                  30          :
          :  # shells                           20          :
          :  # electrons                        32          :
          :  max. iterations                   250          :
          :  Hamiltonian                  GFN2-xTB          :
          :  restarted?                      false          :
          :  GBSA solvation                   true          :
          :  PC potential                    false          :
          :  electronic temp.          300.0000000     K    :
          :  accuracy                    1.0000000          :
          :  -> integral cutoff          0.2500000E+02      :
          :  -> integral neglect         0.1000000E-07      :
          :  -> SCF convergence          0.1000000E-05 Eh   :
          :  -> wf. convergence          0.1000000E-03 e    :
          :  Broyden damping             0.4000000          :
          :  net charge                          0          :
          :  unpaired electrons                  0          :
          ...................................................

 iter      E             dE          RMSdq      gap      omega  full diag
   1    -17.9425021 -0.179425E+02  0.338E-05   12.66       0.0  T
   2    -17.9425021 -0.133582E-11  0.230E-05   12.66    1122.9  T
   3    -17.9425021 -0.980549E-12  0.554E-06   12.66    4660.8  T

   *** convergence criteria satisfied after 3 iterations ***

         #    Occupation            Energy/Eh            Energy/eV
      -------------------------------------------------------------
         1        2.0000           -0.6865845             -18.6829
       ...           ...                  ...                  ...
        10        2.0000           -0.4830419             -13.1442
        11        2.0000           -0.4713651             -12.8265
        12        2.0000           -0.4512804             -12.2800
        13        2.0000           -0.4389164             -11.9435
        14        2.0000           -0.4328176             -11.7776
        15        2.0000           -0.4220540             -11.4847
        16        2.0000           -0.4071629             -11.0795 (HOMO)
        17                          0.0580842               1.5806 (LUMO)
        18                          0.0906787               2.4675
        19                          0.1067006               2.9035
        20                          0.1283232               3.4919
        21                          0.1398116               3.8045
       ...                                ...                  ...
        30                          0.3057244               8.3192
      -------------------------------------------------------------
                  HL-Gap            0.4652471 Eh           12.6600 eV
             Fermi-level           -0.1745393 Eh           -4.7495 eV

 SCC (total)                   0 d,  0 h,  0 min,  0.004 sec
 SCC setup                      ...        0 min,  0.001 sec ( 16.977%)
 Dispersion                     ...        0 min,  0.000 sec (  0.812%)
 classical contributions        ...        0 min,  0.000 sec (  0.271%)
 integral evaluation            ...        0 min,  0.001 sec ( 17.332%)
 iterations                     ...        0 min,  0.001 sec ( 14.837%)
 molecular gradient             ...        0 min,  0.002 sec ( 47.257%)
 printout                       ...        0 min,  0.000 sec (  2.191%)

         :::::::::::::::::::::::::::::::::::::::::::::::::::::
         ::                     SUMMARY                     ::
         :::::::::::::::::::::::::::::::::::::::::::::::::::::
         :: total energy             -17.728547943513 Eh    ::
         :: total w/o Gsasa/hb       -17.724799781700 Eh    ::
         :: gradient norm              0.000194956477 Eh/a0 ::
         :: HOMO-LUMO gap             12.660018821478 eV    ::
         ::.................................................::
         :: SCC energy               -17.942490023277 Eh    ::
         :: -> isotropic ES            0.035203672775 Eh    ::
         :: -> anisotropic ES          0.003428678690 Eh    ::
         :: -> anisotropic XC          0.006087880990 Eh    ::
         :: -> dispersion             -0.007291304664 Eh    ::
         :: -> Gsolv                  -0.008311065096 Eh    ::
         ::    -> Gelec               -0.004562903283 Eh    ::
         ::    -> Gsasa                0.000579477451 Eh    ::
         ::    -> Ghb                 -0.005408398962 Eh    ::
         ::    -> Gshift               0.001080759698 Eh    ::
         :: repulsion energy           0.213942079763 Eh    ::
         :: add. restraining           0.000000000000 Eh    ::
         :: total charge              -0.000000000000 e     ::
         :::::::::::::::::::::::::::::::::::::::::::::::::::::

           ------------------------------------------------- 
          |                Numerical Hessian                |
           ------------------------------------------------- 
step length          :   0.00500
SCC accuracy         :   0.30000
Hessian scale factor :   1.00000
frozen atoms in %    :   0.00000    0
RMS gradient         :   0.00019
estimated CPU  time      0.01 min
estimated wall time      0.01 min

writing file <hessian>.

 projected vibrational frequencies (cm⁻¹)
eigval :       -0.00    -0.00    -0.00     0.00     0.00     0.00
eigval :       67.10   136.00   229.06   266.11   336.84   398.00
eigval :      494.69   786.74   851.68   890.36   971.44   984.10
eigval :     1042.05  1071.05  1123.67  1136.98  1166.10  1233.94
eigval :     1276.77  1295.08  1331.09  1343.56  1353.79  1411.92
eigval :     1469.99  1474.93  1485.75  1500.02  1505.02  2869.27
eigval :     2961.38  2969.09  2985.42  2986.19  2989.67  3024.64
eigval :     3031.92  3042.55  3496.37
           -------------------------------------------------
          |                Property Printout                |
           -------------------------------------------------

    * Orbital Energies and Occupations

         #    Occupation            Energy/Eh            Energy/eV
      -------------------------------------------------------------
         1        2.0000           -0.6865846             -18.6829
       ...           ...                  ...                  ...
         4        2.0000           -0.5895591             -16.0427
         5        2.0000           -0.5649953             -15.3743
         6        2.0000           -0.5415731             -14.7370
         7        2.0000           -0.5263205             -14.3219
         8        2.0000           -0.5211478             -14.1812
         9        2.0000           -0.4936281             -13.4323
        10        2.0000           -0.4830419             -13.1442
        11        2.0000           -0.4713652             -12.8265
        12        2.0000           -0.4512804             -12.2800
        13        2.0000           -0.4389165             -11.9435
        14        2.0000           -0.4328176             -11.7776
        15        2.0000           -0.4220540             -11.4847
        16        2.0000           -0.4071629             -11.0795 (HOMO)
        17                          0.0580842               1.5806 (LUMO)
        18                          0.0906786               2.4675
        19                          0.1067006               2.9035
        20                          0.1283232               3.4919
        21                          0.1398116               3.8045
        22                          0.1556012               4.2341
        23                          0.1590130               4.3270
        24                          0.1823139               4.9610
        25                          0.2087024               5.6791
        26                          0.2282057               6.2098
        27                          0.2484272               6.7600
       ...                                ...                  ...
        30                          0.3057244               8.3192
      -------------------------------------------------------------
                  HL-Gap            0.4652471 Eh           12.6600 eV
             Fermi-level           -0.1745394 Eh           -4.7495 eV

     #   Z          covCN         q      C6AA      α(0)
     1   6 C        3.752    -0.112    22.696     6.794
     2   6 C        3.800    -0.059    21.635     6.622
     3   6 C        3.800    -0.076    21.957     6.672
     4   6 C        3.674     0.080    19.472     6.323
     5   8 O        1.654    -0.517    23.260     6.510
     6   1 H        0.925     0.036     2.505     2.475
     7   1 H        0.925     0.038     2.476     2.460
     8   1 H        0.925     0.038     2.481     2.463
     9   1 H        0.924     0.034     2.526     2.486
    10   1 H        0.924     0.042     2.421     2.433
    11   1 H        0.924     0.043     2.408     2.427
    12   1 H        0.924     0.040     2.448     2.447
    13   1 H        0.924     0.044     2.392     2.418
    14   1 H        0.923     0.018     2.761     2.599
    15   1 H        0.805     0.350     0.588     1.204

 Mol. C6AA /au·bohr⁶  :       1460.592845
 Mol. C8AA /au·bohr⁸  :      29903.691494
 Mol. α(0) /au        :         56.334269


Wiberg/Mayer (AO) data.
largest (>0.10) Wiberg bond orders for each atom

 ---------------------------------------------------------------------------
     #   Z sym  total        # sym  WBO       # sym  WBO       # sym  WBO
 ---------------------------------------------------------------------------
     1   6 C    3.997 --     2 C    1.021     8 H    0.987     7 H    0.987
                             6 H    0.986
     2   6 C    3.997 --     1 C    1.021     3 C    1.008     9 H    0.979
                            10 H    0.977
     3   6 C    3.997 --     2 C    1.008     4 C    0.999    12 H    0.976
                            11 H    0.975
     4   6 C    3.952 --     3 C    0.999     5 O    0.994    14 H    0.971
                            13 H    0.971
     5   8 O    1.914 --     4 C    0.994    15 H    0.863
     6   1 H    0.999 --     1 C    0.986
     7   1 H    0.999 --     1 C    0.987
     8   1 H    0.999 --     1 C    0.987
     9   1 H    0.999 --     2 C    0.979
    10   1 H    0.998 --     2 C    0.977
    11   1 H    0.998 --     3 C    0.975
    12   1 H    0.998 --     3 C    0.976
    13   1 H    0.998 --     4 C    0.971
    14   1 H    1.000 --     4 C    0.971
    15   1 H    0.877 --     5 O    0.863
 ---------------------------------------------------------------------------

Topologies differ in total number of bonds
Writing topology from bond orders to xtbtopo.mol

molecular dipole:
                 x           y           z       tot (Debye)
 q only:        0.124       0.625       0.232
   full:        0.091       0.773       0.319       2.137
molecular quadrupole (traceless):
                xx          xy          yy          xz          yz          zz
 q only:        0.093      -3.696      -0.146      -0.268      -1.470       0.053
  q+dip:       -0.092      -4.626       0.376      -0.997      -1.818      -0.284
   full:       -0.009      -4.777       0.186      -0.704      -1.876      -0.177

           -------------------------------------------------
          |                Geometry Summary                 |
           -------------------------------------------------

      molecular mass/u    :       74.1217560
   center of mass at/Å    :       -0.0008879      -0.0016173       0.0039360
  moments of inertia/u·Å² :        0.5537699E+02   0.1839310E+03   0.1919505E+03
rotational constants/cm⁻¹ :        0.3044158E+00   0.9165194E-01   0.8782281E-01

 * 14 selected distances

     #   Z          #   Z                                           value/Å
     1   6 C        2   6 C                                       1.5243330
     2   6 C        3   6 C                                       1.5303044 (max)
     3   6 C        4   6 C                                       1.5300982
     4   6 C        5   8 O                                       1.4127248
     1   6 C        6   1 H                                       1.0870096
     1   6 C        7   1 H                                       1.0872226
     1   6 C        8   1 H                                       1.0879705
     2   6 C        9   1 H                                       1.0917476
     2   6 C       10   1 H                                       1.0919591
     3   6 C       11   1 H                                       1.0908480
     3   6 C       12   1 H                                       1.0927145
     4   6 C       13   1 H                                       1.0916773
     4   6 C       14   1 H                                       1.0990029
     5   8 O       15   1 H                                       0.9672617 (min)

 * 4 distinct bonds (by element types)

   Z      Z             #   av. dist./Å        max./Å        min./Å
   1 H    6 C           9     1.0911280     1.0990029     1.0870096
   6 C    6 C           3     1.5282452     1.5303044     1.5243330
   1 H    8 O           1     0.9672617     0.9672617     0.9672617
   6 C    8 O           1     1.4127248     1.4127248     1.4127248

           -------------------------------------------------
          |               Frequency Printout                |
           -------------------------------------------------
 projected vibrational frequencies (cm⁻¹)
eigval :       -0.00    -0.00    -0.00     0.00     0.00     0.00
eigval :       67.10   136.00   229.06   266.11   336.84   398.00
eigval :      494.69   786.74   851.68   890.36   971.44   984.10
eigval :     1042.05  1071.05  1123.67  1136.98  1166.10  1233.94
eigval :     1276.77  1295.08  1331.09  1343.56  1353.79  1411.92
eigval :     1469.99  1474.93  1485.75  1500.02  1505.02  2869.27
eigval :     2961.38  2969.09  2985.42  2986.19  2989.67  3024.64
eigval :     3031.92  3042.55  3496.37
 reduced masses (amu)
   1:  9.89   2:  9.96   3: 12.30   4: 10.62   5: 10.67   6: 10.97   7:  9.03   8:  7.02
   9:  3.68  10:  8.48  11:  2.63  12:  6.61  13:  8.60  14:  3.37  15:  6.47  16:  6.46
  17:  5.74  18:  6.07  19:  7.54  20:  4.31  21:  7.62  22:  7.57  23:  5.32  24:  3.73
  25:  2.53  26:  3.17  27:  3.46  28:  4.17  29:  4.98  30:  3.24  31:  1.91  32:  1.84
  33:  1.90  34:  1.60  35:  1.55  36:  1.74  37:  1.81  38:  1.95  39:  1.49  40:  1.68
  41:  1.67  42:  1.87  43:  1.93  44:  1.34  45:  1.87
 IR intensities (km·mol⁻¹)
   1:  0.49   2:  0.94   3:  0.34   4:  0.79   5:  1.36   6:  0.55   7:  2.17   8:  1.26
   9:  6.03  10:  8.44  11:197.04  12:  2.12  13: 35.39  14:  7.49  15:  4.78  16: 11.49
  17: 53.97  18:  2.89  19: 32.20  20: 82.56  21: 25.26  22:  4.12  23: 14.90  24:  3.97
  25:  4.05  26: 58.82  27: 44.08  28: 13.91  29:  1.98  30:  1.10  31:  0.24  32:  4.07
  33:  0.23  34:  1.02  35:  0.84  36:128.43  37: 41.66  38: 58.62  39: 31.88  40: 91.38
  41: 88.46  42: 89.84  43: 83.88  44: 47.82  45: 58.27
 Raman intensities (Ä⁴*amu⁻¹)
   1:  0.00   2:  0.00   3:  0.00   4:  0.00   5:  0.00   6:  0.00   7:  0.00   8:  0.00
   9:  0.00  10:  0.00  11:  0.00  12:  0.00  13:  0.00  14:  0.00  15:  0.00  16:  0.00
  17:  0.00  18:  0.00  19:  0.00  20:  0.00  21:  0.00  22:  0.00  23:  0.00  24:  0.00
  25:  0.00  26:  0.00  27:  0.00  28:  0.00  29:  0.00  30:  0.00  31:  0.00  32:  0.00
  33:  0.00  34:  0.00  35:  0.00  36:  0.00  37:  0.00  38:  0.00  39:  0.00  40:  0.00
  41:  0.00  42:  0.00  43:  0.00  44:  0.00  45:  0.00
 output can be read by thermo (or use thermo option).
 writing <g98.out> molden fake output.
 recommended (thermochemical) frequency scaling factor: 1.0
           -------------------------------------------------
          |             Thermodynamic Functions             |
           -------------------------------------------------

Molecule has no symmetry elements
It seems to be the C1 point group
c1  symmetry found (for desy threshold:  0.10E+00) used in thermo

          ...................................................
          :                      SETUP                      :
          :.................................................:
          :  # frequencies                          39      :
          :  # imaginary freq.                       0      :
          :  linear?                             false      :
          :  only rotor calc.                    false      :
          :  symmetry                               c1      :
          :  rotational number                       1      :
          :  scaling factor                  1.0000000      :
          :  rotor cutoff                    0.0000000 cm⁻¹ :
          :  imag. cutoff                 -100.0000000 cm⁻¹ :
          :.................................................:

    mode    ω/cm⁻¹     T·S(HO)/kcal·mol⁻¹    T·S(FR)/kcal·mol⁻¹   T·S(vib)
   ------------------------------------------------------------------------
       1     67.10    -1.26315 (100.00%)    -0.96888 (  0.00%)    -1.26315
       2    136.00    -0.85253 (100.00%)    -0.75987 (  0.00%)    -0.85253
       3    229.06    -0.56240 (100.00%)    -0.60553 (  0.00%)    -0.56240
       4    266.11    -0.48340 (100.00%)    -0.56114 (  0.00%)    -0.48340
   ------------------------------------------------------------------------

   temp. (K)  partition function   enthalpy   heat capacity  entropy
                                   cal/mol     cal/K/mol   cal/K/mol   J/K/mol
 298.15  VIB   27.9                 2428.241     17.070     14.759
         ROT  0.107E+06              888.752      2.981     25.991
         INT  0.298E+07             3316.994     20.051     40.750
         TR   0.617E+27             1481.254      4.968     38.808
         TOT                        4798.2476    25.0194    79.5575   332.8687

       T/K    H(0)-H(T)+PV         H(T)/Eh          T*S/Eh         G(T)/Eh
   ------------------------------------------------------------------------
    298.15    0.764649E-02    0.142036E+00    0.378004E-01    0.104236E+00
   ------------------------------------------------------------------------

         :::::::::::::::::::::::::::::::::::::::::::::::::::::
         ::                  THERMODYNAMIC                  ::
         :::::::::::::::::::::::::::::::::::::::::::::::::::::
         :: total free energy         -17.624311973998 Eh   ::
         ::.................................................::
         :: total energy              -17.728547943490 Eh   ::
         :: zero point energy           0.134389825272 Eh   ::
         :: G(RRHO) w/o ZPVE           -0.030153855780 Eh   ::
         :: G(RRHO) contrib.            0.104235969492 Eh   ::
         :::::::::::::::::::::::::::::::::::::::::::::::::::::

optimized geometry written to: xtbopt.coord


           -------------------------------------------------
          | TOTAL ENERGY              -17.728547943490 Eh   |
          | TOTAL ENTHALPY            -17.586511623909 Eh   |
          | TOTAL FREE ENERGY         -17.624311973998 Eh   |
          | GRADIENT NORM               0.000194988226 Eh/α |
          | HOMO-LUMO GAP              12.660018887744 eV   |
           -------------------------------------------------

------------------------------------------------------------------------
 * finished run on 2025/04/06 at 22:38:51.159     
------------------------------------------------------------------------
 total:
 * wall-time:     0 d,  0 h,  0 min,  0.534 sec
 *  cpu-time:     0 d,  0 h,  0 min,  0.466 sec
 * ratio c/w:     0.873 speedup
 SCF:
 * wall-time:     0 d,  0 h,  0 min,  0.008 sec
 *  cpu-time:     0 d,  0 h,  0 min,  0.007 sec
 * ratio c/w:     0.891 speedup
 ANC optimizer:
 * wall-time:     0 d,  0 h,  0 min,  0.108 sec
 *  cpu-time:     0 d,  0 h,  0 min,  0.095 sec
 * ratio c/w:     0.879 speedup
 analytical hessian:
 * wall-time:     0 d,  0 h,  0 min,  0.364 sec
 *  cpu-time:     0 d,  0 h,  0 min,  0.356 sec
 * ratio c/w:     0.977 speedup

