! wb97x-v def2-tzvp def2/J RIJCOSX DEFGRID2 scfconv7 GCP(DFT/TZ) printgap
%output
    printlevel normal
end
%cpcm
    smd true
    smdsolvent "water"
end
* xyz 0 1
C -2.904377284824008 1.4790529362985168 0.004597685978572716
C -1.8133951404912003 0.44932863639603576 -0.010317682549224574
C -2.106225094631917 -0.919090179167182 -0.003270298778794078
C -1.0952888115237525 -1.8783826703729691 0.006798394014951507
C 0.23776343068813488 -1.4954505138196894 0.009065755415726944
C 0.5181910454757498 -0.13196132165779545 0.0002272706458010941
C -0.47505033045865763 0.8409144030913187 -0.010843222621037568
N 1.9184450352667808 0.2975225556443719 -0.0007085065932480696
O 2.161988767119373 1.5038771682400287 -0.015368909545293862
O 2.795350609062469 -0.566477492615937 0.012880067949244836
H -3.8619199723911284 1.0411639215533022 -0.28573201117224006
H -3.017641023747422 1.9013507695693144 1.0096093378341597
H -2.6739154689116424 2.3067053680960594 -0.6719384320030648
H -3.1444228398974823 -1.2374053953471225 -0.007375010514792725
H -1.3494687045870604 -2.9327469461272098 0.01022019433631469
H 1.0352111304996279 -2.2268900904729443 0.014189907214916373
H -0.21008988896129854 1.891398251412958 -0.019931349515488583
*
