! r2scan-3c def2/J RI DEFGRID2 scfconv6 printgap
%output
    printlevel normal
end
* xyz 0 1
C -1.8923216226 -1.236434755 -0.0238652996
C -1.5170051116 0.2382494055 0.021240745
C -0.0339704433 0.5022433437 0.0103954752
O 0.4532335527 1.616891868 0.0102691561
O 0.6953506871 -0.6037880419 -0.002265666
C 2.1172031822 -0.4651014313 -0.0133473082
H -2.9735772158 -1.3378359251 -0.01407061
H -1.5049047148 -1.7023325266 -0.925411713
H -1.4831117852 -1.7619417142 0.8341412267
H -1.9150561419 0.713001801 0.9210589299
H -1.9405654161 0.7752297214 -0.8303856782
H 2.4151227867 0.2815465845 -0.750611358
H 2.5067653842 -1.4462587241 -0.2665222957
H 2.4653235715 -0.150867276 0.9712080947
*
