! r2scan-3c def2/J RI DEFGRID2 scfconv6 printgap
%output
    printlevel normal
end
* xyz 0 1
C -2.399292259 -7.12441e-05 -0.5365781951
C -1.3777596751 1.31707e-05 0.5997889461
C -0.4955286656 -1.2523084411 0.5809066864
C 0.4954560184 -1.252452831 -0.5805426735
C 1.377497854 1.20357e-05 -0.5998647538
C 0.4955325353 1.2525339513 -0.5804422699
C -0.4956420298 1.2524108384 0.5808654503
C 2.3996725257 -0.0001225046 0.5359140332
H -3.0332837286 -0.881594841 -0.4707921548
H -3.0323541675 0.882200874 -0.4719000006
H -1.9155889126 -0.0009435597 -1.5085429874
H -1.9410825674 3.45867e-05 1.5416589469
H 0.0529658133 -1.3113390076 1.5228575167
H -1.1266469345 -2.1415269864 0.5152767364
H 1.1267297659 -2.1415361774 -0.5146201542
H -0.0530397009 -1.3118972671 -1.5224576722
H 1.9402948693 3.49761e-05 -1.5420482368
H 1.1268922093 2.1415468362 -0.5142579136
H -0.0528204361 1.3122069839 -1.522426209
H 0.052712134 1.3115938598 1.5228924749
H -1.1268504288 2.1415535137 0.5150219876
H 3.0334452057 -0.8818346217 0.4698685022
H 1.9164945422 -0.0007363942 1.5082283755
H 3.0328913951 0.8820587658 0.470678031
*
