! r2scan-3c def2/J RI DEFGRID2 scfconv6 printgap
%output
    printlevel normal
end
* xyz 0 1
C 0.2353199146 1.3747108029 -0.0013662374
C 1.3082338529 0.483509006 -0.0009961972
C 1.0728522034 -0.8911041269 -0.0002289948
C -0.2353299819 -1.3745272863 -0.0001565595
C -1.3081968034 -0.483402519 -0.000404025
C -1.0729813972 0.8912810288 -0.000782335
Cl -2.3898078947 1.9847149084 -3.38912e-05
Cl -2.9135748001 -1.0768857439 0.0002194427
Cl -0.5243666983 -3.0614997437 0.0002669182
Cl 2.3894787551 -1.984724937 0.0001200155
Cl 2.9137972184 1.0765654596 7.13471e-05
Cl 0.5245080469 3.0616718784 0.0006890454
*
