! r2scan-3c def2/J RI DEFGRID2 scfconv6 printgap
%output
    printlevel normal
end
%cpcm
    smd true
    smdsolvent "water"
end
* xyz 0 1
C -1.371122951 0.6844822838 1.52875357
N -1.9904201325 0.4812321683 0.2387045226
C -3.1761441939 1.2726317872 -0.0083533297
C -1.6372848091 -0.473003009 -0.6436721284
O -2.3626417762 -0.8135552824 -1.5843308944
N -0.4403732862 -1.1324755497 -0.4273809155
C 0.8016308676 -0.551478682 -0.1312255852
C 1.0453777966 0.8075648799 -0.3098801994
C 2.2863942162 1.3355859613 -0.0028643974
C 3.2996691978 0.5197134566 0.4704783313
C 3.0684770238 -0.8378413182 0.623563836
C 1.8302935432 -1.3733899557 0.3249118617
H -0.7463366057 1.5803994004 1.5305839662
H -0.7598321907 -0.1723231263 1.796615917
H -2.1592009125 0.8034452541 2.2726576577
H -3.9595222848 1.0250960019 0.7103167227
H -3.5350721316 1.0553697802 -1.0119703017
H -2.9307286572 2.3316638419 0.0760147591
H -0.3876176953 -2.0060769814 -0.9353125676
H 0.2696479478 1.4396532989 -0.7142608642
H 2.464043683 2.3905165283 -0.1469110336
H 4.2662222391 0.9360766363 0.7072171347
H 3.856772588 -1.4840485088 0.9783884711
H 1.6503337337 -2.4312184119 0.4417548954
*
