15
 xtb: 6.7.1 (edcfbbe)
C            1.81939096429655        0.65485791812520       -0.26663995368775
C            1.01588855925939       -0.23773418958442        0.66281748064660
O           -0.00003649402080       -1.01102683802270       -0.00040334865063
C           -1.01590671514605       -0.23728962399306       -0.66318907221338
C           -1.81928024175897        0.65491383804737        0.26675362757381
H            1.22869255672747        1.48834072030389       -0.65714353103896
H            2.66286670842679        1.07740847613855        0.28871431332069
H            2.21847183400871        0.08057066707466       -1.10914374283012
H            0.57154493207207        0.35442860804819        1.47530097818368
H            1.67088526370999       -0.98500090919391        1.12206481243238
H           -0.57153724347084        0.35523839621834       -1.47539166589105
H           -1.67100044768798       -0.98425533074208       -1.12278722232840
H           -2.66281628502503        1.07772285784488       -0.28832057214261
H           -2.21828066383444        0.08026083489722        1.10905263831727
H           -1.22852147334492        1.48821538255943        0.65755998538361
