      -----------------------------------------------------------      
     |                   =====================                   |     
     |                           x T B                           |     
     |                   =====================                   |     
     |                         S. Grimme                         |     
     |          Mulliken Center for Theoretical Chemistry        |     
     |                    University of Bonn                     |     
      -----------------------------------------------------------      

   * xtb version 6.7.1 (edcfbbe) compiled by 'albert@albert-system' on 2024-07-22

   xtb is free software: you can redistribute it and/or modify it under
   the terms of the GNU Lesser General Public License as published by
   the Free Software Foundation, either version 3 of the License, or
   (at your option) any later version.
   
   xtb is distributed in the hope that it will be useful,
   but WITHOUT ANY WARRANTY; without even the implied warranty of
   MERCHANTABILITY or FITNESS FOR A PARTICULAR PURPOSE.  See the
   GNU Lesser General Public License for more details.
   
   Cite this work as:
   * C. Bannwarth, E. Caldeweyher, S. Ehlert, A. Hansen, P. Pracht,
     J. Seibert, S. Spicher, S. Grimme, WIREs Comput. Mol. Sci., 2020, 11,
     e01493. DOI: 10.1002/wcms.1493
   
   for GFN2-xTB:
   * C. Bannwarth, S. Ehlert and S. Grimme., J. Chem. Theory Comput., 2019,
     15, 1652-1671. DOI: 10.1021/acs.jctc.8b01176
   for GFN1-xTB:
   * S. Grimme, C. Bannwarth, P. Shushkov, J. Chem. Theory Comput., 2017,
     13, 1989-2009. DOI: 10.1021/acs.jctc.7b00118
   for GFN0-xTB:
   * P. Pracht, E. Caldeweyher, S. Ehlert, S. Grimme, ChemRxiv, 2019, preprint.
     DOI: 10.26434/chemrxiv.8326202.v1
   for GFN-FF:
   * S. Spicher and S. Grimme, Angew. Chem. Int. Ed., 2020, 59, 15665-15673.
     DOI: 10.1002/anie.202004239
   
   for ALPB and GBSA implicit solvation:
   * S. Ehlert, M. Stahn, S. Spicher, S. Grimme, J. Chem. Theory Comput.,
     2021, 17, 4250-4261. DOI: 10.1021/acs.jctc.1c00471
   
   for ddCOSMO and CPCM-X implicit solvation:
   * M. Stahn, S. Ehlert, S. Grimme, J. Phys. Chem. A,
     2023, XX, XXXX-XXXX. DOI: 10.1021/acs.jpca.3c04382
   
   for DFT-D4:
   * E. Caldeweyher, C. Bannwarth and S. Grimme, J. Chem. Phys., 2017,
     147, 034112. DOI: 10.1063/1.4993215
   * E. Caldeweyher, S. Ehlert, A. Hansen, H. Neugebauer, S. Spicher,
     C. Bannwarth and S. Grimme, J. Chem. Phys., 2019, 150, 154122.
     DOI: 10.1063/1.5090222
   * E. Caldeweyher, J.-M. Mewes, S. Ehlert and S. Grimme, Phys. Chem. Chem. Phys.
     2020, 22, 8499-8512. DOI: 10.1039/D0CP00502A
   
   for sTDA-xTB:
   * S. Grimme and C. Bannwarth, J. Chem. Phys., 2016, 145, 054103.
     DOI: 10.1063/1.4959605
   
   in the mass-spec context:
   * V. Asgeirsson, C. Bauer and S. Grimme, Chem. Sci., 2017, 8, 4879.
     DOI: 10.1039/c7sc00601b
   * J. Koopman and S. Grimme, ACS Omega 2019, 4, 12, 15120-15133.
     DOI: 10.1021/acsomega.9b02011
   
   for metadynamics refer to:
   * S. Grimme, J. Chem. Theory Comput., 2019, 155, 2847-2862
     DOI: 10.1021/acs.jctc.9b00143
   
   for SPH calculations refer to:
   * S. Spicher and S. Grimme, J. Chem. Theory Comput., 2021, 17, 1701-1714
     DOI: 10.1021/acs.jctc.0c01306
   
   for ONIOM refer to:
   * C. Plett, A. Katbashev, S. Ehlert, S. Grimme, M. Bursch,
     Phys. Chem. Chem. Phys., 2023, 25, 17860-17868. DOI: 10.1039/D3CP02178E
   
   for DIPRO refer to:
   * J. Kohn, N. Gildemeister, S. Grimme, D. Fazzi, A. Hansen,
     J. Chem. Phys., 2023, just accepted.
   
   for PTB refer to:
   * S. Grimme, M. Mueller, A. Hansen, J. Chem. Phys., 2023, 158, 124111.
     DOI: 10.1063/5.0137838
   
   with help from (in alphabetical order)
   P. Atkinson, C. Bannwarth, F. Bohle, G. Brandenburg, E. Caldeweyher
   M. Checinski, S. Dohm, S. Ehlert, S. Ehrlich, I. Gerasimov, C. Hölzer
   A. Katbashev, J. Kohn, J. Koopman, C. Lavigne, S. Lehtola, F. März, M. Müller,
   F. Musil, H. Neugebauer, J. Pisarek, C. Plett, P. Pracht, F. Pultar,
   J. Seibert, P. Shushkov, S. Spicher, M. Stahn, M. Steiner, T. Strunk,
   J. Stückrath, T. Rose, and J. Unsleber
   
 * started run on 2025/04/06 at 22:31:19.604     
   ID    Z sym.   atoms
    1    6 C      1-4
    2    8 O      5
    3    1 H      6-15

           -------------------------------------------------
          |                Calculation Setup                |
           -------------------------------------------------

          program call               : /srv/scratch/z5358697/.xtb/bin/xtb gas.coord --gfn2 --sp --chrg 0 --norestart --parallel 1
          hostname                   : k159
          coordinate file            : gas.coord
          omp threads                :                     1


           -------------------------------------------------
          |                 G F N 2 - x T B                 |
           -------------------------------------------------

        Reference                      10.1021/acs.jctc.8b01176
      * Hamiltonian:
        H0-scaling (s, p, d)           1.850000    2.230000    2.230000
        zeta-weighting                 0.500000
      * Dispersion:
        s8                             2.700000
        a1                             0.520000
        a2                             5.000000
        s9                             5.000000
      * Repulsion:
        kExp                           1.500000    1.000000
        rExp                           1.000000
      * Coulomb:
        alpha                          2.000000
        third order                    shell-resolved
        anisotropic                    true
        a3                             3.000000
        a5                             4.000000
        cn-shift                       1.200000
        cn-exp                         4.000000
        max-rad                        5.000000


          ...................................................
          :                      SETUP                      :
          :.................................................:
          :  # basis functions                  30          :
          :  # atomic orbitals                  30          :
          :  # shells                           20          :
          :  # electrons                        32          :
          :  max. iterations                   250          :
          :  Hamiltonian                  GFN2-xTB          :
          :  restarted?                      false          :
          :  GBSA solvation                  false          :
          :  PC potential                    false          :
          :  electronic temp.          300.0000000     K    :
          :  accuracy                    1.0000000          :
          :  -> integral cutoff          0.2500000E+02      :
          :  -> integral neglect         0.1000000E-07      :
          :  -> SCF convergence          0.1000000E-05 Eh   :
          :  -> wf. convergence          0.1000000E-03 e    :
          :  Broyden damping             0.4000000          :
          :  net charge                          0          :
          :  unpaired electrons                  0          :
          ...................................................

 iter      E             dE          RMSdq      gap      omega  full diag
   1    -17.8967729 -0.178968E+02  0.334E+00   12.28       0.0  T
   2    -17.9328115 -0.360386E-01  0.179E+00   11.86       1.0  T
   3    -17.9334660 -0.654482E-03  0.772E-01   11.95       1.0  T
   4    -17.9336527 -0.186777E-03  0.116E-01   11.99       1.0  T
   5    -17.9336818 -0.290998E-04  0.654E-02   12.00       1.0  T
   6    -17.9336833 -0.144524E-05  0.850E-03   12.01       3.0  T
   7    -17.9336834 -0.134758E-06  0.450E-03   12.01       5.7  T
   8    -17.9336834 -0.973706E-08  0.948E-04   12.01      27.2  T
   9    -17.9336834 -0.147952E-08  0.206E-04   12.01     125.1  T

   *** convergence criteria satisfied after 9 iterations ***

         #    Occupation            Energy/Eh            Energy/eV
      -------------------------------------------------------------
         1        2.0000           -0.6829784             -18.5848
       ...           ...                  ...                  ...
        10        2.0000           -0.4864193             -13.2361
        11        2.0000           -0.4731996             -12.8764
        12        2.0000           -0.4553487             -12.3907
        13        2.0000           -0.4383071             -11.9269
        14        2.0000           -0.4347776             -11.8309
        15        2.0000           -0.4263851             -11.6025
        16        2.0000           -0.4054502             -11.0329 (HOMO)
        17                          0.0359184               0.9774 (LUMO)
        18                          0.1017606               2.7690
        19                          0.1162280               3.1627
        20                          0.1281220               3.4864
        21                          0.1390877               3.7848
       ...                                ...                  ...
        30                          0.2963464               8.0640
      -------------------------------------------------------------
                  HL-Gap            0.4413686 Eh           12.0103 eV
             Fermi-level           -0.1847659 Eh           -5.0277 eV

 SCC (total)                   0 d,  0 h,  0 min,  0.019 sec
 SCC setup                      ...        0 min,  0.000 sec (  0.603%)
 Dispersion                     ...        0 min,  0.000 sec (  0.277%)
 classical contributions        ...        0 min,  0.000 sec (  0.070%)
 integral evaluation            ...        0 min,  0.001 sec (  3.529%)
 iterations                     ...        0 min,  0.016 sec ( 84.399%)
 molecular gradient             ...        0 min,  0.002 sec ( 10.552%)
 printout                       ...        0 min,  0.000 sec (  0.513%)

         :::::::::::::::::::::::::::::::::::::::::::::::::::::
         ::                     SUMMARY                     ::
         :::::::::::::::::::::::::::::::::::::::::::::::::::::
         :: total energy             -17.719782080126 Eh    ::
         :: gradient norm              0.004988608551 Eh/a0 ::
         :: HOMO-LUMO gap             12.010250277206 eV    ::
         ::.................................................::
         :: SCC energy               -17.933674629859 Eh    ::
         :: -> isotropic ES            0.026917504221 Eh    ::
         :: -> anisotropic ES          0.004250154904 Eh    ::
         :: -> anisotropic XC          0.005774694715 Eh    ::
         :: -> dispersion             -0.007154870494 Eh    ::
         :: repulsion energy           0.213892549733 Eh    ::
         :: add. restraining           0.000000000000 Eh    ::
         :: total charge               0.000000000000 e     ::
         :::::::::::::::::::::::::::::::::::::::::::::::::::::

           -------------------------------------------------
          |                Property Printout                |
           -------------------------------------------------

    * Orbital Energies and Occupations

         #    Occupation            Energy/Eh            Energy/eV
      -------------------------------------------------------------
         1        2.0000           -0.6829784             -18.5848
       ...           ...                  ...                  ...
         4        2.0000           -0.5843684             -15.9015
         5        2.0000           -0.5674796             -15.4419
         6        2.0000           -0.5515725             -15.0091
         7        2.0000           -0.5290771             -14.3969
         8        2.0000           -0.5164138             -14.0523
         9        2.0000           -0.4943388             -13.4516
        10        2.0000           -0.4864193             -13.2361
        11        2.0000           -0.4731996             -12.8764
        12        2.0000           -0.4553487             -12.3907
        13        2.0000           -0.4383071             -11.9269
        14        2.0000           -0.4347776             -11.8309
        15        2.0000           -0.4263851             -11.6025
        16        2.0000           -0.4054502             -11.0329 (HOMO)
        17                          0.0359184               0.9774 (LUMO)
        18                          0.1017606               2.7690
        19                          0.1162280               3.1627
        20                          0.1281220               3.4864
        21                          0.1390877               3.7848
        22                          0.1415336               3.8513
        23                          0.1631103               4.4385
        24                          0.1817266               4.9450
        25                          0.2025579               5.5119
        26                          0.2218851               6.0378
        27                          0.2417434               6.5782
       ...                                ...                  ...
        30                          0.2963464               8.0640
      -------------------------------------------------------------
                  HL-Gap            0.4413686 Eh           12.0103 eV
             Fermi-level           -0.1847659 Eh           -5.0277 eV

     #   Z          covCN         q      C6AA      α(0)
     1   6 C        3.751    -0.105    22.569     6.775
     2   6 C        3.800    -0.057    21.603     6.618
     3   6 C        3.801    -0.065    21.747     6.639
     4   6 C        3.673     0.088    19.339     6.302
     5   8 O        1.655    -0.446    21.756     6.297
     6   1 H        0.925     0.038     2.473     2.459
     7   1 H        0.925     0.033     2.551     2.498
     8   1 H        0.925     0.036     2.508     2.477
     9   1 H        0.924     0.036     2.499     2.472
    10   1 H        0.924     0.031     2.571     2.507
    11   1 H        0.924     0.048     2.350     2.397
    12   1 H        0.924     0.049     2.338     2.391
    13   1 H        0.923     0.015     2.818     2.625
    14   1 H        0.924     0.017     2.776     2.605
    15   1 H        0.805     0.283     0.775     1.382

 Mol. C6AA /au·bohr⁶  :       1463.985619
 Mol. C8AA /au·bohr⁸  :      29865.428406
 Mol. α(0) /au        :         56.445711


Wiberg/Mayer (AO) data.
largest (>0.10) Wiberg bond orders for each atom

 ---------------------------------------------------------------------------
     #   Z sym  total        # sym  WBO       # sym  WBO       # sym  WBO
 ---------------------------------------------------------------------------
     1   6 C    3.997 --     2 C    1.020     6 H    0.987     8 H    0.987
                             7 H    0.987
     2   6 C    3.998 --     1 C    1.020     3 C    1.008     9 H    0.978
                            10 H    0.978
     3   6 C    3.994 --     2 C    1.008     4 C    1.005    11 H    0.976
                            12 H    0.975
     4   6 C    3.956 --     3 C    1.005     5 O    0.991    13 H    0.972
                            14 H    0.972
     5   8 O    1.947 --     4 C    0.991    15 H    0.906
     6   1 H    0.999 --     1 C    0.987
     7   1 H    0.999 --     1 C    0.987
     8   1 H    0.999 --     1 C    0.987
     9   1 H    0.998 --     2 C    0.978
    10   1 H    0.999 --     2 C    0.978
    11   1 H    0.998 --     3 C    0.976
    12   1 H    0.998 --     3 C    0.975
    13   1 H    1.000 --     4 C    0.972
    14   1 H    1.000 --     4 C    0.972
    15   1 H    0.920 --     5 O    0.906
 ---------------------------------------------------------------------------

Topologies differ in total number of bonds
Writing topology from bond orders to xtbtopo.mol

molecular dipole:
                 x           y           z       tot (Debye)
 q only:        0.241       0.175      -0.349
   full:        0.209       0.273      -0.590       1.735
molecular quadrupole (traceless):
                xx          xy          yy          xz          yz          zz
 q only:        0.021      -1.177      -0.846       3.310      -0.031       0.824
  q+dip:       -1.352      -2.175       0.063       5.179      -0.023       1.289
   full:       -0.568      -1.935      -0.638       5.085      -0.096       1.206


           -------------------------------------------------
          | TOTAL ENERGY              -17.719782080126 Eh   |
          | GRADIENT NORM               0.004988608551 Eh/α |
          | HOMO-LUMO GAP              12.010250277206 eV   |
           -------------------------------------------------

------------------------------------------------------------------------
 * finished run on 2025/04/06 at 22:31:19.696     
------------------------------------------------------------------------
 total:
 * wall-time:     0 d,  0 h,  0 min,  0.091 sec
 *  cpu-time:     0 d,  0 h,  0 min,  0.015 sec
 * ratio c/w:     0.164 speedup
 SCF:
 * wall-time:     0 d,  0 h,  0 min,  0.019 sec
 *  cpu-time:     0 d,  0 h,  0 min,  0.006 sec
 * ratio c/w:     0.326 speedup

