      -----------------------------------------------------------      
     |                   =====================                   |     
     |                           x T B                           |     
     |                   =====================                   |     
     |                         S. Grimme                         |     
     |          Mulliken Center for Theoretical Chemistry        |     
     |                    University of Bonn                     |     
      -----------------------------------------------------------      

   * xtb version 6.7.1 (edcfbbe) compiled by 'albert@albert-system' on 2024-07-22

   xtb is free software: you can redistribute it and/or modify it under
   the terms of the GNU Lesser General Public License as published by
   the Free Software Foundation, either version 3 of the License, or
   (at your option) any later version.
   
   xtb is distributed in the hope that it will be useful,
   but WITHOUT ANY WARRANTY; without even the implied warranty of
   MERCHANTABILITY or FITNESS FOR A PARTICULAR PURPOSE.  See the
   GNU Lesser General Public License for more details.
   
   Cite this work as:
   * C. Bannwarth, E. Caldeweyher, S. Ehlert, A. Hansen, P. Pracht,
     J. Seibert, S. Spicher, S. Grimme, WIREs Comput. Mol. Sci., 2020, 11,
     e01493. DOI: 10.1002/wcms.1493
   
   for GFN2-xTB:
   * C. Bannwarth, S. Ehlert and S. Grimme., J. Chem. Theory Comput., 2019,
     15, 1652-1671. DOI: 10.1021/acs.jctc.8b01176
   for GFN1-xTB:
   * S. Grimme, C. Bannwarth, P. Shushkov, J. Chem. Theory Comput., 2017,
     13, 1989-2009. DOI: 10.1021/acs.jctc.7b00118
   for GFN0-xTB:
   * P. Pracht, E. Caldeweyher, S. Ehlert, S. Grimme, ChemRxiv, 2019, preprint.
     DOI: 10.26434/chemrxiv.8326202.v1
   for GFN-FF:
   * S. Spicher and S. Grimme, Angew. Chem. Int. Ed., 2020, 59, 15665-15673.
     DOI: 10.1002/anie.202004239
   
   for ALPB and GBSA implicit solvation:
   * S. Ehlert, M. Stahn, S. Spicher, S. Grimme, J. Chem. Theory Comput.,
     2021, 17, 4250-4261. DOI: 10.1021/acs.jctc.1c00471
   
   for ddCOSMO and CPCM-X implicit solvation:
   * M. Stahn, S. Ehlert, S. Grimme, J. Phys. Chem. A,
     2023, XX, XXXX-XXXX. DOI: 10.1021/acs.jpca.3c04382
   
   for DFT-D4:
   * E. Caldeweyher, C. Bannwarth and S. Grimme, J. Chem. Phys., 2017,
     147, 034112. DOI: 10.1063/1.4993215
   * E. Caldeweyher, S. Ehlert, A. Hansen, H. Neugebauer, S. Spicher,
     C. Bannwarth and S. Grimme, J. Chem. Phys., 2019, 150, 154122.
     DOI: 10.1063/1.5090222
   * E. Caldeweyher, J.-M. Mewes, S. Ehlert and S. Grimme, Phys. Chem. Chem. Phys.
     2020, 22, 8499-8512. DOI: 10.1039/D0CP00502A
   
   for sTDA-xTB:
   * S. Grimme and C. Bannwarth, J. Chem. Phys., 2016, 145, 054103.
     DOI: 10.1063/1.4959605
   
   in the mass-spec context:
   * V. Asgeirsson, C. Bauer and S. Grimme, Chem. Sci., 2017, 8, 4879.
     DOI: 10.1039/c7sc00601b
   * J. Koopman and S. Grimme, ACS Omega 2019, 4, 12, 15120-15133.
     DOI: 10.1021/acsomega.9b02011
   
   for metadynamics refer to:
   * S. Grimme, J. Chem. Theory Comput., 2019, 155, 2847-2862
     DOI: 10.1021/acs.jctc.9b00143
   
   for SPH calculations refer to:
   * S. Spicher and S. Grimme, J. Chem. Theory Comput., 2021, 17, 1701-1714
     DOI: 10.1021/acs.jctc.0c01306
   
   for ONIOM refer to:
   * C. Plett, A. Katbashev, S. Ehlert, S. Grimme, M. Bursch,
     Phys. Chem. Chem. Phys., 2023, 25, 17860-17868. DOI: 10.1039/D3CP02178E
   
   for DIPRO refer to:
   * J. Kohn, N. Gildemeister, S. Grimme, D. Fazzi, A. Hansen,
     J. Chem. Phys., 2023, just accepted.
   
   for PTB refer to:
   * S. Grimme, M. Mueller, A. Hansen, J. Chem. Phys., 2023, 158, 124111.
     DOI: 10.1063/5.0137838
   
   with help from (in alphabetical order)
   P. Atkinson, C. Bannwarth, F. Bohle, G. Brandenburg, E. Caldeweyher
   M. Checinski, S. Dohm, S. Ehlert, S. Ehrlich, I. Gerasimov, C. Hölzer
   A. Katbashev, J. Kohn, J. Koopman, C. Lavigne, S. Lehtola, F. März, M. Müller,
   F. Musil, H. Neugebauer, J. Pisarek, C. Plett, P. Pracht, F. Pultar,
   J. Seibert, P. Shushkov, S. Spicher, M. Stahn, M. Steiner, T. Strunk,
   J. Stückrath, T. Rose, and J. Unsleber
   
 * started run on 2025/04/06 at 22:31:19.735     
   ID    Z sym.   atoms
    1    6 C      1-4
    2    8 O      5
    3    1 H      6-15

           -------------------------------------------------
          |                Calculation Setup                |
           -------------------------------------------------

          program call               : /srv/scratch/z5358697/.xtb/bin/xtb solv.coord --gfn2 --sp --chrg 0 --norestart --parallel 1 --alpb water reference -I xtb_sp-xcontrol-inp
          hostname                   : k159
          coordinate file            : solv.coord
          omp threads                :                     1


           -------------------------------------------------
          |                 G F N 2 - x T B                 |
           -------------------------------------------------

        Reference                      10.1021/acs.jctc.8b01176
      * Hamiltonian:
        H0-scaling (s, p, d)           1.850000    2.230000    2.230000
        zeta-weighting                 0.500000
      * Dispersion:
        s8                             2.700000
        a1                             0.520000
        a2                             5.000000
        s9                             5.000000
      * Repulsion:
        kExp                           1.500000    1.000000
        rExp                           1.000000
      * Coulomb:
        alpha                          2.000000
        third order                    shell-resolved
        anisotropic                    true
        a3                             3.000000
        a5                             4.000000
        cn-shift                       1.200000
        cn-exp                         4.000000
        max-rad                        5.000000

      * Solvation model:               ALPB
        Solvent                        water
        Parameter file                 internal GFN2-xTB/ALPB
        Dielectric constant                8.0200E+01
        Reference state                gsolv=reference [X=1]
        Free energy shift                  2.8945E-03 Eh       1.8164E+00 kcal/mol
        Temperature                        2.9815E+02 K
        Density                            1.0000E+00 kg/L
        Solvent mass                       1.8000E+01 g/mol
        Interaction kernel             P16
        Born radius scaling (c1)           1.4744E+00
        Born radii integrator          GBOBC
        Born offset                        0.0000E+00 a0       0.0000E+00 AA
        H-bond correction              true
        Ion screening                  false
        Surface tension                    1.0000E-05 Eh       1.5569E+01 dyn/cm
        Grid points                               974 per atom

          ...................................................
          :                      SETUP                      :
          :.................................................:
          :  # basis functions                  30          :
          :  # atomic orbitals                  30          :
          :  # shells                           20          :
          :  # electrons                        32          :
          :  max. iterations                   250          :
          :  Hamiltonian                  GFN2-xTB          :
          :  restarted?                      false          :
          :  GBSA solvation                   true          :
          :  PC potential                    false          :
          :  electronic temp.          300.0000000     K    :
          :  accuracy                    1.0000000          :
          :  -> integral cutoff          0.2500000E+02      :
          :  -> integral neglect         0.1000000E-07      :
          :  -> SCF convergence          0.1000000E-05 Eh   :
          :  -> wf. convergence          0.1000000E-03 e    :
          :  Broyden damping             0.4000000          :
          :  net charge                          0          :
          :  unpaired electrons                  0          :
          ...................................................

 iter      E             dE          RMSdq      gap      omega  full diag
   1    -17.9113137 -0.179113E+02  0.344E+00   12.34       0.0  T
   2    -17.9383219 -0.270082E-01  0.182E+00   12.06       1.0  T
   3    -17.9391654 -0.843498E-03  0.630E-01   12.04       1.0  T
   4    -17.9393587 -0.193353E-03  0.128E-01   12.07       1.0  T
   5    -17.9393852 -0.264585E-04  0.718E-02   12.09       1.0  T
   6    -17.9393886 -0.341307E-05  0.134E-02   12.10       1.9  T
   7    -17.9393889 -0.277375E-06  0.614E-03   12.10       4.2  T
   8    -17.9393889 -0.622582E-07  0.223E-03   12.10      11.6  T
   9    -17.9393889 -0.620598E-08  0.444E-04   12.10      58.2  T
  10    -17.9393889 -0.720618E-09  0.178E-04   12.10     145.4  T

   *** convergence criteria satisfied after 10 iterations ***

         #    Occupation            Energy/Eh            Energy/eV
      -------------------------------------------------------------
         1        2.0000           -0.6861354             -18.6707
       ...           ...                  ...                  ...
        10        2.0000           -0.4841625             -13.1747
        11        2.0000           -0.4710143             -12.8170
        12        2.0000           -0.4536384             -12.3441
        13        2.0000           -0.4360343             -11.8651
        14        2.0000           -0.4333109             -11.7910
        15        2.0000           -0.4237893             -11.5319
        16        2.0000           -0.4063757             -11.0580 (HOMO)
        17                          0.0381778               1.0389 (LUMO)
        18                          0.1036364               2.8201
        19                          0.1173406               3.1930
        20                          0.1305141               3.5515
        21                          0.1399935               3.8094
       ...                                ...                  ...
        30                          0.2989367               8.1345
      -------------------------------------------------------------
                  HL-Gap            0.4445536 Eh           12.0969 eV
             Fermi-level           -0.1840989 Eh           -5.0096 eV

 SCC (total)                   0 d,  0 h,  0 min,  0.027 sec
 SCC setup                      ...        0 min,  0.001 sec (  2.433%)
 Dispersion                     ...        0 min,  0.000 sec (  0.199%)
 classical contributions        ...        0 min,  0.000 sec (  0.044%)
 integral evaluation            ...        0 min,  0.001 sec (  2.529%)
 iterations                     ...        0 min,  0.024 sec ( 87.726%)
 molecular gradient             ...        0 min,  0.002 sec (  6.683%)
 printout                       ...        0 min,  0.000 sec (  0.341%)

         :::::::::::::::::::::::::::::::::::::::::::::::::::::
         ::                     SUMMARY                     ::
         :::::::::::::::::::::::::::::::::::::::::::::::::::::
         :: total energy             -17.725487581179 Eh    ::
         :: total w/o Gsasa/hb       -17.722316706128 Eh    ::
         :: gradient norm              0.000074026000 Eh/a0 ::
         :: HOMO-LUMO gap             12.096917954566 eV    ::
         ::.................................................::
         :: SCC energy               -17.939380130911 Eh    ::
         :: -> isotropic ES            0.036519496707 Eh    ::
         :: -> anisotropic ES          0.003453289329 Eh    ::
         :: -> anisotropic XC          0.005996356198 Eh    ::
         :: -> dispersion             -0.007134531216 Eh    ::
         :: -> Gsolv                  -0.007930462312 Eh    ::
         ::    -> Gelec               -0.004759587262 Eh    ::
         ::    -> Gsasa                0.000616454095 Eh    ::
         ::    -> Ghb                 -0.006681878306 Eh    ::
         ::    -> Gshift               0.002894549160 Eh    ::
         :: repulsion energy           0.213892549733 Eh    ::
         :: add. restraining           0.000000000000 Eh    ::
         :: total charge              -0.000000000000 e     ::
         :::::::::::::::::::::::::::::::::::::::::::::::::::::

           -------------------------------------------------
          |                Property Printout                |
           -------------------------------------------------

    * Orbital Energies and Occupations

         #    Occupation            Energy/Eh            Energy/eV
      -------------------------------------------------------------
         1        2.0000           -0.6861354             -18.6707
       ...           ...                  ...                  ...
         4        2.0000           -0.5826617             -15.8550
         5        2.0000           -0.5653042             -15.3827
         6        2.0000           -0.5492913             -14.9470
         7        2.0000           -0.5286075             -14.3841
         8        2.0000           -0.5156002             -14.0302
         9        2.0000           -0.4919714             -13.3872
        10        2.0000           -0.4841625             -13.1747
        11        2.0000           -0.4710143             -12.8170
        12        2.0000           -0.4536384             -12.3441
        13        2.0000           -0.4360343             -11.8651
        14        2.0000           -0.4333109             -11.7910
        15        2.0000           -0.4237893             -11.5319
        16        2.0000           -0.4063757             -11.0580 (HOMO)
        17                          0.0381778               1.0389 (LUMO)
        18                          0.1036364               2.8201
        19                          0.1173406               3.1930
        20                          0.1305141               3.5515
        21                          0.1399935               3.8094
        22                          0.1446314               3.9356
        23                          0.1702732               4.6334
        24                          0.1844394               5.0189
        25                          0.2069672               5.6319
        26                          0.2234252               6.0797
        27                          0.2485175               6.7625
       ...                                ...                  ...
        30                          0.2989367               8.1345
      -------------------------------------------------------------
                  HL-Gap            0.4445536 Eh           12.0969 eV
             Fermi-level           -0.1840989 Eh           -5.0096 eV

     #   Z          covCN         q      C6AA      α(0)
     1   6 C        3.751    -0.114    22.752     6.802
     2   6 C        3.800    -0.063    21.705     6.633
     3   6 C        3.801    -0.069    21.818     6.650
     4   6 C        3.673     0.085    19.388     6.310
     5   8 O        1.655    -0.528    23.513     6.546
     6   1 H        0.925     0.041     2.431     2.438
     7   1 H        0.925     0.036     2.500     2.473
     8   1 H        0.925     0.042     2.417     2.431
     9   1 H        0.924     0.041     2.432     2.439
    10   1 H        0.924     0.035     2.513     2.479
    11   1 H        0.924     0.045     2.383     2.414
    12   1 H        0.924     0.045     2.389     2.417
    13   1 H        0.923     0.019     2.742     2.590
    14   1 H        0.924     0.023     2.689     2.564
    15   1 H        0.805     0.361     0.563     1.179

 Mol. C6AA /au·bohr⁶  :       1462.346931
 Mol. C8AA /au·bohr⁸  :      29933.353604
 Mol. α(0) /au        :         56.366481


Wiberg/Mayer (AO) data.
largest (>0.10) Wiberg bond orders for each atom

 ---------------------------------------------------------------------------
     #   Z sym  total        # sym  WBO       # sym  WBO       # sym  WBO
 ---------------------------------------------------------------------------
     1   6 C    3.996 --     2 C    1.020     6 H    0.987     7 H    0.987
                             8 H    0.987
     2   6 C    3.997 --     1 C    1.020     3 C    1.007     9 H    0.978
                            10 H    0.978
     3   6 C    3.995 --     2 C    1.007     4 C    1.005    11 H    0.976
                            12 H    0.976
     4   6 C    3.953 --     3 C    1.005     5 O    0.988    13 H    0.972
                            14 H    0.972
     5   8 O    1.895 --     4 C    0.988    15 H    0.857
     6   1 H    0.998 --     1 C    0.987
     7   1 H    0.999 --     1 C    0.987
     8   1 H    0.998 --     1 C    0.987
     9   1 H    0.998 --     2 C    0.978
    10   1 H    0.999 --     2 C    0.978
    11   1 H    0.998 --     3 C    0.976
    12   1 H    0.998 --     3 C    0.976
    13   1 H    1.000 --     4 C    0.972
    14   1 H    0.999 --     4 C    0.972
    15   1 H    0.870 --     5 O    0.857
 ---------------------------------------------------------------------------

Topologies differ in total number of bonds
Writing topology from bond orders to xtbtopo.mol

molecular dipole:
                 x           y           z       tot (Debye)
 q only:        0.210       0.222      -0.496
   full:        0.185       0.302      -0.681       1.952
molecular quadrupole (traceless):
                xx          xy          yy          xz          yz          zz
 q only:        0.866      -1.330      -1.424       4.258      -0.008       0.558
  q+dip:       -0.785      -2.272      -0.340       5.828      -0.023       1.124
   full:        0.012      -2.027      -1.042       5.722      -0.090       1.030


           -------------------------------------------------
          | TOTAL ENERGY              -17.725487581179 Eh   |
          | GRADIENT NORM               0.000074026000 Eh/α |
          | HOMO-LUMO GAP              12.096917954566 eV   |
           -------------------------------------------------

------------------------------------------------------------------------
 * finished run on 2025/04/06 at 22:31:19.792     
------------------------------------------------------------------------
 total:
 * wall-time:     0 d,  0 h,  0 min,  0.056 sec
 *  cpu-time:     0 d,  0 h,  0 min,  0.013 sec
 * ratio c/w:     0.224 speedup
 SCF:
 * wall-time:     0 d,  0 h,  0 min,  0.027 sec
 *  cpu-time:     0 d,  0 h,  0 min,  0.007 sec
 * ratio c/w:     0.242 speedup

