! pbe def2-sv(p) def2/J RI DEFGRID1 loosescf d4 GCP(DFT/SV(P)) printgap
%output
    printlevel normal
end
* xyz 0 1
C -2.0490860476 -1.3927854517 -0.166782429
C -1.0360022301 -0.4828927753 0.5437504045
H -1.5172042279 -0.1244437549 1.4624205308
C -0.6234640674 0.7298856762 -0.312026101
H -0.481519449 0.4132073315 -1.3523570869
C 0.7228584156 1.2487048437 0.2363806555
H 0.6507441508 1.3513027929 1.326952154
C 1.795440886 0.1981670797 -0.0982335107
H 2.0669349594 0.2763825912 -1.1565697366
C 1.2102573712 -1.2228000544 0.117671417
H 1.9589417033 -1.8256681016 0.6500029297
O 0.1002066714 -1.2230471978 0.9853995011
O 0.9089148336 -1.7642500464 -1.1289770602
O 2.9920852652 0.385599604 0.6063751276
O 1.0464058499 2.531207655 -0.2234631009
O -1.605472255 1.723108954 -0.3675282114
O -3.3182315651 -0.7926372641 -0.0663956231
H -2.0395801149 -2.3655842645 0.3444825926
H -1.7525002947 -1.5286256389 -1.2130794403
H 0.791369674 -2.7241669536 -1.06335772
H 2.8101304826 0.5002210563 1.5506180054
H 1.0183736174 2.5541257749 -1.1904259984
H -1.7598634732 2.0918400014 0.5137786031
H -3.951143462 -1.2859230889 -0.6060103088
*
