! r2scan-3c def2/J RI DEFGRID2 scfconv6 printgap
%output
    printlevel normal
end
* xyz 0 1
C 1.8945346945 -0.1052478928 -1.0676053666
O 1.2267063759 -0.2084176459 0.1919300798
S -0.3628134772 -0.0460912461 0.1795913046
O -0.7917966237 -0.4932156435 1.4804639912
O -0.8912879787 -0.7725355911 -0.9552514582
C -0.6576336175 1.7055678592 -0.0117605179
H 1.2283465702 -0.4669299438 -1.850919641
H 2.7804824853 -0.7328343529 -1.0049462097
H 2.1794779761 0.930670621 -1.2508073522
H -1.0845848946 2.0511210747 0.9184516942
H 0.2878873205 2.1891492743 -0.2093090052
H -1.3445214805 1.825503713 -0.8372754249
*
