20
CONF1
C -4.5463903722 -0.7871185696 -0.0024691752
O -3.0967538314 -0.8569964385 -0.0043201930
C -2.4592167988 0.3203999573 0.0023060610
O -3.0285049677 1.3994051474 0.0086031630
C -0.9782096539 0.1674185922 0.0009333317
C -0.2009561628 1.3298309480 0.0006542606
C 1.1814118307 1.2459538270 -0.0002476183
C 1.7644666595 -0.0165606159 -0.0005670220
C 1.0170936744 -1.1889895264 -0.0000069844
C -0.3655172613 -1.0904046620 0.0007106241
N 3.2309117564 -0.1152879041 -0.0011719340
O 3.7369540022 -1.2350144533 -0.0009807061
O 3.8814750751 0.9269432194 -0.0002740234
H -4.8961218871 -0.2563739819 -0.8909406475
H -4.8943792244 -0.2817193186 0.9013640176
H -4.8827790430 -1.8226740375 -0.0167607231
H -0.6840298436 2.2996488737 0.0009360065
H 1.7935055250 2.1384439349 -0.0003708347
H 1.5047404801 -2.1552222602 0.0001901672
H -0.9633381947 -1.9929073698 0.0010849730
