! wb97x-v def2-tzvp def2/J RIJCOSX DEFGRID2 scfconv7 GCP(DFT/TZ) printgap
%output
    printlevel normal
end
* xyz 0 1
C 1.53543815316336 1.1919492294067862 5.91623232667717e-05
C 0.15172494721574853 1.2426806294429757 -0.00015676108764608966
C -0.5460255548727274 0.029929689854061442 -0.0004251376297638686
C 0.17129811201767395 -1.1742404943514604 -0.00027188880000562075
N 1.5029837400025106 -1.2193451799794583 -0.00011727958254072722
C 2.1621134820852115 -0.049387475458148214 3.0713925641440927e-06
C -1.9645029337363027 0.0036546980123306366 -0.0005173429383705778
N -3.1245652641032926 -0.027828919968595524 0.0008388330567774516
H 2.124844919024187 2.1014550909621756 7.968830882491845e-05
H -0.38454273837493014 2.184721524392818 -0.00013520710905031192
H -0.362067896208026 -2.1210688206432056 -0.0001726679908872762
H 3.2472813067219217 -0.11035980864241594 -0.0002732391848077474
*
