! wb97x-v def2-tzvp def2/J RIJCOSX DEFGRID2 scfconv7 GCP(DFT/TZ) printgap
%output
    printlevel normal
end
* xyz 0 1
C -0.708056724131515 -2.9633433439902612 0.2242129572130242
C 0.6773967676905713 -2.975788695549674 0.31069434844880256
C 1.3868749669764076 -1.7837563447174898 0.2468748140330249
C 0.730149348144238 -0.5606696730299686 0.09612432675554061
C -0.6731684645892666 -0.5492007635253656 0.010131599131991399
C -1.3736907691785207 -1.7555294102357977 0.07521873771042498
C -1.566640019937306 0.6577363188796841 -0.1530526328935936
F -2.30775775345998 0.5528544850938215 -1.28946607395427
F -2.4564062404260976 0.7339142155944864 0.8737116241712963
F -0.94537664750359 1.846942024769329 -0.20960021927114392
C 1.590360367488833 0.6807438838510296 0.03434684683595886
F 2.906583379429585 0.38577663610397017 0.13530490519053578
F 1.4474687742844525 1.354056167975084 -1.134644430354498
F 1.3244748523327305 1.5499988782713245 1.0412312994214148
H -1.2736813797040896 -3.8871729433591615 0.2718852248406648
H 1.2138779809683597 -3.9108719819501636 0.4274828970497121
H 2.466613055896677 -1.8075573010741857 0.3151085745548893
H -2.4562556700039258 -1.7459194169339216 0.007306592156064327
*
