 Entering Gaussian System
 *********************************************
 Gaussian 98:
 frequency output generated by the xtb code
 *********************************************
                         Standard orientation:
 --------------------------------------------------------------------
  Center     Atomic     Atomic              Coordinates (Angstroms)
  Number     Number      Type              X           Y           Z
 --------------------------------------------------------------------
    1          6             0        2.439601   -0.054093    0.144312
    2          6             0        0.995426    0.421446    0.241928
    3          6             0        0.064022   -0.399525   -0.647853
    4          6             0       -1.397827    0.018678   -0.483805
    5          8             0       -1.898364   -0.198651    0.819008
    6          1             0        2.523062   -1.092335    0.457543
    7          1             0        2.796924    0.024588   -0.880021
    8          1             0        3.082299    0.549078    0.780394
    9          1             0        0.651642    0.351090    1.275985
   10          1             0        0.935317    1.471421   -0.052609
   11          1             0        0.343125   -0.270752   -1.694707
   12          1             0        0.165756   -1.459074   -0.400496
   13          1             0       -1.501792    1.093050   -0.654668
   14          1             0       -2.021456   -0.509749   -1.218241
   15          1             0       -1.847177   -1.143739    1.019255
 --------------------------------------------------------------------
     1 basis functions        1 primitive gaussians
     1 alpha electrons        1 beta electrons
 
 Harmonic frequencies (cm**-1), IR intensities (km*mol⁻¹),
 Raman scattering activities (A**4/amu), Raman depolarization ratios,
 reduced masses (AMU), force constants (mDyne/A) and normal coordinates:
                      1                      2                      3
                        a                      a                      a 
 Frequencies --    82.2261               125.4614               231.8380
 Red. masses --     8.1989                 8.8411                 2.4818
 Frc consts  --     0.0000                 0.0000                 0.0000
 IR Inten    --     0.4180                 1.4195                 0.4040
 Raman Activ --     0.0000                 0.0000                 0.0000
 Depolar     --     0.0000                 0.0000                 0.0000
 Atom AN      X      Y      Z        X      Y      Z        X      Y      Z
   1   6    -0.14  -0.25   0.33     0.14  -0.05  -0.14     0.03  -0.07   0.01
   2   6    -0.01   0.28  -0.32     0.22   0.19  -0.10     0.10   0.20  -0.19
   3   6    -0.04   0.20  -0.22     0.02  -0.02   0.31     0.01  -0.02   0.10
   4   6    -0.06   0.02   0.05     0.06   0.20   0.12    -0.01  -0.06   0.04
   5   8     0.25  -0.23   0.14    -0.44  -0.31  -0.14    -0.13  -0.03   0.02
   6   1    -0.17  -0.03   0.27     0.02   0.03   0.12    -0.15  -0.17  -0.45
   7   1     0.05  -0.28   0.11    -0.02  -0.20  -0.08     0.22   0.41   0.11
   8   1    -0.03  -0.03   0.04     0.11   0.07  -0.18    -0.06  -0.37   0.41
   9   1    -0.10   0.24  -0.11     0.10   0.18  -0.01     0.02   0.16  -0.05
  10   1     0.12   0.05  -0.23     0.10   0.02  -0.15     0.08   0.04  -0.14
  11   1    -0.06   0.06  -0.08     0.00  -0.14   0.07    -0.02  -0.10   0.01
  12   1     0.03   0.06  -0.07    -0.03   0.02   0.21     0.01   0.02   0.12
  13   1    -0.06   0.01   0.06     0.09   0.08   0.16    -0.02  -0.02  -0.00
  14   1    -0.04   0.01   0.03     0.05   0.18  -0.08     0.02  -0.04   0.01
  15   1     0.12  -0.06   0.00    -0.18  -0.10  -0.15    -0.01  -0.00   0.02
                      4                      5                      6
                        a                      a                      a 
 Frequencies --   242.4300               331.5458               346.8965
 Red. masses --     6.9435                 4.5144                 7.7612
 Frc consts  --     0.0000                 0.0000                 0.0000
 IR Inten    --    32.0027               105.4158                89.5322
 Raman Activ --     0.0000                 0.0000                 0.0000
 Depolar     --     0.0000                 0.0000                 0.0000
 Atom AN      X      Y      Z        X      Y      Z        X      Y      Z
   1   6     0.02   0.24   0.17    -0.21  -0.01  -0.07    -0.36  -0.11  -0.17
   2   6    -0.14  -0.22  -0.23    -0.15   0.03   0.09    -0.18   0.24   0.20
   3   6    -0.11  -0.36  -0.13    -0.07  -0.14   0.19     0.11   0.00   0.18
   4   6     0.09   0.28   0.08     0.09   0.24  -0.10     0.13  -0.05  -0.11
   5   8     0.23  -0.03   0.08     0.18  -0.12  -0.17     0.43  -0.02  -0.02
   6   1     0.08   0.07   0.02    -0.07  -0.01  -0.06    -0.19  -0.05  -0.10
   7   1     0.10   0.14   0.09    -0.10   0.02  -0.03    -0.19  -0.03  -0.08
   8   1    -0.13   0.12   0.14    -0.02  -0.04  -0.03     0.03  -0.13  -0.09
   9   1    -0.08  -0.04  -0.08    -0.02   0.05   0.04    -0.04   0.07   0.06
  10   1    -0.09  -0.08  -0.11    -0.06  -0.00  -0.02    -0.05   0.06   0.04
  11   1    -0.03  -0.19  -0.05     0.07  -0.19   0.06     0.11  -0.07   0.06
  12   1    -0.12  -0.09   0.04    -0.11  -0.02   0.19     0.04   0.02   0.15
  13   1     0.20   0.12   0.17     0.08   0.09   0.05     0.04  -0.01  -0.04
  14   1    -0.09   0.28  -0.02    -0.01   0.15  -0.06     0.03  -0.02  -0.02
  15   1    -0.27  -0.07  -0.18     0.72   0.04   0.12    -0.46  -0.08  -0.23
                      7                      8                      9
                        a                      a                      a 
 Frequencies --   515.1039               780.3484               869.4316
 Red. masses --     8.9788                 2.4114                 5.0038
 Frc consts  --     0.0000                 0.0000                 0.0000
 IR Inten    --    21.1820                 7.1356                 4.4977
 Raman Activ --     0.0000                 0.0000                 0.0000
 Depolar     --     0.0000                 0.0000                 0.0000
 Atom AN      X      Y      Z        X      Y      Z        X      Y      Z
   1   6    -0.28   0.00  -0.06     0.03  -0.02   0.03    -0.20  -0.08   0.02
   2   6    -0.15   0.07  -0.05    -0.02  -0.11   0.19    -0.06  -0.28  -0.10
   3   6     0.33  -0.14  -0.19    -0.11  -0.10   0.16     0.14   0.26  -0.02
   4   6     0.44  -0.09   0.27    -0.06  -0.04  -0.03     0.26   0.19   0.11
   5   8    -0.34   0.08   0.05     0.09   0.02  -0.08    -0.09  -0.05   0.07
   6   1    -0.13  -0.01  -0.03     0.22  -0.02  -0.11     0.28  -0.01  -0.06
   7   1    -0.11  -0.01  -0.03    -0.17   0.15  -0.05    -0.16   0.16  -0.02
   8   1    -0.02  -0.05  -0.03     0.02   0.05  -0.06    -0.18   0.16  -0.04
   9   1    -0.10   0.00  -0.03    -0.04   0.49   0.07    -0.19   0.06  -0.08
  10   1    -0.08   0.01  -0.03     0.15  -0.15  -0.43     0.19  -0.09  -0.13
  11   1     0.00   0.15  -0.06    -0.01   0.37   0.09     0.07  -0.15  -0.02
  12   1     0.23  -0.06  -0.21     0.01  -0.11  -0.34    -0.15   0.09   0.17
  13   1     0.27   0.00   0.14     0.07   0.00   0.01    -0.26  -0.02  -0.16
  14   1     0.08   0.12   0.01    -0.04   0.05  -0.04     0.27  -0.28   0.09
  15   1     0.06   0.06   0.15     0.00   0.00  -0.03    -0.01  -0.03  -0.06
                     10                     11                     12
                        a                      a                      a 
 Frequencies --   884.6487               958.4979               986.4429
 Red. masses --     6.1958                 5.0824                 6.3937
 Frc consts  --     0.0000                 0.0000                 0.0000
 IR Inten    --     6.7954                47.3065                16.3948
 Raman Activ --     0.0000                 0.0000                 0.0000
 Depolar     --     0.0000                 0.0000                 0.0000
 Atom AN      X      Y      Z        X      Y      Z        X      Y      Z
   1   6     0.14  -0.02   0.15     0.06   0.16  -0.01     0.22   0.08   0.18
   2   6     0.02   0.13   0.22     0.01  -0.03   0.05    -0.05   0.08   0.02
   3   6     0.18  -0.10  -0.40     0.18  -0.22  -0.05    -0.28  -0.05  -0.05
   4   6    -0.20   0.01  -0.18    -0.00   0.34  -0.12     0.18  -0.01   0.36
   5   8    -0.12  -0.02   0.23    -0.13  -0.07   0.26     0.10   0.03  -0.31
   6   1     0.14  -0.05  -0.14    -0.31   0.02   0.02    -0.09  -0.04  -0.10
   7   1    -0.31   0.10  -0.08     0.04  -0.13  -0.00    -0.23  -0.01  -0.06
   8   1     0.27  -0.07  -0.14     0.19  -0.16   0.01     0.38  -0.17  -0.10
   9   1    -0.25   0.09  -0.03     0.09   0.06   0.04    -0.20  -0.04  -0.06
  10   1     0.17   0.03   0.01    -0.27  -0.07  -0.14    -0.07   0.02   0.03
  11   1     0.16  -0.28  -0.10     0.19   0.08   0.04    -0.37  -0.06  -0.10
  12   1     0.01   0.03   0.15    -0.16  -0.12  -0.20    -0.12  -0.02  -0.02
  13   1     0.01   0.03   0.07    -0.24   0.02  -0.26    -0.07  -0.04  -0.06
  14   1    -0.19   0.12  -0.00     0.09  -0.21   0.12     0.16  -0.15   0.08
  15   1    -0.01   0.00   0.09     0.06  -0.07  -0.21     0.02   0.00  -0.09
                     13                     14                     15
                        a                      a                      a 
 Frequencies --  1060.5588              1083.7831              1107.5472
 Red. masses --     2.7000                10.1842                 9.1987
 Frc consts  --     0.0000                 0.0000                 0.0000
 IR Inten    --    43.3295                44.8737                47.3391
 Raman Activ --     0.0000                 0.0000                 0.0000
 Depolar     --     0.0000                 0.0000                 0.0000
 Atom AN      X      Y      Z        X      Y      Z        X      Y      Z
   1   6    -0.09  -0.09   0.03    -0.38   0.21   0.10     0.25  -0.16  -0.12
   2   6     0.07   0.12  -0.06     0.47  -0.19  -0.04    -0.40   0.03   0.01
   3   6     0.08  -0.20   0.10     0.25  -0.08  -0.03     0.33  -0.01   0.00
   4   6    -0.17   0.13   0.05    -0.34   0.01   0.27    -0.31   0.05   0.38
   5   8    -0.04   0.03   0.06     0.10   0.05  -0.27     0.08   0.07  -0.29
   6   1     0.16  -0.01  -0.02    -0.21   0.03  -0.01     0.12  -0.02   0.02
   7   1    -0.07   0.08  -0.00    -0.20   0.03  -0.01     0.18  -0.04   0.01
   8   1    -0.09   0.08  -0.02    -0.01  -0.01  -0.01    -0.03   0.01   0.02
   9   1    -0.05  -0.10  -0.05     0.14  -0.04  -0.00    -0.15   0.04  -0.01
  10   1     0.15   0.08   0.15     0.13  -0.05  -0.03    -0.21  -0.02  -0.08
  11   1    -0.24   0.06  -0.03     0.02  -0.05  -0.02     0.24  -0.00   0.05
  12   1     0.41  -0.02  -0.01    -0.00  -0.03  -0.02     0.16   0.02   0.07
  13   1     0.16  -0.00  -0.33    -0.19   0.01   0.15    -0.21   0.01   0.12
  14   1    -0.13  -0.06   0.16    -0.06   0.02   0.01    -0.05  -0.01   0.08
  15   1     0.21  -0.09  -0.51    -0.02   0.03   0.04     0.02   0.02  -0.06
                     16                     17                     18
                        a                      a                      a 
 Frequencies --  1134.3633              1196.2584              1236.1275
 Red. masses --     7.2913                 5.4493                 3.8242
 Frc consts  --     0.0000                 0.0000                 0.0000
 IR Inten    --     8.2519                15.7570                 5.1875
 Raman Activ --     0.0000                 0.0000                 0.0000
 Depolar     --     0.0000                 0.0000                 0.0000
 Atom AN      X      Y      Z        X      Y      Z        X      Y      Z
   1   6    -0.07  -0.08  -0.17    -0.04  -0.22   0.07    -0.03  -0.13   0.26
   2   6     0.09   0.24   0.38     0.05   0.36  -0.08     0.01   0.12  -0.31
   3   6    -0.18  -0.18  -0.40     0.07  -0.35   0.08    -0.11   0.09   0.00
   4   6     0.13  -0.02   0.24    -0.02   0.23  -0.11     0.06  -0.14   0.11
   5   8    -0.02   0.01  -0.13     0.05  -0.07  -0.01    -0.03   0.03  -0.04
   6   1     0.07   0.03   0.09     0.27  -0.04  -0.03     0.20  -0.06  -0.11
   7   1     0.22   0.00   0.05    -0.08   0.13   0.00    -0.26   0.13  -0.02
   8   1    -0.23   0.10   0.08    -0.10   0.11  -0.04     0.08   0.05  -0.10
   9   1     0.23   0.18   0.17     0.05  -0.13  -0.02     0.34  -0.12   0.03
  10   1     0.16   0.06   0.04    -0.08   0.13   0.17    -0.25   0.05   0.06
  11   1     0.06  -0.14  -0.08    -0.15   0.09  -0.01     0.46   0.09   0.14
  12   1    -0.24  -0.05  -0.03    -0.05  -0.14  -0.21    -0.22  -0.01  -0.04
  13   1    -0.03  -0.03  -0.07    -0.33   0.05   0.11     0.13  -0.03  -0.03
  14   1    -0.08  -0.08   0.20     0.21  -0.06  -0.13    -0.17   0.01   0.15
  15   1     0.02  -0.01  -0.09    -0.13   0.05   0.32     0.05  -0.02  -0.14
                     19                     20                     21
                        a                      a                      a 
 Frequencies --  1278.8448              1290.8256              1303.9286
 Red. masses --     2.1223                 3.7543                 3.1237
 Frc consts  --     0.0000                 0.0000                 0.0000
 IR Inten    --     4.0050                34.7387                19.3013
 Raman Activ --     0.0000                 0.0000                 0.0000
 Depolar     --     0.0000                 0.0000                 0.0000
 Atom AN      X      Y      Z        X      Y      Z        X      Y      Z
   1   6     0.03   0.11  -0.09    -0.00  -0.07  -0.07    -0.00  -0.09  -0.06
   2   6    -0.02   0.05  -0.12     0.15   0.12   0.06     0.20   0.05   0.07
   3   6    -0.09  -0.13   0.15     0.16   0.05   0.06     0.23   0.13   0.14
   4   6     0.02   0.03   0.06    -0.08  -0.29  -0.00     0.02   0.05  -0.05
   5   8     0.01  -0.04  -0.07    -0.03   0.19   0.14     0.01  -0.13  -0.11
   6   1    -0.11   0.03   0.02     0.01   0.00   0.04     0.01  -0.00   0.03
   7   1     0.09  -0.07  -0.00     0.04   0.03   0.00    -0.00   0.04  -0.01
   8   1     0.03  -0.03   0.01    -0.11   0.06   0.02    -0.12   0.07   0.02
   9   1    -0.42  -0.13  -0.18    -0.29  -0.07  -0.10    -0.27  -0.05  -0.09
  10   1     0.51   0.11   0.23    -0.12   0.02  -0.01    -0.33  -0.04  -0.11
  11   1     0.39   0.17   0.18    -0.07  -0.04  -0.02    -0.24  -0.02  -0.05
  12   1    -0.20  -0.10  -0.15    -0.45  -0.08  -0.15    -0.28  -0.02  -0.06
  13   1     0.05  -0.00  -0.07    -0.00  -0.04   0.24     0.18  -0.00  -0.23
  14   1    -0.08  -0.04   0.13     0.18   0.09  -0.28    -0.42   0.02   0.34
  15   1    -0.04   0.01   0.09     0.19  -0.05  -0.44    -0.10   0.02   0.24
                     22                     23                     24
                        a                      a                      a 
 Frequencies --  1338.4336              1365.8363              1411.6245
 Red. masses --     3.3575                 5.2239                 3.2284
 Frc consts  --     0.0000                 0.0000                 0.0000
 IR Inten    --    56.0047                 1.0031                 0.2736
 Raman Activ --     0.0000                 0.0000                 0.0000
 Depolar     --     0.0000                 0.0000                 0.0000
 Atom AN      X      Y      Z        X      Y      Z        X      Y      Z
   1   6     0.00   0.03   0.00    -0.01  -0.07  -0.06     0.42  -0.11  -0.01
   2   6    -0.01  -0.03  -0.02     0.42   0.03   0.12    -0.09  -0.02  -0.04
   3   6    -0.04  -0.03   0.10    -0.41  -0.05  -0.09     0.03  -0.02  -0.01
   4   6     0.34  -0.09  -0.23     0.07   0.03   0.04    -0.00   0.01   0.00
   5   8    -0.06   0.10  -0.02    -0.00   0.01  -0.00    -0.00   0.00   0.00
   6   1    -0.02   0.00   0.00    -0.05   0.01   0.06    -0.50  -0.03   0.06
   7   1    -0.00  -0.01  -0.00    -0.03   0.07  -0.01    -0.46   0.15  -0.16
   8   1     0.02  -0.02   0.00    -0.13   0.06   0.03    -0.39   0.28   0.16
   9   1    -0.02  -0.01  -0.01    -0.37  -0.02  -0.13     0.08   0.07   0.03
  10   1     0.05  -0.00   0.01    -0.37  -0.05  -0.09     0.08   0.03   0.08
  11   1    -0.09   0.05   0.01     0.32   0.02   0.09    -0.01  -0.00  -0.01
  12   1     0.11   0.00   0.02     0.38   0.06   0.07    -0.00  -0.01  -0.00
  13   1    -0.50   0.00   0.45    -0.07   0.00   0.02    -0.01   0.00   0.01
  14   1    -0.40   0.03   0.33     0.10  -0.02  -0.05     0.01  -0.01  -0.00
  15   1     0.06  -0.01  -0.20    -0.00   0.00   0.01     0.00  -0.00  -0.00
                     25                     26                     27
                        a                      a                      a 
 Frequencies --  1472.7779              1478.3830              1496.2931
 Red. masses --     1.8339                 1.9579                 1.7985
 Frc consts  --     0.0000                 0.0000                 0.0000
 IR Inten    --     1.9083                 0.8477                 0.6909
 Raman Activ --     0.0000                 0.0000                 0.0000
 Depolar     --     0.0000                 0.0000                 0.0000
 Atom AN      X      Y      Z        X      Y      Z        X      Y      Z
   1   6     0.00   0.01   0.01     0.01  -0.00   0.00    -0.02   0.05   0.04
   2   6     0.02  -0.02  -0.02    -0.05  -0.00  -0.01     0.09  -0.20  -0.14
   3   6     0.05  -0.11  -0.08    -0.06   0.18   0.17     0.02   0.00   0.01
   4   6     0.14  -0.11   0.15     0.09  -0.05   0.09    -0.02   0.01  -0.01
   5   8    -0.00  -0.01   0.04     0.00  -0.01   0.01     0.00   0.00  -0.00
   6   1    -0.00  -0.01  -0.03    -0.01   0.00   0.01     0.06  -0.05  -0.20
   7   1    -0.00  -0.03  -0.00     0.01   0.02   0.01     0.04  -0.21  -0.00
   8   1    -0.01   0.01   0.00     0.02   0.00  -0.02    -0.05   0.04   0.00
   9   1    -0.02   0.05  -0.01     0.03  -0.01   0.01    -0.10   0.64   0.01
  10   1    -0.01   0.01   0.05     0.04   0.00   0.01    -0.22   0.15   0.58
  11   1    -0.05   0.33   0.03     0.09  -0.58  -0.04    -0.01  -0.05  -0.01
  12   1    -0.10   0.06   0.31     0.18  -0.10  -0.55    -0.01  -0.01  -0.05
  13   1    -0.36  -0.11  -0.44    -0.22  -0.06  -0.25     0.02   0.01   0.04
  14   1    -0.13   0.52  -0.27    -0.10   0.30  -0.12     0.01  -0.04   0.02
  15   1     0.00  -0.00   0.01    -0.01  -0.00   0.01    -0.00  -0.00  -0.01
                     28                     29                     30
                        a                      a                      a 
 Frequencies --  1500.0684              1501.9735              2870.1856
 Red. masses --     1.5301                 1.6820                 1.7483
 Frc consts  --     0.0000                 0.0000                 0.0000
 IR Inten    --     1.4498                 0.4061               125.3776
 Raman Activ --     0.0000                 0.0000                 0.0000
 Depolar     --     0.0000                 0.0000                 0.0000
 Atom AN      X      Y      Z        X      Y      Z        X      Y      Z
   1   6     0.03   0.13  -0.16     0.05   0.15   0.13     0.00   0.00   0.00
   2   6     0.01   0.02  -0.04     0.01   0.10   0.09     0.00  -0.00  -0.00
   3   6     0.00   0.00   0.01    -0.03  -0.00  -0.00     0.01   0.00  -0.00
   4   6    -0.00  -0.00   0.01     0.00   0.00   0.00     0.14   0.15   0.15
   5   8     0.00  -0.00   0.00    -0.00   0.00   0.00    -0.00   0.00   0.02
   6   1     0.36   0.13   0.30     0.09  -0.16  -0.57    -0.00   0.00  -0.00
   7   1    -0.37  -0.21  -0.16    -0.05  -0.62  -0.06    -0.00  -0.00   0.00
   8   1    -0.10  -0.46   0.54    -0.25   0.16   0.12    -0.00  -0.00  -0.00
   9   1     0.02   0.01  -0.00    -0.00  -0.20  -0.01    -0.00  -0.00   0.00
  10   1    -0.03   0.02   0.03     0.03  -0.04  -0.19    -0.00   0.00  -0.00
  11   1     0.02  -0.01   0.00     0.01  -0.02  -0.00    -0.01  -0.01   0.03
  12   1    -0.01  -0.01  -0.02     0.02  -0.00  -0.02    -0.00   0.02  -0.01
  13   1    -0.00  -0.00  -0.01    -0.00  -0.00   0.00     0.03  -0.07   0.04
  14   1    -0.00   0.01  -0.00     0.01  -0.00  -0.00    -0.54  -0.48  -0.63
  15   1    -0.00   0.00  -0.00     0.00   0.00  -0.00    -0.00  -0.00  -0.00
                     31                     32                     33
                        a                      a                      a 
 Frequencies --  2960.0307              2968.3676              2974.2049
 Red. masses --     1.8348                 1.8818                 1.7459
 Frc consts  --     0.0000                 0.0000                 0.0000
 IR Inten    --     3.0059                41.9873               149.6837
 Raman Activ --     0.0000                 0.0000                 0.0000
 Depolar     --     0.0000                 0.0000                 0.0000
 Atom AN      X      Y      Z        X      Y      Z        X      Y      Z
   1   6    -0.00  -0.00   0.01     0.00   0.02  -0.01    -0.00  -0.01   0.00
   2   6     0.02   0.09  -0.09    -0.03  -0.18   0.16     0.02   0.05  -0.07
   3   6    -0.00  -0.20   0.12     0.01  -0.08   0.02    -0.01   0.12  -0.03
   4   6    -0.01   0.06  -0.01    -0.02   0.10  -0.02    -0.03   0.21  -0.04
   5   8     0.00   0.00  -0.00     0.00   0.00  -0.00     0.00   0.00  -0.01
   6   1    -0.00   0.02  -0.00     0.01  -0.07   0.02    -0.00   0.02  -0.01
   7   1     0.01   0.00  -0.03    -0.02  -0.00   0.05     0.01   0.00  -0.02
   8   1    -0.00  -0.00   0.00    -0.01  -0.00  -0.01     0.00   0.00   0.00
   9   1    -0.08  -0.00   0.23     0.14   0.01  -0.40    -0.07  -0.01   0.21
  10   1     0.02  -0.34   0.09    -0.04   0.65  -0.18     0.01  -0.14   0.04
  11   1     0.08   0.01  -0.27    -0.00  -0.01   0.01    -0.00   0.02  -0.01
  12   1    -0.07   0.74  -0.17    -0.03   0.30  -0.08     0.04  -0.42   0.11
  13   1     0.03  -0.27   0.04     0.03  -0.41   0.06     0.07  -0.80   0.12
  14   1     0.02   0.03   0.02     0.02   0.04   0.03     0.03   0.06   0.04
  15   1     0.00   0.00  -0.00     0.00   0.00  -0.00    -0.00   0.01  -0.00
                     34                     35                     36
                        a                      a                      a 
 Frequencies --  2984.5467              2987.7995              3025.6272
 Red. masses --     1.5267                 1.6018                 1.9549
 Frc consts  --     0.0000                 0.0000                 0.0000
 IR Inten    --    25.6333               106.3242                91.2671
 Raman Activ --     0.0000                 0.0000                 0.0000
 Depolar     --     0.0000                 0.0000                 0.0000
 Atom AN      X      Y      Z        X      Y      Z        X      Y      Z
   1   6     0.01   0.01   0.01    -0.00  -0.01  -0.02     0.05   0.19  -0.22
   2   6     0.05  -0.11  -0.09    -0.05   0.06   0.13     0.01   0.02  -0.03
   3   6    -0.05   0.01   0.15    -0.05   0.03   0.16     0.00   0.00  -0.00
   4   6     0.01  -0.03   0.01     0.00   0.01   0.01    -0.00   0.00  -0.00
   5   8    -0.00   0.00   0.00    -0.00   0.00  -0.00     0.00  -0.00   0.00
   6   1     0.00  -0.01   0.01    -0.00   0.02  -0.01     0.05  -0.65   0.18
   7   1     0.01   0.00  -0.01    -0.03  -0.01   0.07    -0.21  -0.03   0.63
   8   1    -0.02  -0.02  -0.02     0.03   0.03   0.03     0.00   0.02  -0.04
   9   1    -0.16  -0.06   0.50     0.18   0.06  -0.56    -0.02  -0.01   0.07
  10   1    -0.02   0.46  -0.16     0.01  -0.27   0.10     0.00  -0.06   0.02
  11   1     0.16   0.09  -0.60     0.17   0.10  -0.65    -0.00  -0.00   0.01
  12   1     0.01  -0.13   0.05     0.01  -0.19   0.07    -0.00  -0.01   0.00
  13   1    -0.01   0.13  -0.02     0.00  -0.01   0.00     0.00  -0.00  -0.00
  14   1    -0.02  -0.02  -0.02    -0.02  -0.01  -0.02     0.00   0.00   0.00
  15   1     0.00  -0.01   0.00     0.00  -0.00  -0.00    -0.00   0.00  -0.00
                     37                     38                     39
                        a                      a                      a 
 Frequencies --  3029.9730              3040.3009              3493.4079
 Red. masses --     1.8516                 1.3374                 1.8753
 Frc consts  --     0.0000                 0.0000                 0.0000
 IR Inten    --    84.5373                45.5426                60.7646
 Raman Activ --     0.0000                 0.0000                 0.0000
 Depolar     --     0.0000                 0.0000                 0.0000
 Atom AN      X      Y      Z        X      Y      Z        X      Y      Z
   1   6     0.02   0.21   0.18     0.16   0.03   0.06    -0.00   0.00  -0.00
   2   6    -0.01   0.02   0.02     0.00   0.01   0.00    -0.00   0.00  -0.00
   3   6    -0.00   0.00   0.01     0.00  -0.00  -0.00     0.00  -0.00  -0.00
   4   6     0.00   0.00   0.00    -0.00   0.00  -0.00    -0.00   0.01  -0.01
   5   8    -0.00  -0.00  -0.00     0.00   0.00  -0.00    -0.01   0.24  -0.05
   6   1     0.04  -0.52   0.20    -0.00   0.38  -0.10     0.00  -0.00   0.00
   7   1     0.19   0.08  -0.54    -0.10  -0.02   0.37    -0.00  -0.00   0.00
   8   1    -0.31  -0.28  -0.30    -0.46  -0.47  -0.48    -0.00  -0.00  -0.00
   9   1     0.02   0.01  -0.06     0.01   0.00  -0.02     0.00   0.00  -0.00
  10   1     0.00  -0.05   0.02     0.00  -0.02   0.01    -0.00  -0.00   0.00
  11   1     0.01   0.01  -0.03    -0.00  -0.00   0.01    -0.00  -0.00   0.00
  12   1     0.00  -0.03   0.01    -0.00   0.00  -0.00     0.00  -0.00  -0.00
  13   1     0.00  -0.00   0.00     0.00  -0.01   0.00     0.00  -0.01  -0.00
  14   1    -0.00  -0.00  -0.00     0.00   0.00   0.00     0.00  -0.00   0.00
  15   1    -0.00   0.00  -0.00    -0.00   0.00   0.00     0.05  -0.95   0.21
