      -----------------------------------------------------------      
     |                   =====================                   |     
     |                           x T B                           |     
     |                   =====================                   |     
     |                         S. Grimme                         |     
     |          Mulliken Center for Theoretical Chemistry        |     
     |                    University of Bonn                     |     
      -----------------------------------------------------------      

   * xtb version 6.7.1 (edcfbbe) compiled by 'albert@albert-system' on 2024-07-22

   xtb is free software: you can redistribute it and/or modify it under
   the terms of the GNU Lesser General Public License as published by
   the Free Software Foundation, either version 3 of the License, or
   (at your option) any later version.
   
   xtb is distributed in the hope that it will be useful,
   but WITHOUT ANY WARRANTY; without even the implied warranty of
   MERCHANTABILITY or FITNESS FOR A PARTICULAR PURPOSE.  See the
   GNU Lesser General Public License for more details.
   
   Cite this work as:
   * C. Bannwarth, E. Caldeweyher, S. Ehlert, A. Hansen, P. Pracht,
     J. Seibert, S. Spicher, S. Grimme, WIREs Comput. Mol. Sci., 2020, 11,
     e01493. DOI: 10.1002/wcms.1493
   
   for GFN2-xTB:
   * C. Bannwarth, S. Ehlert and S. Grimme., J. Chem. Theory Comput., 2019,
     15, 1652-1671. DOI: 10.1021/acs.jctc.8b01176
   for GFN1-xTB:
   * S. Grimme, C. Bannwarth, P. Shushkov, J. Chem. Theory Comput., 2017,
     13, 1989-2009. DOI: 10.1021/acs.jctc.7b00118
   for GFN0-xTB:
   * P. Pracht, E. Caldeweyher, S. Ehlert, S. Grimme, ChemRxiv, 2019, preprint.
     DOI: 10.26434/chemrxiv.8326202.v1
   for GFN-FF:
   * S. Spicher and S. Grimme, Angew. Chem. Int. Ed., 2020, 59, 15665-15673.
     DOI: 10.1002/anie.202004239
   
   for ALPB and GBSA implicit solvation:
   * S. Ehlert, M. Stahn, S. Spicher, S. Grimme, J. Chem. Theory Comput.,
     2021, 17, 4250-4261. DOI: 10.1021/acs.jctc.1c00471
   
   for ddCOSMO and CPCM-X implicit solvation:
   * M. Stahn, S. Ehlert, S. Grimme, J. Phys. Chem. A,
     2023, XX, XXXX-XXXX. DOI: 10.1021/acs.jpca.3c04382
   
   for DFT-D4:
   * E. Caldeweyher, C. Bannwarth and S. Grimme, J. Chem. Phys., 2017,
     147, 034112. DOI: 10.1063/1.4993215
   * E. Caldeweyher, S. Ehlert, A. Hansen, H. Neugebauer, S. Spicher,
     C. Bannwarth and S. Grimme, J. Chem. Phys., 2019, 150, 154122.
     DOI: 10.1063/1.5090222
   * E. Caldeweyher, J.-M. Mewes, S. Ehlert and S. Grimme, Phys. Chem. Chem. Phys.
     2020, 22, 8499-8512. DOI: 10.1039/D0CP00502A
   
   for sTDA-xTB:
   * S. Grimme and C. Bannwarth, J. Chem. Phys., 2016, 145, 054103.
     DOI: 10.1063/1.4959605
   
   in the mass-spec context:
   * V. Asgeirsson, C. Bauer and S. Grimme, Chem. Sci., 2017, 8, 4879.
     DOI: 10.1039/c7sc00601b
   * J. Koopman and S. Grimme, ACS Omega 2019, 4, 12, 15120-15133.
     DOI: 10.1021/acsomega.9b02011
   
   for metadynamics refer to:
   * S. Grimme, J. Chem. Theory Comput., 2019, 155, 2847-2862
     DOI: 10.1021/acs.jctc.9b00143
   
   for SPH calculations refer to:
   * S. Spicher and S. Grimme, J. Chem. Theory Comput., 2021, 17, 1701-1714
     DOI: 10.1021/acs.jctc.0c01306
   
   for ONIOM refer to:
   * C. Plett, A. Katbashev, S. Ehlert, S. Grimme, M. Bursch,
     Phys. Chem. Chem. Phys., 2023, 25, 17860-17868. DOI: 10.1039/D3CP02178E
   
   for DIPRO refer to:
   * J. Kohn, N. Gildemeister, S. Grimme, D. Fazzi, A. Hansen,
     J. Chem. Phys., 2023, just accepted.
   
   for PTB refer to:
   * S. Grimme, M. Mueller, A. Hansen, J. Chem. Phys., 2023, 158, 124111.
     DOI: 10.1063/5.0137838
   
   with help from (in alphabetical order)
   P. Atkinson, C. Bannwarth, F. Bohle, G. Brandenburg, E. Caldeweyher
   M. Checinski, S. Dohm, S. Ehlert, S. Ehrlich, I. Gerasimov, C. Hölzer
   A. Katbashev, J. Kohn, J. Koopman, C. Lavigne, S. Lehtola, F. März, M. Müller,
   F. Musil, H. Neugebauer, J. Pisarek, C. Plett, P. Pracht, F. Pultar,
   J. Seibert, P. Shushkov, S. Spicher, M. Stahn, M. Steiner, T. Strunk,
   J. Stückrath, T. Rose, and J. Unsleber
   
 * started run on 2025/04/06 at 22:38:50.624     
   ID    Z sym.   atoms
    1    6 C      1-4
    2    8 O      5
    3    1 H      6-15

           -------------------------------------------------
          |                Calculation Setup                |
           -------------------------------------------------

          program call               : /srv/scratch/z5358697/.xtb/bin/xtb xtb_rrho.coord --gfn2 --ohess vtight --chrg 0 --enso --norestart -I rrho-xcontrol-inp --parallel 1 --alpb water
          hostname                   : k159
          coordinate file            : xtb_rrho.coord
          omp threads                :                     1


           -------------------------------------------------
          |                 G F N 2 - x T B                 |
           -------------------------------------------------

        Reference                      10.1021/acs.jctc.8b01176
      * Hamiltonian:
        H0-scaling (s, p, d)           1.850000    2.230000    2.230000
        zeta-weighting                 0.500000
      * Dispersion:
        s8                             2.700000
        a1                             0.520000
        a2                             5.000000
        s9                             5.000000
      * Repulsion:
        kExp                           1.500000    1.000000
        rExp                           1.000000
      * Coulomb:
        alpha                          2.000000
        third order                    shell-resolved
        anisotropic                    true
        a3                             3.000000
        a5                             4.000000
        cn-shift                       1.200000
        cn-exp                         4.000000
        max-rad                        5.000000

      * Solvation model:               ALPB
        Solvent                        water
        Parameter file                 internal GFN2-xTB/ALPB
        Dielectric constant                8.0200E+01
        Reference state                gsolv [1 M gas/solution]
        Free energy shift                  1.0808E-03 Eh       6.7819E-01 kcal/mol
        Temperature                        2.9815E+02 K
        Density                            1.0000E+00 kg/L
        Solvent mass                       1.8000E+01 g/mol
        Interaction kernel             P16
        Born radius scaling (c1)           1.4744E+00
        Born radii integrator          GBOBC
        Born offset                        0.0000E+00 a0       0.0000E+00 AA
        H-bond correction              true
        Ion screening                  false
        Surface tension                    1.0000E-05 Eh       1.5569E+01 dyn/cm
        Grid points                               974 per atom

          ...................................................
          :                      SETUP                      :
          :.................................................:
          :  # basis functions                  30          :
          :  # atomic orbitals                  30          :
          :  # shells                           20          :
          :  # electrons                        32          :
          :  max. iterations                   250          :
          :  Hamiltonian                  GFN2-xTB          :
          :  restarted?                      false          :
          :  GBSA solvation                   true          :
          :  PC potential                    false          :
          :  electronic temp.          300.0000000     K    :
          :  accuracy                    1.0000000          :
          :  -> integral cutoff          0.2500000E+02      :
          :  -> integral neglect         0.1000000E-07      :
          :  -> SCF convergence          0.1000000E-05 Eh   :
          :  -> wf. convergence          0.1000000E-03 e    :
          :  Broyden damping             0.4000000          :
          :  net charge                          0          :
          :  unpaired electrons                  0          :
          ...................................................

 iter      E             dE          RMSdq      gap      omega  full diag
   1    -17.9073030 -0.179073E+02  0.339E+00   12.16       0.0  T
   2    -17.9340948 -0.267917E-01  0.178E+00   11.96       1.0  T
   3    -17.9348652 -0.770408E-03  0.631E-01   11.95       1.0  T
   4    -17.9350063 -0.141129E-03  0.114E-01   11.94       1.0  T
   5    -17.9350185 -0.121789E-04  0.630E-02   11.95       1.0  T
   6    -17.9350208 -0.235757E-05  0.120E-02   11.95       2.1  T
   7    -17.9350211 -0.276025E-06  0.575E-03   11.95       4.5  T
   8    -17.9350212 -0.592405E-07  0.221E-03   11.95      11.7  T
   9    -17.9350212 -0.608549E-08  0.575E-04   11.95      44.9  T
  10    -17.9350212 -0.107048E-08  0.176E-04   11.95     147.1  T

   *** convergence criteria satisfied after 10 iterations ***

         #    Occupation            Energy/Eh            Energy/eV
      -------------------------------------------------------------
         1        2.0000           -0.6837923             -18.6069
       ...           ...                  ...                  ...
        10        2.0000           -0.4852779             -13.2051
        11        2.0000           -0.4579544             -12.4616
        12        2.0000           -0.4559766             -12.4078
        13        2.0000           -0.4469879             -12.1632
        14        2.0000           -0.4313666             -11.7381
        15        2.0000           -0.4226833             -11.5018
        16        2.0000           -0.4099712             -11.1559 (HOMO)
        17                          0.0292037               0.7947 (LUMO)
        18                          0.0703791               1.9151
        19                          0.1130594               3.0765
        20                          0.1265088               3.4425
        21                          0.1461761               3.9777
       ...                                ...                  ...
        30                          0.2937726               7.9940
      -------------------------------------------------------------
                  HL-Gap            0.4391750 Eh           11.9506 eV
             Fermi-level           -0.1903838 Eh           -5.1806 eV

 SCC (total)                   0 d,  0 h,  0 min,  0.020 sec
 SCC setup                      ...        0 min,  0.001 sec (  3.429%)
 Dispersion                     ...        0 min,  0.000 sec (  0.284%)
 classical contributions        ...        0 min,  0.000 sec (  0.059%)
 integral evaluation            ...        0 min,  0.001 sec (  3.523%)
 iterations                     ...        0 min,  0.017 sec ( 82.167%)
 molecular gradient             ...        0 min,  0.002 sec ( 10.008%)
 printout                       ...        0 min,  0.000 sec (  0.472%)

         :::::::::::::::::::::::::::::::::::::::::::::::::::::
         ::                     SUMMARY                     ::
         :::::::::::::::::::::::::::::::::::::::::::::::::::::
         :: total energy             -17.728414720589 Eh    ::
         :: total w/o Gsasa/hb       -17.724769535261 Eh    ::
         :: gradient norm              0.029108073759 Eh/a0 ::
         :: HOMO-LUMO gap             11.950558990205 eV    ::
         ::.................................................::
         :: SCC energy               -17.935011855976 Eh    ::
         :: -> isotropic ES            0.036143559782 Eh    ::
         :: -> anisotropic ES          0.003669667321 Eh    ::
         :: -> anisotropic XC          0.006716524986 Eh    ::
         :: -> dispersion             -0.006986447194 Eh    ::
         :: -> Gsolv                  -0.008482873022 Eh    ::
         ::    -> Gelec               -0.004837687693 Eh    ::
         ::    -> Gsasa                0.000650608203 Eh    ::
         ::    -> Ghb                 -0.005376553230 Eh    ::
         ::    -> Gshift               0.001080759698 Eh    ::
         :: repulsion energy           0.206597135387 Eh    ::
         :: add. restraining           0.000000000000 Eh    ::
         :: total charge               0.000000000000 e     ::
         :::::::::::::::::::::::::::::::::::::::::::::::::::::

      ----------------------------------------------------------- 
     |                   =====================                   |
     |                        A N C O P T                        |
     |                   =====================                   |
     |               Approximate Normal Coordinate               |
     |                Rational Function Optimizer                |
      ----------------------------------------------------------- 
      ----------------------------------------------------------- 
     |                   =====================                   |
     |                        A N C O P T                        |
     |                   =====================                   |
     |               Approximate Normal Coordinate               |
     |                Rational Function Optimizer                |
      ----------------------------------------------------------- 

          ...................................................
          :                      SETUP                      :
          :.................................................:
          :   optimization level         verytight          :
          :   max. optcycles                   300          :
          :   ANC micro-cycles                  20          :
          :   degrees of freedom                39          :
          :.................................................:
          :   RF solver                   davidson          :
          :   write xtbopt.log                true          :
          :   linear?                        false          :
          :   energy convergence         0.1000000E-06 Eh   :
          :   grad. convergence          0.2000000E-03 Eh/α :
          :   maxmium RF displ.          1.0000000          :
          :   Hlow (freq-cutoff)         0.1000000E-01      :
          :   Hmax (freq-cutoff)         5.0000000          :
          :   S6 in model hess.         20.0000000          :
          ...................................................

generating ANC from exact Hessian ...
Using Lindh-Hessian (1995)
 Shifting diagonal of input Hessian by   6.792709656793519E-003
 Lowest  eigenvalues of input Hessian
    0.000000    0.000000    0.000000    0.000000    0.000000    0.000000
    0.010000    0.011365    0.014094    0.017215    0.020919    0.027902
    0.045234    0.050369    0.057485    0.058783    0.060939    0.064235
 Highest eigenvalues
    1.138271    1.163783    1.200412    1.244041    1.296160    1.406071
 

........................................................................
.............................. CYCLE    1 ..............................
........................................................................

 iter      E             dE          RMSdq      gap      omega  full diag
   1    -17.9350212 -0.179350E+02  0.445E-05   11.95       0.0  T
   2    -17.9350212 -0.126548E-10  0.163E-05   11.95    1586.2  T
   3    -17.9350212 -0.415668E-12  0.104E-05   11.95    2478.0  T
     SCC iter.                  ...        0 min,  0.001 sec
     gradient                   ...        0 min,  0.002 sec
 * total energy  :   -17.7284147 Eh     change       -0.5519851E-10 Eh
   gradient norm :     0.0291088 Eh/α   predicted     0.0000000E+00 (-100.00%)
   displ. norm   :     0.1051365 α      lambda       -0.1268824E-02
   maximum displ.:     0.0534454 α      in ANC's #5, #6, #10, ...

........................................................................
.............................. CYCLE    2 ..............................
........................................................................

 iter      E             dE          RMSdq      gap      omega  full diag
   1    -17.9413771 -0.179414E+02  0.111E-01   12.30       0.0  T
   2    -17.9413847 -0.767081E-05  0.648E-02   12.30       1.0  T
   3    -17.9413853 -0.535116E-06  0.127E-02   12.30       2.0  T
   4    -17.9413856 -0.354939E-06  0.329E-03   12.30       7.8  T
   5    -17.9413856 -0.221879E-07  0.185E-03   12.30      13.9  T
   6    -17.9413856 -0.579726E-08  0.738E-04   12.30      35.0  T
   7    -17.9413856 -0.106898E-08  0.228E-04   12.30     113.1  T
     SCC iter.                  ...        0 min,  0.001 sec
     gradient                   ...        0 min,  0.002 sec
 * total energy  :   -17.7292362 Eh     change       -0.8214922E-03 Eh
   gradient norm :     0.0133731 Eh/α   predicted    -0.6414239E-03 ( -21.92%)
   displ. norm   :     0.0646620 α      lambda       -0.3125358E-03
   maximum displ.:     0.0363961 α      in ANC's #1, #3, #5, ...

........................................................................
.............................. CYCLE    3 ..............................
........................................................................

 iter      E             dE          RMSdq      gap      omega  full diag
   1    -17.9443645 -0.179444E+02  0.464E-02   12.57       0.0  T
   2    -17.9443695 -0.495243E-05  0.270E-02   12.56       1.0  T
   3    -17.9443698 -0.334992E-06  0.114E-02   12.57       2.3  T
   4    -17.9443700 -0.139624E-06  0.238E-03   12.57      10.8  T
   5    -17.9443700 -0.124960E-07  0.128E-03   12.57      20.1  T
   6    -17.9443700 -0.284254E-08  0.577E-04   12.57      44.8  T
   7    -17.9443700 -0.585676E-09  0.182E-04   12.57     141.7  T
     SCC iter.                  ...        0 min,  0.001 sec
     gradient                   ...        0 min,  0.002 sec
 * total energy  :   -17.7294144 Eh     change       -0.1781879E-03 Eh
   gradient norm :     0.0034973 Eh/α   predicted    -0.1569200E-03 ( -11.94%)
   displ. norm   :     0.0405863 α      lambda       -0.3908813E-04
   maximum displ.:     0.0327705 α      in ANC's #1, #3, #4, ...

........................................................................
.............................. CYCLE    4 ..............................
........................................................................

 iter      E             dE          RMSdq      gap      omega  full diag
   1    -17.9440649 -0.179441E+02  0.197E-02   12.63       0.0  T
   2    -17.9440651 -0.263080E-06  0.117E-02   12.63       2.2  T
   3    -17.9440651 -0.162407E-07  0.279E-03   12.63       9.2  T
   4    -17.9440652 -0.191628E-07  0.687E-04   12.63      37.6  T
   5    -17.9440652 -0.842263E-09  0.328E-04   12.63      78.8  T
     SCC iter.                  ...        0 min,  0.001 sec
     gradient                   ...        0 min,  0.002 sec
 * total energy  :   -17.7294415 Eh     change       -0.2710939E-04 Eh
   gradient norm :     0.0013019 Eh/α   predicted    -0.1957615E-04 ( -27.79%)
   displ. norm   :     0.0684674 α      lambda       -0.1831548E-04
   maximum displ.:     0.0587750 α      in ANC's #1, #3, #2, ...

........................................................................
.............................. CYCLE    5 ..............................
........................................................................

 iter      E             dE          RMSdq      gap      omega  full diag
   1    -17.9432050 -0.179432E+02  0.249E-02   12.66       0.0  T
   2    -17.9432051 -0.138036E-06  0.148E-02   12.66       1.7  T
   3    -17.9432052 -0.193066E-07  0.177E-03   12.66      14.6  T
   4    -17.9432052 -0.116975E-07  0.710E-04   12.66      36.3  T
   5    -17.9432052 -0.709377E-09  0.306E-04   12.66      84.4  T
     SCC iter.                  ...        0 min,  0.001 sec
     gradient                   ...        0 min,  0.002 sec
 * total energy  :   -17.7294566 Eh     change       -0.1509584E-04 Eh
   gradient norm :     0.0016559 Eh/α   predicted    -0.9175463E-05 ( -39.22%)
   displ. norm   :     0.0335974 α      lambda       -0.6574552E-05
   maximum displ.:     0.0303076 α      in ANC's #1, #2, #4, ...

........................................................................
.............................. CYCLE    6 ..............................
........................................................................

 iter      E             dE          RMSdq      gap      omega  full diag
   1    -17.9432094 -0.179432E+02  0.112E-02   12.66       0.0  T
   2    -17.9432095 -0.222087E-07  0.670E-03   12.66       3.9  T
   3    -17.9432095 -0.161788E-08  0.682E-04   12.66      37.9  T
   4    -17.9432095 -0.211736E-08  0.237E-04   12.66     108.8  T
     SCC iter.                  ...        0 min,  0.001 sec
     gradient                   ...        0 min,  0.002 sec
 * total energy  :   -17.7294653 Eh     change       -0.8716893E-05 Eh
   gradient norm :     0.0011456 Eh/α   predicted    -0.3290821E-05 ( -62.25%)
   displ. norm   :     0.0456522 α      lambda       -0.8323885E-05
   maximum displ.:     0.0406021 α      in ANC's #1, #2, #4, ...

........................................................................
.............................. CYCLE    7 ..............................
........................................................................

 iter      E             dE          RMSdq      gap      omega  full diag
   1    -17.9435463 -0.179435E+02  0.169E-02   12.64       0.0  T
   2    -17.9435463 -0.425631E-07  0.101E-02   12.64       2.6  T
   3    -17.9435463 -0.416698E-08  0.101E-03   12.64      25.6  T
   4    -17.9435463 -0.493278E-08  0.375E-04   12.64      68.9  T
   5    -17.9435463 -0.148937E-09  0.117E-04   12.64     221.3  T
     SCC iter.                  ...        0 min,  0.001 sec
     gradient                   ...        0 min,  0.002 sec
 * total energy  :   -17.7294750 Eh     change       -0.9688592E-05 Eh
   gradient norm :     0.0003805 Eh/α   predicted    -0.4166721E-05 ( -56.99%)
   displ. norm   :     0.0437758 α      lambda       -0.4857559E-05
   maximum displ.:     0.0396172 α      in ANC's #1, #2, #6, ...

........................................................................
.............................. CYCLE    8 ..............................
........................................................................

 iter      E             dE          RMSdq      gap      omega  full diag
   1    -17.9436215 -0.179436E+02  0.143E-02   12.63       0.0  T
   2    -17.9436215 -0.202700E-07  0.853E-03   12.63       3.0  T
   3    -17.9436215 -0.378892E-08  0.662E-04   12.63      39.0  T
   4    -17.9436215 -0.195857E-08  0.308E-04   12.63      83.9  T
     SCC iter.                  ...        0 min,  0.001 sec
     gradient                   ...        0 min,  0.002 sec
 * total energy  :   -17.7294811 Eh     change       -0.6059970E-05 Eh
   gradient norm :     0.0004571 Eh/α   predicted    -0.2430227E-05 ( -59.90%)
   displ. norm   :     0.0308221 α      lambda       -0.2884232E-05
   maximum displ.:     0.0283941 α      in ANC's #1, #2, #3, ...

........................................................................
.............................. CYCLE    9 ..............................
........................................................................

 iter      E             dE          RMSdq      gap      omega  full diag
   1    -17.9436332 -0.179436E+02  0.100E-02   12.64       0.0  T
   2    -17.9436332 -0.510873E-08  0.601E-03   12.64       4.3  T
   3    -17.9436332 -0.278004E-08  0.337E-04   12.64      76.6  T
   4    -17.9436332 -0.203709E-09  0.217E-04   12.64     119.0  T
     SCC iter.                  ...        0 min,  0.001 sec
     gradient                   ...        0 min,  0.002 sec
 * total energy  :   -17.7294850 Eh     change       -0.3903003E-05 Eh
   gradient norm :     0.0003862 Eh/α   predicted    -0.1440761E-05 ( -63.09%)
   displ. norm   :     0.0246132 α      lambda       -0.2145821E-05
   maximum displ.:     0.0232081 α      in ANC's #1, #2, #3, ...

........................................................................
.............................. CYCLE   10 ..............................
........................................................................

 iter      E             dE          RMSdq      gap      omega  full diag
   1    -17.9436120 -0.179436E+02  0.734E-03   12.64       0.0  T
   2    -17.9436120 -0.390711E-08  0.442E-03   12.64       5.8  T
   3    -17.9436120 -0.168557E-08  0.279E-04   12.64      92.7  T
   4    -17.9436120 -0.193424E-09  0.172E-04   12.64     150.2  T
     SCC iter.                  ...        0 min,  0.001 sec
     gradient                   ...        0 min,  0.002 sec
 * total energy  :   -17.7294879 Eh     change       -0.2938657E-05 Eh
   gradient norm :     0.0001761 Eh/α   predicted    -0.1074407E-05 ( -63.44%)
   displ. norm   :     0.0216990 α      lambda       -0.1669988E-05
   maximum displ.:     0.0205962 α      in ANC's #1, #4, #3, ...

........................................................................
.............................. CYCLE   11 ..............................
........................................................................

 iter      E             dE          RMSdq      gap      omega  full diag
   1    -17.9435663 -0.179436E+02  0.619E-03   12.65       0.0  T
   2    -17.9435663 -0.212126E-08  0.372E-03   12.65       6.9  T
   3    -17.9435663 -0.113333E-08  0.215E-04   12.65     120.1  T
   4    -17.9435663 -0.862634E-10  0.137E-04   12.65     188.3  T
     SCC iter.                  ...        0 min,  0.001 sec
     gradient                   ...        0 min,  0.002 sec
 * total energy  :   -17.7294902 Eh     change       -0.2297913E-05 Eh
   gradient norm :     0.0001293 Eh/α   predicted    -0.8345069E-06 ( -63.68%)
   displ. norm   :     0.0201244 α      lambda       -0.1352257E-05
   maximum displ.:     0.0189649 α      in ANC's #1, #4, #3, ...

........................................................................
.............................. CYCLE   12 ..............................
........................................................................

 iter      E             dE          RMSdq      gap      omega  full diag
   1    -17.9435676 -0.179436E+02  0.550E-03   12.65       0.0  T
   2    -17.9435676 -0.151873E-08  0.330E-03   12.65       7.8  T
   3    -17.9435676 -0.694794E-09  0.162E-04   12.65     159.6  T
   4    -17.9435676 -0.350120E-10  0.972E-05   12.65     265.7  T
     SCC iter.                  ...        0 min,  0.001 sec
     gradient                   ...        0 min,  0.002 sec
 * total energy  :   -17.7294921 Eh     change       -0.1857906E-05 Eh
   gradient norm :     0.0001309 Eh/α   predicted    -0.6766752E-06 ( -63.58%)
   displ. norm   :     0.0184215 α      lambda       -0.1064556E-05
   maximum displ.:     0.0173122 α      in ANC's #1, #4, #2, ...

........................................................................
.............................. CYCLE   13 ..............................
........................................................................

 iter      E             dE          RMSdq      gap      omega  full diag
   1    -17.9435612 -0.179436E+02  0.529E-03   12.65       0.0  T
   2    -17.9435612 -0.888470E-09  0.316E-03   12.65       8.2  T
   3    -17.9435612 -0.527066E-09  0.136E-04   12.65     190.0  T
   4    -17.9435612 -0.202220E-10  0.806E-05   12.65     320.5  T
     SCC iter.                  ...        0 min,  0.001 sec
     gradient                   ...        0 min,  0.002 sec
 * total energy  :   -17.7294935 Eh     change       -0.1449267E-05 Eh
   gradient norm :     0.0001085 Eh/α   predicted    -0.5334801E-06 ( -63.19%)
   displ. norm   :     0.0158042 α      lambda       -0.7838271E-06
   maximum displ.:     0.0150094 α      in ANC's #1, #4, #2, ...

........................................................................
.............................. CYCLE   14 ..............................
........................................................................

 iter      E             dE          RMSdq      gap      omega  full diag
   1    -17.9435733 -0.179436E+02  0.424E-03   12.65       0.0  T
   2    -17.9435733 -0.873118E-09  0.253E-03   12.65      10.2  T
   3    -17.9435733 -0.246647E-09  0.107E-04   12.65     240.8  T
   4    -17.9435733 -0.259419E-10  0.628E-05   12.65     411.5  T
     SCC iter.                  ...        0 min,  0.001 sec
     gradient                   ...        0 min,  0.002 sec
 * total energy  :   -17.7294946 Eh     change       -0.1061818E-05 Eh
   gradient norm :     0.0000896 Eh/α   predicted    -0.3927814E-06 ( -63.01%)
   displ. norm   :     0.0128659 α      lambda       -0.5597450E-06
   maximum displ.:     0.0124162 α      in ANC's #1, #2, #4, ...

........................................................................
.............................. CYCLE   15 ..............................
........................................................................

 iter      E             dE          RMSdq      gap      omega  full diag
   1    -17.9435766 -0.179436E+02  0.382E-03   12.65       0.0  T
   2    -17.9435766 -0.401876E-09  0.227E-03   12.65      11.4  T
   3    -17.9435766 -0.227462E-09  0.899E-05   12.65     287.3  T
   4    -17.9435766 -0.987299E-11  0.547E-05   12.65     472.0  T
     SCC iter.                  ...        0 min,  0.001 sec
     gradient                   ...        0 min,  0.002 sec
 * total energy  :   -17.7294953 Eh     change       -0.7649181E-06 Eh
   gradient norm :     0.0000671 Eh/α   predicted    -0.2790971E-06 ( -63.51%)
   displ. norm   :     0.0105521 α      lambda       -0.4073654E-06
   maximum displ.:     0.0102748 α      in ANC's #1, #2, #6, ...

........................................................................
.............................. CYCLE   16 ..............................
........................................................................

 iter      E             dE          RMSdq      gap      omega  full diag
   1    -17.9435781 -0.179436E+02  0.287E-03   12.65       0.0  T
   2    -17.9435781 -0.324977E-09  0.172E-03   12.65      15.0  T
   3    -17.9435781 -0.126349E-09  0.714E-05   12.65     361.9  T
   4    -17.9435781 -0.866152E-11  0.437E-05   12.65     590.9  T
     SCC iter.                  ...        0 min,  0.001 sec
     gradient                   ...        0 min,  0.002 sec
 * total energy  :   -17.7294959 Eh     change       -0.5672881E-06 Eh
   gradient norm :     0.0000595 Eh/α   predicted    -0.2032650E-06 ( -64.17%)
   displ. norm   :     0.0091699 α      lambda       -0.3193660E-06
   maximum displ.:     0.0089412 α      in ANC's #1, #4, #2, ...

........................................................................
.............................. CYCLE   17 ..............................
........................................................................

 iter      E             dE          RMSdq      gap      omega  full diag
   1    -17.9435765 -0.179436E+02  0.261E-03   12.65       0.0  T
   2    -17.9435765 -0.268049E-09  0.156E-03   12.65      16.5  T
   3    -17.9435765 -0.137067E-09  0.713E-05   12.65     361.9  T
   4    -17.9435765 -0.547118E-11  0.437E-05   12.65     591.2  T
     SCC iter.                  ...        0 min,  0.001 sec
     gradient                   ...        0 min,  0.002 sec
 * total energy  :   -17.7294964 Eh     change       -0.4427715E-06 Eh
   gradient norm :     0.0000505 Eh/α   predicted    -0.1588486E-06 ( -64.12%)
   displ. norm   :     0.0082608 α      lambda       -0.2486349E-06
   maximum displ.:     0.0080185 α      in ANC's #1, #4, #6, ...

........................................................................
.............................. CYCLE   18 ..............................
........................................................................

 iter      E             dE          RMSdq      gap      omega  full diag
   1    -17.9435778 -0.179436E+02  0.234E-03   12.65       0.0  T
   2    -17.9435778 -0.233872E-09  0.140E-03   12.65      18.5  T
   3    -17.9435778 -0.121325E-09  0.689E-05   12.65     374.8  T
   4    -17.9435778 -0.711964E-11  0.428E-05   12.65     603.3  T
     SCC iter.                  ...        0 min,  0.001 sec
     gradient                   ...        0 min,  0.002 sec
 * total energy  :   -17.7294967 Eh     change       -0.3477045E-06 Eh
   gradient norm :     0.0000438 Eh/α   predicted    -0.1258989E-06 ( -63.79%)
   displ. norm   :     0.0072648 α      lambda       -0.1920758E-06
   maximum displ.:     0.0070547 α      in ANC's #1, #4, #6, ...

........................................................................
.............................. CYCLE   19 ..............................
........................................................................

 iter      E             dE          RMSdq      gap      omega  full diag
   1    -17.9435742 -0.179436E+02  0.217E-03   12.65       0.0  T
   2    -17.9435742 -0.218613E-09  0.130E-03   12.65      19.9  T
   3    -17.9435742 -0.114653E-09  0.663E-05   12.65     389.4  T
   4    -17.9435742 -0.563105E-11  0.418E-05   12.65     618.1  T
     SCC iter.                  ...        0 min,  0.001 sec
     gradient                   ...        0 min,  0.002 sec
 * total energy  :   -17.7294970 Eh     change       -0.2634944E-06 Eh
   gradient norm :     0.0000386 Eh/α   predicted    -0.9580414E-07 ( -63.64%)
   displ. norm   :     0.0062929 α      lambda       -0.1443453E-06
   maximum displ.:     0.0061268 α      in ANC's #1, #4, #2, ...

........................................................................
.............................. CYCLE   20 ..............................
........................................................................

 iter      E             dE          RMSdq      gap      omega  full diag
   1    -17.9435768 -0.179436E+02  0.185E-03   12.65       0.0  T
   2    -17.9435768 -0.158817E-09  0.111E-03   12.65      23.3  T
   3    -17.9435768 -0.816343E-10  0.591E-05   12.65     436.6  T
   4    -17.9435768 -0.719425E-11  0.372E-05   12.65     694.4  T
     SCC iter.                  ...        0 min,  0.001 sec
     gradient                   ...        0 min,  0.002 sec
 * total energy  :   -17.7294972 Eh     change       -0.1987937E-06 Eh
   gradient norm :     0.0000327 Eh/α   predicted    -0.7170012E-07 ( -63.93%)
   displ. norm   :     0.0054040 α      lambda       -0.1098723E-06
   maximum displ.:     0.0052707 α      in ANC's #1, #2, #3, ...
 * RMSD in coord.:     0.1251469 α      energy gain  -0.1082444E-02 Eh

generating ANC from exact Hessian ...
Using Lindh-Hessian (1995)
 Shifting diagonal of input Hessian by   6.683652229622130E-003
 Lowest  eigenvalues of input Hessian
    0.000000    0.000000    0.000000    0.000000    0.000000    0.000000
    0.010000    0.011463    0.014139    0.017692    0.021513    0.028331
    0.047071    0.052962    0.059196    0.060833    0.062019    0.064964
 Highest eigenvalues
    1.156610    1.192941    1.212256    1.261849    1.292102    1.484319
 

........................................................................
.............................. CYCLE   21 ..............................
........................................................................

 iter      E             dE          RMSdq      gap      omega  full diag
   1    -17.9435771 -0.179436E+02  0.163E-03   12.65       0.0  T
   2    -17.9435771 -0.127187E-09  0.974E-04   12.65      26.5  T
   3    -17.9435771 -0.733813E-10  0.530E-05   12.65     486.8  T
     SCC iter.                  ...        0 min,  0.001 sec
     gradient                   ...        0 min,  0.002 sec
 * total energy  :   -17.7294973 Eh     change       -0.1518730E-06 Eh
   gradient norm :     0.0000292 Eh/α   predicted     0.0000000E+00 (-100.00%)
   displ. norm   :     0.0040364 α      lambda       -0.7498723E-07
   maximum displ.:     0.0039796 α      in ANC's #1, #2, #4, ...

........................................................................
.............................. CYCLE   22 ..............................
........................................................................

 iter      E             dE          RMSdq      gap      omega  full diag
   1    -17.9435771 -0.179436E+02  0.113E-03   12.65       0.0  T
   2    -17.9435771 -0.603428E-10  0.678E-04   12.65      38.1  T
   3    -17.9435771 -0.407105E-10  0.378E-05   12.65     682.4  T
     SCC iter.                  ...        0 min,  0.001 sec
     gradient                   ...        0 min,  0.002 sec
 * total energy  :   -17.7294974 Eh     change       -0.1035639E-06 Eh
   gradient norm :     0.0000274 Eh/α   predicted    -0.3689340E-07 ( -64.38%)
   displ. norm   :     0.0042069 α      lambda       -0.6768739E-07
   maximum displ.:     0.0039572 α      in ANC's #1, #2, #4, ...

........................................................................
.............................. CYCLE   23 ..............................
........................................................................

 iter      E             dE          RMSdq      gap      omega  full diag
   1    -17.9435764 -0.179436E+02  0.130E-03   12.65       0.0  T
   2    -17.9435764 -0.789449E-10  0.781E-04   12.65      33.1  T
   3    -17.9435764 -0.450271E-10  0.407E-05   12.65     634.4  T
     SCC iter.                  ...        0 min,  0.001 sec
     gradient                   ...        0 min,  0.002 sec
 * total energy  :   -17.7294975 Eh     change       -0.9854132E-07 Eh
   gradient norm :     0.0000238 Eh/α   predicted    -0.3504481E-07 ( -64.44%)
   displ. norm   :     0.0045407 α      lambda       -0.6879333E-07
   maximum displ.:     0.0041603 α      in ANC's #1, #2, #4, ...

   *** GEOMETRY OPTIMIZATION CONVERGED AFTER 23 ITERATIONS ***

------------------------------------------------------------------------
 total energy gain   :        -0.0010828 Eh       -0.6795 kcal/mol
 total RMSD          :         0.1270956 a0        0.0673 Å
 total power (kW/mol):        -0.1236038 (step)  -26.4970 (real)
------------------------------------------------------------------------

 ANCopt (total)                0 d,  0 h,  0 min,  0.107 sec
 optimizer setup                ...        0 min,  0.000 sec (  0.276%)
 model hessian                  ...        0 min,  0.005 sec (  4.985%)
 ANC generation                 ...        0 min,  0.000 sec (  0.369%)
 coordinate transformation      ...        0 min,  0.000 sec (  0.077%)
 single point calculation       ...        0 min,  0.093 sec ( 86.369%)
 optimization log               ...        0 min,  0.006 sec (  5.494%)
 hessian update                 ...        0 min,  0.000 sec (  0.084%)
 rational function              ...        0 min,  0.002 sec (  1.667%)

================
 final structure:
================
$coord
        4.61017670252559       -0.10219702752274        0.27272530976855      C
        1.88107694983708        0.79642709652833        0.45718478938117      C
        0.12099286002637       -0.75498955209817       -1.22426613011154      C
       -2.64150749878814        0.03528461089996       -0.91426781942154      C
       -3.58739065524985       -0.37541658287203        1.54768825715444      O
        4.76790318894223       -2.06418947859847        0.86464357481059      H
        5.28542517667831        0.04649540229264       -1.66298064345878      H
        5.82469023095698        1.03763499277201        1.47475357588092      H
        1.23141262960185        0.66346562490307        2.41126680643903      H
        1.76747850716967        2.78059273206125       -0.09940502845597      H
        0.64842549145058       -0.51163747217119       -3.20253051482452      H
        0.31325073512820       -2.75724759923258       -0.75683188720282      H
       -2.83798199076939        2.06555304621784       -1.23714877423475      H
       -3.81998404048219       -0.96330264990195       -2.30215739438379      H
       -3.49065286372755       -2.16137412702304        1.92609749050664      H
$end
 
 Bond Distances (Angstroems)
 ---------------------------
C1-C2=1.5236         C1-H6=1.0877         C1-H7=1.0877         C1-H8=1.0870         C2-C1=1.5236         C2-C3=1.5275         
C2-H9=1.0920         C2-H10=1.0922        C3-C2=1.5275         C3-C4=1.5293         C3-H11=1.0910        C3-H12=1.0928        
C4-C3=1.5293         C4-O5=1.4125         C4-H13=1.0928        C4-H14=1.0989        O5-C4=1.4125         O5-H15=0.9674        
H6-C1=1.0877         H7-C1=1.0877         H8-C1=1.0870         H9-C2=1.0920         H10-C2=1.0922        H11-C3=1.0910        
H12-C3=1.0928        H13-C4=1.0928        H14-C4=1.0989        H15-O5=0.9674        
 C  H  Rav=1.0913 sigma=0.0035  Rmin=1.0870  Rmax=1.0989     9
 C  C  Rav=1.5268 sigma=0.0024  Rmin=1.5236  Rmax=1.5293     3
 O  H  Rav=0.9674 sigma=0.0000  Rmin=0.9674  Rmax=0.9674     1
 O  C  Rav=1.4125 sigma=0.0000  Rmin=1.4125  Rmax=1.4125     1
 
 selected bond angles (degree)
 --------------------
H6-C1-C2=110.62                H7-C1-C2=110.44                H7-C1-H6=108.36                H8-C1-C2=110.47                
H8-C1-H6=108.41                H8-C1-H7=108.46                C3-C2-C1=111.90                H9-C2-C1=109.81                
H9-C2-C3=108.97                H10-C2-C1=109.57               H10-C2-C3=109.03               H10-C2-H9=107.46               
C4-C3-C2=111.93                H11-C3-C2=109.85               H11-C3-C4=108.37               H12-C3-C2=109.42               
H12-C3-C4=109.26               H12-C3-H11=107.93              O5-C4-C3=113.30                H13-C4-C3=110.06               
H13-C4-O5=105.17               H14-C4-C3=109.83               H14-C4-O5=109.96               H14-C4-H13=108.32              
H15-O5-C4=108.81               
 
 selected dihedral angles (degree)
 ---------------------------------
C3-C2-C1-H6=299.67            C3-C2-C1-H7= 59.63            C3-C2-C1-H8=179.62            H9-C2-C1-H6= 60.81            
H9-C2-C1-H7=180.77            H9-C2-C1-H8=300.76            H10-C2-C1-H6=178.62           H10-C2-C1-H7=298.58           
H10-C2-C1-H8= 58.57           C4-C3-C2-C1=176.39            C4-C3-C2-H9= 54.76            C4-C3-C2-H10=297.75           
H11-C3-C2-C1=296.82           H11-C3-C2-H9=175.19           H11-C3-C2-H10= 58.18          H12-C3-C2-C1= 55.13           
H12-C3-C2-H9=293.50           H12-C3-C2-H10=176.49          O5-C4-C3-C2=296.96            O5-C4-C3-H11=175.67           
O5-C4-C3-H12= 58.31           H13-C4-C3-C2= 54.39           H13-C4-C3-H11=293.10          H13-C4-C3-H12=175.74          
H14-C4-C3-C2=173.56           H14-C4-C3-H11= 52.27          H14-C4-C3-H12=294.91          H15-O5-C4-C3=299.12           
H15-O5-C4-H13=178.87          H15-O5-C4-H14= 62.45          
           -------------------------------------------------
          |                Final Singlepoint                |
           -------------------------------------------------

          ...................................................
          :                      SETUP                      :
          :.................................................:
          :  # basis functions                  30          :
          :  # atomic orbitals                  30          :
          :  # shells                           20          :
          :  # electrons                        32          :
          :  max. iterations                   250          :
          :  Hamiltonian                  GFN2-xTB          :
          :  restarted?                      false          :
          :  GBSA solvation                   true          :
          :  PC potential                    false          :
          :  electronic temp.          300.0000000     K    :
          :  accuracy                    1.0000000          :
          :  -> integral cutoff          0.2500000E+02      :
          :  -> integral neglect         0.1000000E-07      :
          :  -> SCF convergence          0.1000000E-05 Eh   :
          :  -> wf. convergence          0.1000000E-03 e    :
          :  Broyden damping             0.4000000          :
          :  net charge                          0          :
          :  unpaired electrons                  0          :
          ...................................................

 iter      E             dE          RMSdq      gap      omega  full diag
   1    -17.9435764 -0.179436E+02  0.257E-05   12.65       0.0  T
   2    -17.9435764 -0.660805E-12  0.172E-05   12.65    1498.1  T
   3    -17.9435764 -0.529354E-12  0.385E-06   12.65    6714.5  T

   *** convergence criteria satisfied after 3 iterations ***

         #    Occupation            Energy/Eh            Energy/eV
      -------------------------------------------------------------
         1        2.0000           -0.6871426             -18.6981
       ...           ...                  ...                  ...
        10        2.0000           -0.4851149             -13.2006
        11        2.0000           -0.4579181             -12.4606
        12        2.0000           -0.4558161             -12.4034
        13        2.0000           -0.4461652             -12.1408
        14        2.0000           -0.4307420             -11.7211
        15        2.0000           -0.4232660             -11.5177
        16        2.0000           -0.4073959             -11.0858 (HOMO)
        17                          0.0574701               1.5638 (LUMO)
        18                          0.0771476               2.0993
        19                          0.1182134               3.2168
        20                          0.1286277               3.5001
        21                          0.1532673               4.1706
       ...                                ...                  ...
        30                          0.3087954               8.4028
      -------------------------------------------------------------
                  HL-Gap            0.4648660 Eh           12.6496 eV
             Fermi-level           -0.1749629 Eh           -4.7610 eV

 SCC (total)                   0 d,  0 h,  0 min,  0.004 sec
 SCC setup                      ...        0 min,  0.001 sec ( 16.737%)
 Dispersion                     ...        0 min,  0.000 sec (  0.816%)
 classical contributions        ...        0 min,  0.000 sec (  0.272%)
 integral evaluation            ...        0 min,  0.001 sec ( 17.255%)
 iterations                     ...        0 min,  0.001 sec ( 15.921%)
 molecular gradient             ...        0 min,  0.002 sec ( 46.460%)
 printout                       ...        0 min,  0.000 sec (  2.228%)

         :::::::::::::::::::::::::::::::::::::::::::::::::::::
         ::                     SUMMARY                     ::
         :::::::::::::::::::::::::::::::::::::::::::::::::::::
         :: total energy             -17.729497518925 Eh    ::
         :: total w/o Gsasa/hb       -17.725692827010 Eh    ::
         :: gradient norm              0.000023887203 Eh/a0 ::
         :: HOMO-LUMO gap             12.649646518178 eV    ::
         ::.................................................::
         :: SCC energy               -17.943567010852 Eh    ::
         :: -> isotropic ES            0.035249998439 Eh    ::
         :: -> anisotropic ES          0.003292558558 Eh    ::
         :: -> anisotropic XC          0.006159527901 Eh    ::
         :: -> dispersion             -0.007026777645 Eh    ::
         :: -> Gsolv                  -0.008388561106 Eh    ::
         ::    -> Gelec               -0.004583869190 Eh    ::
         ::    -> Gsasa                0.000587692909 Eh    ::
         ::    -> Ghb                 -0.005473144522 Eh    ::
         ::    -> Gshift               0.001080759698 Eh    ::
         :: repulsion energy           0.214069491927 Eh    ::
         :: add. restraining           0.000000000000 Eh    ::
         :: total charge               0.000000000000 e     ::
         :::::::::::::::::::::::::::::::::::::::::::::::::::::

           ------------------------------------------------- 
          |                Numerical Hessian                |
           ------------------------------------------------- 
step length          :   0.00500
SCC accuracy         :   0.30000
Hessian scale factor :   1.00000
frozen atoms in %    :   0.00000    0
RMS gradient         :   0.00002
estimated CPU  time      0.01 min
estimated wall time      0.01 min

writing file <hessian>.

 projected vibrational frequencies (cm⁻¹)
eigval :       -0.00    -0.00    -0.00     0.00     0.00     0.00
eigval :       82.23   125.46   231.84   242.43   331.55   346.90
eigval :      515.10   780.35   869.43   884.65   958.50   986.44
eigval :     1060.56  1083.78  1107.55  1134.36  1196.26  1236.13
eigval :     1278.84  1290.83  1303.93  1338.43  1365.84  1411.62
eigval :     1472.78  1478.38  1496.29  1500.07  1501.97  2870.19
eigval :     2960.03  2968.37  2974.20  2984.55  2987.80  3025.63
eigval :     3029.97  3040.30  3493.41
           -------------------------------------------------
          |                Property Printout                |
           -------------------------------------------------

    * Orbital Energies and Occupations

         #    Occupation            Energy/Eh            Energy/eV
      -------------------------------------------------------------
         1        2.0000           -0.6871426             -18.6981
       ...           ...                  ...                  ...
         4        2.0000           -0.5878435             -15.9960
         5        2.0000           -0.5652050             -15.3800
         6        2.0000           -0.5421225             -14.7519
         7        2.0000           -0.5302975             -14.4301
         8        2.0000           -0.5161212             -14.0444
         9        2.0000           -0.4993856             -13.5890
        10        2.0000           -0.4851149             -13.2006
        11        2.0000           -0.4579181             -12.4606
        12        2.0000           -0.4558162             -12.4034
        13        2.0000           -0.4461652             -12.1408
        14        2.0000           -0.4307420             -11.7211
        15        2.0000           -0.4232660             -11.5177
        16        2.0000           -0.4073959             -11.0858 (HOMO)
        17                          0.0574701               1.5638 (LUMO)
        18                          0.0771476               2.0993
        19                          0.1182134               3.2167
        20                          0.1286277               3.5001
        21                          0.1532673               4.1706
        22                          0.1600288               4.3546
        23                          0.1753488               4.7715
        24                          0.1827821               4.9738
        25                          0.1901128               5.1732
        26                          0.2366111               6.4385
        27                          0.2480801               6.7506
       ...                                ...                  ...
        30                          0.3087954               8.4028
      -------------------------------------------------------------
                  HL-Gap            0.4648659 Eh           12.6496 eV
             Fermi-level           -0.1749629 Eh           -4.7610 eV

     #   Z          covCN         q      C6AA      α(0)
     1   6 C        3.752    -0.113    22.723     6.798
     2   6 C        3.801    -0.057    21.608     6.618
     3   6 C        3.801    -0.076    21.954     6.671
     4   6 C        3.674     0.078    19.497     6.327
     5   8 O        1.654    -0.518    23.273     6.512
     6   1 H        0.925     0.038     2.470     2.458
     7   1 H        0.925     0.038     2.474     2.460
     8   1 H        0.925     0.039     2.462     2.454
     9   1 H        0.924     0.040     2.450     2.448
    10   1 H        0.924     0.031     2.566     2.505
    11   1 H        0.924     0.041     2.437     2.441
    12   1 H        0.924     0.043     2.412     2.428
    13   1 H        0.924     0.042     2.418     2.432
    14   1 H        0.923     0.021     2.722     2.580
    15   1 H        0.805     0.352     0.583     1.200

 Mol. C6AA /au·bohr⁶  :       1460.515767
 Mol. C8AA /au·bohr⁸  :      29904.574534
 Mol. α(0) /au        :         56.331351


Wiberg/Mayer (AO) data.
largest (>0.10) Wiberg bond orders for each atom

 ---------------------------------------------------------------------------
     #   Z sym  total        # sym  WBO       # sym  WBO       # sym  WBO
 ---------------------------------------------------------------------------
     1   6 C    3.996 --     2 C    1.019     7 H    0.988     6 H    0.988
                             8 H    0.987
     2   6 C    3.997 --     1 C    1.019     3 C    1.009    10 H    0.978
                             9 H    0.977
     3   6 C    3.996 --     2 C    1.009     4 C    0.998    11 H    0.976
                            12 H    0.975
     4   6 C    3.953 --     3 C    0.998     5 O    0.994    13 H    0.973
                            14 H    0.971
     5   8 O    1.913 --     4 C    0.994    15 H    0.862
     6   1 H    0.999 --     1 C    0.988
     7   1 H    0.999 --     1 C    0.988
     8   1 H    0.998 --     1 C    0.987
     9   1 H    0.998 --     2 C    0.977
    10   1 H    0.999 --     2 C    0.978
    11   1 H    0.998 --     3 C    0.976
    12   1 H    0.998 --     3 C    0.975
    13   1 H    0.998 --     4 C    0.973
    14   1 H    0.999 --     4 C    0.971
    15   1 H    0.876 --     5 O    0.862
 ---------------------------------------------------------------------------

Topologies differ in total number of bonds
Writing topology from bond orders to xtbtopo.mol

molecular dipole:
                 x           y           z       tot (Debye)
 q only:        0.340      -0.535      -0.301
   full:        0.360      -0.672      -0.399       2.187
molecular quadrupole (traceless):
                xx          xy          yy          xz          yz          zz
 q only:       -2.125       2.637       2.132       1.534      -1.677      -0.007
  q+dip:       -3.549       3.560       3.914       2.458      -2.200      -0.365
   full:       -3.252       3.491       3.503       2.248      -2.222      -0.250

           -------------------------------------------------
          |                Geometry Summary                 |
           -------------------------------------------------

      molecular mass/u    :       74.1217560
   center of mass at/Å    :        0.0004446      -0.0584795       0.0374005
  moments of inertia/u·Å² :        0.4109118E+02   0.2130207E+03   0.2293391E+03
rotational constants/cm⁻¹ :        0.4102494E+00   0.7913611E-01   0.7350528E-01

 * 14 selected distances

     #   Z          #   Z                                           value/Å
     1   6 C        2   6 C                                       1.5235836
     2   6 C        3   6 C                                       1.5274871
     3   6 C        4   6 C                                       1.5293168 (max)
     4   6 C        5   8 O                                       1.4124769
     1   6 C        6   1 H                                       1.0876697
     1   6 C        7   1 H                                       1.0877171
     1   6 C        8   1 H                                       1.0869579
     2   6 C        9   1 H                                       1.0919761
     2   6 C       10   1 H                                       1.0921596
     3   6 C       11   1 H                                       1.0910469
     3   6 C       12   1 H                                       1.0927857
     4   6 C       13   1 H                                       1.0928304
     4   6 C       14   1 H                                       1.0988836
     5   8 O       15   1 H                                       0.9674246 (min)

 * 4 distinct bonds (by element types)

   Z      Z             #   av. dist./Å        max./Å        min./Å
   1 H    6 C           9     1.0913363     1.0988836     1.0869579
   6 C    6 C           3     1.5267958     1.5293168     1.5235836
   1 H    8 O           1     0.9674246     0.9674246     0.9674246
   6 C    8 O           1     1.4124769     1.4124769     1.4124769

           -------------------------------------------------
          |               Frequency Printout                |
           -------------------------------------------------
 projected vibrational frequencies (cm⁻¹)
eigval :       -0.00    -0.00    -0.00     0.00     0.00     0.00
eigval :       82.23   125.46   231.84   242.43   331.55   346.90
eigval :      515.10   780.35   869.43   884.65   958.50   986.44
eigval :     1060.56  1083.78  1107.55  1134.36  1196.26  1236.13
eigval :     1278.84  1290.83  1303.93  1338.43  1365.84  1411.62
eigval :     1472.78  1478.38  1496.29  1500.07  1501.97  2870.19
eigval :     2960.03  2968.37  2974.20  2984.55  2987.80  3025.63
eigval :     3029.97  3040.30  3493.41
 reduced masses (amu)
   1: 10.33   2: 10.39   3: 10.99   4: 11.26   5: 11.54   6:  9.43   7:  8.20   8:  8.84
   9:  2.48  10:  6.94  11:  4.51  12:  7.76  13:  8.98  14:  2.41  15:  5.00  16:  6.20
  17:  5.08  18:  6.39  19:  2.70  20: 10.18  21:  9.20  22:  7.29  23:  5.45  24:  3.82
  25:  2.12  26:  3.75  27:  3.12  28:  3.36  29:  5.22  30:  3.23  31:  1.83  32:  1.96
  33:  1.80  34:  1.53  35:  1.68  36:  1.75  37:  1.83  38:  1.88  39:  1.75  40:  1.53
  41:  1.60  42:  1.95  43:  1.85  44:  1.34  45:  1.88
 IR intensities (km·mol⁻¹)
   1:  1.69   2:  0.18   3:  0.19   4:  2.18   5:  0.16   6:  0.87   7:  0.42   8:  1.42
   9:  0.40  10: 32.00  11:105.42  12: 89.53  13: 21.18  14:  7.14  15:  4.50  16:  6.80
  17: 47.31  18: 16.39  19: 43.33  20: 44.87  21: 47.34  22:  8.25  23: 15.76  24:  5.19
  25:  4.00  26: 34.74  27: 19.30  28: 56.00  29:  1.00  30:  0.27  31:  1.91  32:  0.85
  33:  0.69  34:  1.45  35:  0.41  36:125.38  37:  3.01  38: 41.99  39:149.68  40: 25.63
  41:106.32  42: 91.27  43: 84.54  44: 45.54  45: 60.76
 Raman intensities (Ä⁴*amu⁻¹)
   1:  0.00   2:  0.00   3:  0.00   4:  0.00   5:  0.00   6:  0.00   7:  0.00   8:  0.00
   9:  0.00  10:  0.00  11:  0.00  12:  0.00  13:  0.00  14:  0.00  15:  0.00  16:  0.00
  17:  0.00  18:  0.00  19:  0.00  20:  0.00  21:  0.00  22:  0.00  23:  0.00  24:  0.00
  25:  0.00  26:  0.00  27:  0.00  28:  0.00  29:  0.00  30:  0.00  31:  0.00  32:  0.00
  33:  0.00  34:  0.00  35:  0.00  36:  0.00  37:  0.00  38:  0.00  39:  0.00  40:  0.00
  41:  0.00  42:  0.00  43:  0.00  44:  0.00  45:  0.00
 output can be read by thermo (or use thermo option).
 writing <g98.out> molden fake output.
 recommended (thermochemical) frequency scaling factor: 1.0
           -------------------------------------------------
          |             Thermodynamic Functions             |
           -------------------------------------------------

Molecule has no symmetry elements
It seems to be the C1 point group
c1  symmetry found (for desy threshold:  0.10E+00) used in thermo

          ...................................................
          :                      SETUP                      :
          :.................................................:
          :  # frequencies                          39      :
          :  # imaginary freq.                       0      :
          :  linear?                             false      :
          :  only rotor calc.                    false      :
          :  symmetry                               c1      :
          :  rotational number                       1      :
          :  scaling factor                  1.0000000      :
          :  rotor cutoff                    0.0000000 cm⁻¹ :
          :  imag. cutoff                 -100.0000000 cm⁻¹ :
          :.................................................:

    mode    ω/cm⁻¹     T·S(HO)/kcal·mol⁻¹    T·S(FR)/kcal·mol⁻¹   T·S(vib)
   ------------------------------------------------------------------------
       1     82.23    -1.14401 (100.00%)    -0.90881 (  0.00%)    -1.14401
       2    125.46    -0.89876 (100.00%)    -0.78377 (  0.00%)    -0.89876
       3    231.84    -0.55595 (100.00%)    -0.60198 (  0.00%)    -0.55595
       4    242.43    -0.53219 (100.00%)    -0.58875 (  0.00%)    -0.53219
   ------------------------------------------------------------------------

   temp. (K)  partition function   enthalpy   heat capacity  entropy
                                   cal/mol     cal/K/mol   cal/K/mol   J/K/mol
 298.15  VIB   27.2                 2465.584     17.156     14.835
         ROT  0.108E+06              888.752      2.981     26.017
         INT  0.295E+07             3354.336     20.137     40.852
         TR   0.617E+27             1481.254      4.968     38.808
         TOT                        4835.5903    25.1054    79.6600   333.2973

       T/K    H(0)-H(T)+PV         H(T)/Eh          T*S/Eh         G(T)/Eh
   ------------------------------------------------------------------------
    298.15    0.770600E-02    0.141997E+00    0.378490E-01    0.104148E+00
   ------------------------------------------------------------------------

         :::::::::::::::::::::::::::::::::::::::::::::::::::::
         ::                  THERMODYNAMIC                  ::
         :::::::::::::::::::::::::::::::::::::::::::::::::::::
         :: total free energy         -17.625349517420 Eh   ::
         ::.................................................::
         :: total energy              -17.729497518993 Eh   ::
         :: zero point energy           0.134291017923 Eh   ::
         :: G(RRHO) w/o ZPVE           -0.030143016349 Eh   ::
         :: G(RRHO) contrib.            0.104148001573 Eh   ::
         :::::::::::::::::::::::::::::::::::::::::::::::::::::

optimized geometry written to: xtbopt.coord


           -------------------------------------------------
          | TOTAL ENERGY              -17.729497518993 Eh   |
          | TOTAL ENTHALPY            -17.587500497395 Eh   |
          | TOTAL FREE ENERGY         -17.625349517420 Eh   |
          | GRADIENT NORM               0.000023891068 Eh/α |
          | HOMO-LUMO GAP              12.649646232880 eV   |
           -------------------------------------------------

------------------------------------------------------------------------
 * finished run on 2025/04/06 at 22:38:51.188     
------------------------------------------------------------------------
 total:
 * wall-time:     0 d,  0 h,  0 min,  0.564 sec
 *  cpu-time:     0 d,  0 h,  0 min,  0.484 sec
 * ratio c/w:     0.859 speedup
 SCF:
 * wall-time:     0 d,  0 h,  0 min,  0.020 sec
 *  cpu-time:     0 d,  0 h,  0 min,  0.007 sec
 * ratio c/w:     0.356 speedup
 ANC optimizer:
 * wall-time:     0 d,  0 h,  0 min,  0.121 sec
 *  cpu-time:     0 d,  0 h,  0 min,  0.107 sec
 * ratio c/w:     0.883 speedup
 analytical hessian:
 * wall-time:     0 d,  0 h,  0 min,  0.369 sec
 *  cpu-time:     0 d,  0 h,  0 min,  0.361 sec
 * ratio c/w:     0.977 speedup

