! wb97x-v def2-tzvp def2/J RIJCOSX DEFGRID2 scfconv7 GCP(DFT/TZ) printgap
%output
    printlevel normal
end
* xyz 0 1
C -3.3073632675231264 0.25921063861869725 -0.012282856814892456
C -1.8201688903925246 0.08615390788961354 0.012072095279501444
C -0.9730241957936587 1.2068529931472365 0.009882146743515901
C 0.40211742123839733 1.0596102814612993 0.0014863592595882132
C 0.9686010454896988 -0.22409029435648256 -0.0025911745648823513
C 0.13134027767941173 -1.346801762536175 0.0020578285025814884
C -1.2468668324282173 -1.190931416240683 0.010715733608161889
C 2.413911510814967 -0.42473629094247384 -0.006693436603674808
O 3.2495458520525595 0.47602834648853193 -0.007519800736689938
H -3.6100184095094687 1.1632590910027596 0.5228488535774225
H -3.658182677271449 0.36070423729202 -1.0468696337928511
H -3.8158463615809026 -0.6039686056727168 0.42422717104913116
H -1.4107614436708564 2.200977163302238 0.01648382074726476
H 1.0506386630628013 1.9301353228836426 0.001761557839215198
H 0.5713189060085064 -2.3406453743198457 0.0025889470635564755
H -1.891502909600187 -2.064873705757284 0.017993253124720485
H 2.738859466848051 -1.484102079685979 -0.009400862678927096
*
