! wb97x-v def2-tzvp def2/J RIJCOSX DEFGRID2 scfconv7 GCP(DFT/TZ) printgap
%output
    printlevel normal
end
%cpcm
    smd true
    smdsolvent "water"
end
* xyz 0 1
C -2.7449619878682414 -0.2570434903161156 5.3360337787344784e-05
C -2.352975786021692 1.098289839906908 0.00010360928178021815
C -1.0195559032030415 1.4376539835114635 0.00011337578599549359
C -0.023558074778155722 0.4323363265375369 7.938085185421099e-05
C -0.41445516619028105 -0.9452861626421826 4.106522295721513e-05
C -1.797515565183985 -1.253366255782421 2.1722025830624023e-05
C 0.5768490575754528 -1.957513680872796 2.873626198444165e-05
C 1.90869538443021 -1.6174347617977145 4.522305391703023e-05
C 2.313262007854394 -0.2676506668448276 6.781591335567314e-05
C 1.366910353577961 0.7342450137484562 8.059470295628234e-05
O 1.7049296795176576 2.0646294097850633 9.71759173015138e-05
H -3.8003748122377368 -0.5106765559177354 3.808054765743668e-05
H -3.109246217525542 1.8766991436273732 0.00013913826592004097
H -0.7247589097812017 2.480765750257565 0.00015073560328271853
H -2.0959127791639607 -2.297953791411288 -2.317634069296111e-05
H 0.2670571121866475 -2.9979496146313975 7.385751126565282e-06
H 2.6695874125715005 -2.3916837899144037 4.9139157097435326e-05
H 3.368659478904337 -0.009717766780443346 7.963996139574912e-05
H 2.6694991877902665 2.1420047811126386 5.671174750470032e-05
*
