! pbe def2-sv(p) def2/J RI DEFGRID1 loosescf d4 GCP(DFT/SV(P)) printgap
%output
    printlevel normal
end
* xyz 0 1
C -3.3745364979 0.6177727447 0.0007198235
O -1.9540520839 0.760744504 0.0005957074
C -1.2316239002 -0.3593416725 -0.0003496249
O -1.7407046758 -1.4665318218 -0.0010555141
C 0.2239622002 -0.1134666166 -0.0002138118
C 1.0842194163 -1.2107493931 0.0004469732
C 2.4521891992 -1.0172043087 0.0007111156
C 2.9683364441 0.2697969538 0.0002552879
C 2.1161764709 1.363983256 -0.0004796063
C 0.746386087 1.1790995107 -0.0006965234
H -3.7698468759 1.6285892819 0.007897765
H -3.694321384 0.0641227567 0.8846404442
H -3.6956077442 0.0764114045 -0.8903117664
H 0.6552581181 -2.2015921157 0.0007839142
H 3.1154027331 -1.86796666 0.0012834098
H 4.0367970459 0.4202213156 0.0004655718
H 2.521709162 2.3636350782 -0.0008796447
H 0.0743256442 2.0222433152 -0.0012716022
*
